LAMMPS (22 Dec 2022)
WARNING: Using I/O redirection is unreliable with parallel runs. Better to use the -in switch to read input files. (../lammps.cpp:531)
# PREREQUISITES:
#
#     You must use moltemplate.sh to create 3 files:
#        system.data  system.in.init  system.in.settings
#     (Follow the instructions in README_setup.sh,
#      or run the file as a script using ./README_setup.sh)

# ------------------------------- Initialization Section --------------------

units real
atom_style full
pair_style lj/class2/coul/long 10.0 10.0
kspace_style pppm 1.0e-4
bond_style class2
angle_style class2
dihedral_style class2
improper_style class2


# ------------------------------- Atom Definition Section -------------------

read_data       "reaxed.data" extra/bond/per/atom 1
Reading data file ...
  orthogonal box = (5.3835842 5.3835842 5.3835842) to (37.478536 37.478536 37.478536)
  1 by 2 by 3 MPI processor grid
  reading atoms ...
  2996 atoms
  reading velocities ...
  2996 velocities
  scanning bonds ...
  5 = max bonds/atom
  scanning angles ...
  6 = max angles/atom
  scanning dihedrals ...
  14 = max dihedrals/atom
  scanning impropers ...
  4 = max impropers/atom
  reading bonds ...
  3131 bonds
  reading angles ...
  5396 angles
  reading dihedrals ...
  7142 dihedrals
  reading impropers ...
  2556 impropers
Finding 1-2 1-3 1-4 neighbors ...
  special bond factors lj:    0        0        0       
  special bond factors coul:  0        0        0       
     4 = max # of 1-2 neighbors
     7 = max # of 1-3 neighbors
    15 = max # of 1-4 neighbors
    17 = max # of special neighbors
  special bonds CPU = 0.001 seconds
  read_data CPU = 0.047 seconds

include calc.pram

# Masses

mass		1    12.01115  # c
mass		2    12.01115  # c1
mass		3    12.01115  # c3h
mass		4    12.01115  # cp
mass		5     1.00797  # h
mass		6     1.00797  # hc
mass		7    15.99940  # o3e
mass		8    15.99940  # oc
mass		9    15.99940  # oh

# Potentials

pair_coeff	 1  1    0.05400    4.01000  # c,c
pair_coeff	 2  2    0.05400    4.01000  # c1,c1
pair_coeff	 3  3    0.05400    4.01000  # c3h,c3h
pair_coeff	 4  4    0.06400    4.01000  # cp,cp
pair_coeff	 5  5    0.02000    2.99500  # h,h
pair_coeff	 6  6    0.02000    2.99500  # hc,hc
pair_coeff	 7  7    0.24000    3.53500  # o3e,o3e
pair_coeff	 8  8    0.24000    3.53500  # oc,oc
pair_coeff	 9  9    0.24000    3.53500  # oh,oh

# Bond Coeffs

bond_coeff	 1    1.53000  299.67000 -501.77000  679.81000  # c,c
bond_coeff	 2    1.53000  299.67000 -501.77000  679.81000  # c,c1
bond_coeff	 3    1.53000  299.67000 -501.77000  679.81000  # c,c3h
bond_coeff	 4    1.10100  345.00000 -691.89000  844.60000  # c,hc
bond_coeff	 5    1.42000  400.39540 -835.19510 1313.01420  # c,o3e
bond_coeff	 6    1.42000  400.39540 -835.19510 1313.01420  # c,oc
bond_coeff	 7    1.42000  400.39540 -835.19510 1313.01420  # c,oh
bond_coeff	 8    1.10100  345.00000 -691.89000  844.60000  # c1,hc
bond_coeff	 9    1.42000  400.39540 -835.19510 1313.01420  # c1,oc
bond_coeff	10    1.10100  345.00000 -691.89000  844.60000  # c3h,hc
bond_coeff	11    1.42000  400.39540 -835.19510 1313.01420  # c3h,o3e
bond_coeff	12    1.41700  470.83610 -627.61790 1327.63450  # cp,cp
bond_coeff	13    1.09820  372.82510 -803.45260  894.31730  # cp,hc
bond_coeff	14    1.37680  428.87980 -738.23510 1114.96550  # cp,oc
bond_coeff	15    0.96000  493.84800    0.00000    0.00000  # h,oh

# Angle Coeffs

angle_coeff	 1  112.67000   39.51600   -7.44300   -9.55830  # c,c,c
angle_coeff	 2  110.77000   41.45300  -10.60400    5.12900  # c,c,hc
angle_coeff	 3  111.27000   54.53810   -8.36420  -13.08380  # c,c,oc
angle_coeff	 4  112.67000   39.51600   -7.44300   -9.55830  # c,c1,c
angle_coeff	 5  110.77000   41.45300  -10.60400    5.12900  # c,c1,hc
angle_coeff	 6  111.27000   54.53810   -8.36420  -13.08380  # c,c1,oc
angle_coeff	 7  112.67000   39.51600   -7.44300   -9.55830  # c,c3h,c
angle_coeff	 8  110.77000   41.45300  -10.60400    5.12900  # c,c3h,hc
angle_coeff	 9  111.27000   54.53810   -8.36420  -13.08380  # c,c3h,o3e
angle_coeff	10  104.50000   35.74540  -10.00670   -6.27290  # c,o3e,c3h
angle_coeff	11  104.50000   35.74540  -10.00670   -6.27290  # c,oc,c1
angle_coeff	12  102.96950   38.97390   -6.25950   -8.17100  # c,oc,cp
angle_coeff	13  109.00000   58.50000    0.00000    0.00000  # c,oh,h
angle_coeff	14  110.77000   41.45300  -10.60400    5.12900  # c1,c,hc
angle_coeff	15  111.27000   54.53810   -8.36420  -13.08380  # c1,c,oc
angle_coeff	16  111.27000   54.53810   -8.36420  -13.08380  # c1,c,oh
angle_coeff	17  110.77000   41.45300  -10.60400    5.12900  # c3h,c,hc
angle_coeff	18  111.27000   54.53810   -8.36420  -13.08380  # c3h,c,o3e
angle_coeff	19  111.27000   54.53810   -8.36420  -13.08380  # c3h,c,oc
angle_coeff	20  118.90000   61.02260  -34.99310    0.00000  # cp,cp,cp
angle_coeff	21  117.94000   35.15580  -12.46820    0.00000  # cp,cp,hc
angle_coeff	22  123.42000   73.67810  -21.67870    0.00000  # cp,cp,oc
angle_coeff	23  107.66000   39.64100  -12.92100   -2.43180  # hc,c,hc
angle_coeff	24  108.72800   58.54460  -10.80880  -12.40060  # hc,c,o3e
angle_coeff	25  108.72800   58.54460  -10.80880  -12.40060  # hc,c,oc
angle_coeff	26  108.72800   58.54460  -10.80880  -12.40060  # hc,c,oh
angle_coeff	27  108.72800   58.54460  -10.80880  -12.40060  # hc,c1,oc
angle_coeff	28  108.72800   58.54460  -10.80880  -12.40060  # hc,c3h,o3e

# BondBond Coeffs

angle_coeff	 1 bb    0.00000    1.53000    1.53000  # c,c,c
angle_coeff	 2 bb    3.38720    1.53000    1.10100  # c,c,hc
angle_coeff	 3 bb   11.43180    1.53000    1.42000  # c,c,oc
angle_coeff	 4 bb    0.00000    1.53000    1.53000  # c,c1,c
angle_coeff	 5 bb    3.38720    1.53000    1.10100  # c,c1,hc
angle_coeff	 6 bb   11.43180    1.53000    1.42000  # c,c1,oc
angle_coeff	 7 bb    0.00000    1.53000    1.53000  # c,c3h,c
angle_coeff	 8 bb    3.38720    1.53000    1.10100  # c,c3h,hc
angle_coeff	 9 bb   11.43180    1.53000    1.42000  # c,c3h,o3e
angle_coeff	10 bb   -7.11310    1.42000    1.42000  # c,o3e,c3h
angle_coeff	11 bb   -7.11310    1.42000    1.42000  # c,oc,c1
angle_coeff	12 bb    0.00000    1.42000    1.37680  # c,oc,cp
angle_coeff	13 bb    0.00000    1.42000    0.96000  # c,oh,h
angle_coeff	14 bb    3.38720    1.53000    1.10100  # c1,c,hc
angle_coeff	15 bb   11.43180    1.53000    1.42000  # c1,c,oc
angle_coeff	16 bb   11.43180    1.53000    1.42000  # c1,c,oh
angle_coeff	17 bb    3.38720    1.53000    1.10100  # c3h,c,hc
angle_coeff	18 bb   11.43180    1.53000    1.42000  # c3h,c,o3e
angle_coeff	19 bb   11.43180    1.53000    1.42000  # c3h,c,oc
angle_coeff	20 bb   68.28560    1.41700    1.41700  # cp,cp,cp
angle_coeff	21 bb    1.07950    1.41700    1.09820  # cp,cp,hc
angle_coeff	22 bb   48.47540    1.41700    1.37680  # cp,cp,oc
angle_coeff	23 bb    5.33160    1.10100    1.10100  # hc,c,hc
angle_coeff	24 bb   23.19790    1.10100    1.42000  # hc,c,o3e
angle_coeff	25 bb   23.19790    1.10100    1.42000  # hc,c,oc
angle_coeff	26 bb   23.19790    1.10100    1.42000  # hc,c,oh
angle_coeff	27 bb   23.19790    1.10100    1.42000  # hc,c1,oc
angle_coeff	28 bb   23.19790    1.10100    1.42000  # hc,c3h,o3e

# BondAngle Coeffs

angle_coeff	 1 ba    8.01600    8.01600    1.53000    1.53000  # c,c,c
angle_coeff	 2 ba   20.75400   11.42100    1.53000    1.10100  # c,c,hc
angle_coeff	 3 ba   20.40330    2.68680    1.53000    1.42000  # c,c,oc
angle_coeff	 4 ba    8.01600    8.01600    1.53000    1.53000  # c,c1,c
angle_coeff	 5 ba   20.75400   11.42100    1.53000    1.10100  # c,c1,hc
angle_coeff	 6 ba   20.40330    2.68680    1.53000    1.42000  # c,c1,oc
angle_coeff	 7 ba    8.01600    8.01600    1.53000    1.53000  # c,c3h,c
angle_coeff	 8 ba   20.75400   11.42100    1.53000    1.10100  # c,c3h,hc
angle_coeff	 9 ba    2.68680   20.40330    1.53000    1.42000  # c,c3h,o3e
angle_coeff	10 ba   -2.81120   -2.81120    1.42000    1.42000  # c,o3e,c3h
angle_coeff	11 ba   -2.81120   -2.81120    1.42000    1.42000  # c,oc,c1
angle_coeff	12 ba    0.00000    0.00000    1.42000    1.37680  # c,oc,cp
angle_coeff	13 ba    0.00000    0.00000    1.42000    0.96000  # c,oh,h
angle_coeff	14 ba   11.42100   20.75400    1.53000    1.10100  # c1,c,hc
angle_coeff	15 ba   20.40330    2.68680    1.53000    1.42000  # c1,c,oc
angle_coeff	16 ba   20.40330    2.68680    1.53000    1.42000  # c1,c,oh
angle_coeff	17 ba   11.42100   20.75400    1.53000    1.10100  # c3h,c,hc
angle_coeff	18 ba    2.68680   20.40330    1.53000    1.42000  # c3h,c,o3e
angle_coeff	19 ba   20.40330    2.68680    1.53000    1.42000  # c3h,c,oc
angle_coeff	20 ba   28.87080   28.87080    1.41700    1.41700  # cp,cp,cp
angle_coeff	21 ba   20.00330   24.21830    1.41700    1.09820  # cp,cp,hc
angle_coeff	22 ba   58.47900  107.68060    1.41700    1.37680  # cp,cp,oc
angle_coeff	23 ba   18.10300   18.10300    1.10100    1.10100  # hc,c,hc
angle_coeff	24 ba    4.61890   55.32700    1.10100    1.42000  # hc,c,o3e
angle_coeff	25 ba   55.32700    4.61890    1.10100    1.42000  # hc,c,oc
angle_coeff	26 ba    4.61890   55.32700    1.10100    1.42000  # hc,c,oh
angle_coeff	27 ba   55.32700    4.61890    1.10100    1.42000  # hc,c1,oc
angle_coeff	28 ba    4.61890   55.32700    1.10100    1.42000  # hc,c3h,o3e

# Dihedral Coeffs

dihedral_coeff	 1    0.00000    0.00000    0.03160    0.00000   -0.16810    0.00000  # c,c,c,hc
dihedral_coeff	 2    0.71370    0.00000    0.26600    0.00000   -0.25450    0.00000  # c,c,c,oc
dihedral_coeff	 3   -0.52030    0.00000   -0.30280    0.00000   -0.34500    0.00000  # c,c,oc,c1
dihedral_coeff	 4    0.00000    0.00000    0.00000    0.00000    0.13000  180.00000  # c,c,oc,cp
dihedral_coeff	 5    0.00000    0.00000    0.03160    0.00000   -0.16810    0.00000  # c,c1,c,hc
dihedral_coeff	 6    0.71370    0.00000    0.26600    0.00000   -0.25450    0.00000  # c,c1,c,oc
dihedral_coeff	 7    0.71370    0.00000    0.26600    0.00000   -0.25450    0.00000  # c,c1,c,oh
dihedral_coeff	 8   -0.52030    0.00000   -0.30280    0.00000   -0.34500    0.00000  # c,c1,oc,c
dihedral_coeff	 9    0.00000    0.00000    0.03160    0.00000   -0.16810    0.00000  # c,c3h,c,hc
dihedral_coeff	10    0.71370    0.00000    0.26600    0.00000   -0.25450    0.00000  # c,c3h,c,o3e
dihedral_coeff	11    0.71370    0.00000    0.26600    0.00000   -0.25450    0.00000  # c,c3h,c,oc
dihedral_coeff	12   -0.52030    0.00000   -0.30280    0.00000   -0.34500    0.00000  # c,c3h,o3e,c
dihedral_coeff	13    0.53020    0.00000    0.00000    0.00000   -0.39660    0.00000  # c,o3e,c3h,hc
dihedral_coeff	14    0.53020    0.00000    0.00000    0.00000   -0.39660    0.00000  # c,oc,c1,hc
dihedral_coeff	15    0.00000    0.00000    1.50000    0.00000    0.00000    0.00000  # c,oc,cp,cp
dihedral_coeff	16   -0.52030    0.00000   -0.30280    0.00000   -0.34500    0.00000  # c1,c,oc,c1
dihedral_coeff	17    0.00000    0.00000    0.00000    0.00000    0.13000  180.00000  # c1,c,oc,cp
dihedral_coeff	18    0.00000    0.00000    0.00000    0.00000    0.13000  180.00000  # c1,c,oh,h
dihedral_coeff	19    0.53020    0.00000    0.00000    0.00000   -0.39660    0.00000  # c1,oc,c,hc
dihedral_coeff	20    0.00000    0.00000    0.00000    0.00000    0.13000  180.00000  # c3h,c,oc,cp
dihedral_coeff	21    0.53020    0.00000    0.00000    0.00000   -0.39660    0.00000  # c3h,o3e,c,hc
dihedral_coeff	22    8.36670    0.00000    1.19320    0.00000    0.00000    0.00000  # cp,cp,cp,cp
dihedral_coeff	23    0.00000    0.00000    3.96610    0.00000    0.00000    0.00000  # cp,cp,cp,hc
dihedral_coeff	24    0.00000    0.00000    4.84980    0.00000    0.00000    0.00000  # cp,cp,cp,oc
dihedral_coeff	25    0.95130    0.00000    0.11550    0.00000    0.07200    0.00000  # cp,oc,c,hc
dihedral_coeff	26    0.00000    0.00000    0.00000    0.00000    0.13000  180.00000  # h,oh,c,hc
dihedral_coeff	27   -0.14320    0.00000    0.06170    0.00000   -0.10830    0.00000  # hc,c,c,hc
dihedral_coeff	28   -0.14350    0.00000    0.25300    0.00000   -0.09050    0.00000  # hc,c,c,oc
dihedral_coeff	29   -0.14320    0.00000    0.06170    0.00000   -0.10830    0.00000  # hc,c,c1,hc
dihedral_coeff	30   -0.14350    0.00000    0.25300    0.00000   -0.09050    0.00000  # hc,c,c1,oc
dihedral_coeff	31   -0.14320    0.00000    0.06170    0.00000   -0.10830    0.00000  # hc,c,c3h,hc
dihedral_coeff	32   -0.14350    0.00000    0.25300    0.00000   -0.09050    0.00000  # hc,c,c3h,o3e
dihedral_coeff	33   -0.14350    0.00000    0.25300    0.00000   -0.09050    0.00000  # hc,c1,c,oc
dihedral_coeff	34   -0.14350    0.00000    0.25300    0.00000   -0.09050    0.00000  # hc,c1,c,oh
dihedral_coeff	35   -0.14350    0.00000    0.25300    0.00000   -0.09050    0.00000  # hc,c3h,c,o3e
dihedral_coeff	36   -0.14350    0.00000    0.25300    0.00000   -0.09050    0.00000  # hc,c3h,c,oc
dihedral_coeff	37    0.00000    0.00000    1.87690    0.00000    0.00000    0.00000  # hc,cp,cp,hc
dihedral_coeff	38    0.00000    0.00000    1.72340    0.00000    0.00000    0.00000  # hc,cp,cp,oc
dihedral_coeff	39   -0.18200    0.00000   -0.10840    0.00000   -0.70470    0.00000  # o3e,c3h,c,oc
dihedral_coeff	40   -0.18200    0.00000   -0.10840    0.00000   -0.70470    0.00000  # oc,c,c1,oc
dihedral_coeff	41   -0.18200    0.00000   -0.10840    0.00000   -0.70470    0.00000  # oc,c1,c,oh

# MiddleBondTorsion Coeffs

dihedral_coeff	 1 mbt  -14.87900   -3.65810   -0.31380    1.53000  # c,c,c,hc
dihedral_coeff	 2 mbt  -21.88420   -7.67640   -0.68680    1.53000  # c,c,c,oc
dihedral_coeff	 3 mbt   -5.92880   -2.70070   -0.31750    1.42000  # c,c,oc,c1
dihedral_coeff	 4 mbt    0.00000    0.00000    0.00000    1.42000  # c,c,oc,cp
dihedral_coeff	 5 mbt  -14.87900   -3.65810   -0.31380    1.53000  # c,c1,c,hc
dihedral_coeff	 6 mbt  -21.88420   -7.67640   -0.68680    1.53000  # c,c1,c,oc
dihedral_coeff	 7 mbt  -21.88420   -7.67640   -0.68680    1.53000  # c,c1,c,oh
dihedral_coeff	 8 mbt   -5.92880   -2.70070   -0.31750    1.42000  # c,c1,oc,c
dihedral_coeff	 9 mbt  -14.87900   -3.65810   -0.31380    1.53000  # c,c3h,c,hc
dihedral_coeff	10 mbt  -21.88420   -7.67640   -0.68680    1.53000  # c,c3h,c,o3e
dihedral_coeff	11 mbt  -21.88420   -7.67640   -0.68680    1.53000  # c,c3h,c,oc
dihedral_coeff	12 mbt   -5.92880   -2.70070   -0.31750    1.42000  # c,c3h,o3e,c
dihedral_coeff	13 mbt   -6.80070   -4.65460   -1.41010    1.42000  # c,o3e,c3h,hc
dihedral_coeff	14 mbt   -6.80070   -4.65460   -1.41010    1.42000  # c,oc,c1,hc
dihedral_coeff	15 mbt    0.00000    0.00000    0.00000    1.37680  # c,oc,cp,cp
dihedral_coeff	16 mbt   -5.92880   -2.70070   -0.31750    1.42000  # c1,c,oc,c1
dihedral_coeff	17 mbt    0.00000    0.00000    0.00000    1.42000  # c1,c,oc,cp
dihedral_coeff	18 mbt    0.00000    0.00000    0.00000    1.42000  # c1,c,oh,h
dihedral_coeff	19 mbt   -6.80070   -4.65460   -1.41010    1.42000  # c1,oc,c,hc
dihedral_coeff	20 mbt    0.00000    0.00000    0.00000    1.42000  # c3h,c,oc,cp
dihedral_coeff	21 mbt   -6.80070   -4.65460   -1.41010    1.42000  # c3h,o3e,c,hc
dihedral_coeff	22 mbt   27.59890   -2.31200    0.00000    1.41700  # cp,cp,cp,cp
dihedral_coeff	23 mbt    0.00000   -1.15210    0.00000    1.41700  # cp,cp,cp,hc
dihedral_coeff	24 mbt    0.00000    4.82550    0.00000    1.41700  # cp,cp,cp,oc
dihedral_coeff	25 mbt    0.00000    0.00000    0.00000    1.42000  # cp,oc,c,hc
dihedral_coeff	26 mbt    0.00000    0.00000    0.00000    1.42000  # h,oh,c,hc
dihedral_coeff	27 mbt  -14.26100   -0.53220   -0.48640    1.53000  # hc,c,c,hc
dihedral_coeff	28 mbt  -16.79750   -1.22960   -0.27500    1.53000  # hc,c,c,oc
dihedral_coeff	29 mbt  -14.26100   -0.53220   -0.48640    1.53000  # hc,c,c1,hc
dihedral_coeff	30 mbt  -16.79750   -1.22960   -0.27500    1.53000  # hc,c,c1,oc
dihedral_coeff	31 mbt  -14.26100   -0.53220   -0.48640    1.53000  # hc,c,c3h,hc
dihedral_coeff	32 mbt  -16.79750   -1.22960   -0.27500    1.53000  # hc,c,c3h,o3e
dihedral_coeff	33 mbt  -16.79750   -1.22960   -0.27500    1.53000  # hc,c1,c,oc
dihedral_coeff	34 mbt  -16.79750   -1.22960   -0.27500    1.53000  # hc,c1,c,oh
dihedral_coeff	35 mbt  -16.79750   -1.22960   -0.27500    1.53000  # hc,c3h,c,o3e
dihedral_coeff	36 mbt  -16.79750   -1.22960   -0.27500    1.53000  # hc,c3h,c,oc
dihedral_coeff	37 mbt    0.00000    4.82280    0.00000    1.41700  # hc,cp,cp,hc
dihedral_coeff	38 mbt    0.00000    5.54320    0.00000    1.41700  # hc,cp,cp,oc
dihedral_coeff	39 mbt  -17.25850   -3.61570   -0.83640    1.53000  # o3e,c3h,c,oc
dihedral_coeff	40 mbt  -17.25850   -3.61570   -0.83640    1.53000  # oc,c,c1,oc
dihedral_coeff	41 mbt  -17.25850   -3.61570   -0.83640    1.53000  # oc,c1,c,oh

# EndBondTorsion Coeffs

dihedral_coeff	 1 ebt    0.24860    0.24220   -0.09250    0.08140    0.05910    0.22190    1.53000    1.10100  # c,c,c,hc
dihedral_coeff	 2 ebt    1.15380    0.84090   -0.91380   -0.31900    0.44110   -0.71740    1.53000    1.42000  # c,c,c,oc
dihedral_coeff	 3 ebt   -0.24560    1.05170   -0.77950    0.47410    1.26350    0.55760    1.53000    1.42000  # c,c,oc,c1
dihedral_coeff	 4 ebt    0.00000    0.00000    0.00000    0.00000    0.00000    0.00000    1.53000    1.37680  # c,c,oc,cp
dihedral_coeff	 5 ebt    0.24860    0.24220   -0.09250    0.08140    0.05910    0.22190    1.53000    1.10100  # c,c1,c,hc
dihedral_coeff	 6 ebt    1.15380    0.84090   -0.91380   -0.31900    0.44110   -0.71740    1.53000    1.42000  # c,c1,c,oc
dihedral_coeff	 7 ebt   -0.31900    0.44110   -0.71740    1.15380    0.84090   -0.91380    1.53000    1.42000  # c,c1,c,oh
dihedral_coeff	 8 ebt    0.47410    1.26350    0.55760   -0.24560    1.05170   -0.77950    1.53000    1.42000  # c,c1,oc,c
dihedral_coeff	 9 ebt    0.24860    0.24220   -0.09250    0.08140    0.05910    0.22190    1.53000    1.10100  # c,c3h,c,hc
dihedral_coeff	10 ebt   -0.31900    0.44110   -0.71740    1.15380    0.84090   -0.91380    1.53000    1.42000  # c,c3h,c,o3e
dihedral_coeff	11 ebt    1.15380    0.84090   -0.91380   -0.31900    0.44110   -0.71740    1.53000    1.42000  # c,c3h,c,oc
dihedral_coeff	12 ebt   -0.24560    1.05170   -0.77950    0.47410    1.26350    0.55760    1.53000    1.42000  # c,c3h,o3e,c
dihedral_coeff	13 ebt   -0.16200    0.15640   -1.14080   -0.60540    1.33390    0.96480    1.42000    1.10100  # c,o3e,c3h,hc
dihedral_coeff	14 ebt   -0.16200    0.15640   -1.14080   -0.60540    1.33390    0.96480    1.42000    1.10100  # c,oc,c1,hc
dihedral_coeff	15 ebt    0.00000    0.00000    0.00000    0.00000    0.00000    0.00000    1.42000    1.41700  # c,oc,cp,cp
dihedral_coeff	16 ebt    0.47410    1.26350    0.55760   -0.24560    1.05170   -0.77950    1.53000    1.42000  # c1,c,oc,c1
dihedral_coeff	17 ebt    0.00000    0.00000    0.00000    0.00000    0.00000    0.00000    1.53000    1.37680  # c1,c,oc,cp
dihedral_coeff	18 ebt    0.00000    0.00000    0.00000    0.00000    0.00000    0.00000    1.53000    0.96000  # c1,c,oh,h
dihedral_coeff	19 ebt   -0.60540    1.33390    0.96480   -0.16200    0.15640   -1.14080    1.42000    1.10100  # c1,oc,c,hc
dihedral_coeff	20 ebt    0.00000    0.00000    0.00000    0.00000    0.00000    0.00000    1.53000    1.37680  # c3h,c,oc,cp
dihedral_coeff	21 ebt   -0.60540    1.33390    0.96480   -0.16200    0.15640   -1.14080    1.42000    1.10100  # c3h,o3e,c,hc
dihedral_coeff	22 ebt   -0.11850    6.32040    0.00000   -0.11850    6.32040    0.00000    1.41700    1.41700  # cp,cp,cp,cp
dihedral_coeff	23 ebt    0.00000   -6.89580    0.00000    0.00000   -0.46690    0.00000    1.41700    1.09820  # cp,cp,cp,hc
dihedral_coeff	24 ebt    0.00000    0.26550    0.00000    0.00000    4.89050    0.00000    1.41700    1.37680  # cp,cp,cp,oc
dihedral_coeff	25 ebt    0.00000    0.00000    0.00000    0.00000    0.00000    0.00000    1.37680    1.10100  # cp,oc,c,hc
dihedral_coeff	26 ebt    0.00000    0.00000    0.00000    0.00000    0.00000    0.00000    0.96000    1.10100  # h,oh,c,hc
dihedral_coeff	27 ebt    0.21300    0.31200    0.07770    0.21300    0.31200    0.07770    1.10100    1.10100  # hc,c,c,hc
dihedral_coeff	28 ebt    0.59030    0.66690    0.85840    0.96810    0.95510    0.04360    1.10100    1.42000  # hc,c,c,oc
dihedral_coeff	29 ebt    0.21300    0.31200    0.07770    0.21300    0.31200    0.07770    1.10100    1.10100  # hc,c,c1,hc
dihedral_coeff	30 ebt    0.59030    0.66690    0.85840    0.96810    0.95510    0.04360    1.10100    1.42000  # hc,c,c1,oc
dihedral_coeff	31 ebt    0.21300    0.31200    0.07770    0.21300    0.31200    0.07770    1.10100    1.10100  # hc,c,c3h,hc
dihedral_coeff	32 ebt    0.96810    0.95510    0.04360    0.59030    0.66690    0.85840    1.10100    1.42000  # hc,c,c3h,o3e
dihedral_coeff	33 ebt    0.59030    0.66690    0.85840    0.96810    0.95510    0.04360    1.10100    1.42000  # hc,c1,c,oc
dihedral_coeff	34 ebt    0.96810    0.95510    0.04360    0.59030    0.66690    0.85840    1.10100    1.42000  # hc,c1,c,oh
dihedral_coeff	35 ebt    0.96810    0.95510    0.04360    0.59030    0.66690    0.85840    1.10100    1.42000  # hc,c3h,c,o3e
dihedral_coeff	36 ebt    0.59030    0.66690    0.85840    0.96810    0.95510    0.04360    1.10100    1.42000  # hc,c3h,c,oc
dihedral_coeff	37 ebt    0.00000   -0.68900    0.00000    0.00000   -0.68900    0.00000    1.09820    1.09820  # hc,cp,cp,hc
dihedral_coeff	38 ebt    0.00000    4.26410    0.00000    0.00000   -1.58670    0.00000    1.09820    1.37680  # hc,cp,cp,oc
dihedral_coeff	39 ebt    1.01650    0.75530   -0.46090    1.01650    0.75530   -0.46090    1.42000    1.42000  # o3e,c3h,c,oc
dihedral_coeff	40 ebt    1.01650    0.75530   -0.46090    1.01650    0.75530   -0.46090    1.42000    1.42000  # oc,c,c1,oc
dihedral_coeff	41 ebt    1.01650    0.75530   -0.46090    1.01650    0.75530   -0.46090    1.42000    1.42000  # oc,c1,c,oh

# AngleTorsion Coeffs

dihedral_coeff	 1 at   -0.24540    0.00000   -0.11360    0.31130    0.45160   -0.19880  112.67000  110.77000  # c,c,c,hc
dihedral_coeff	 2 at    0.96720   -0.75660   -1.23310    0.56230   -0.30410   -0.40150  112.67000  111.27000  # c,c,c,oc
dihedral_coeff	 3 at   -2.74660    1.48770   -0.89550    0.56760    0.94500    0.07030  111.27000  104.50000  # c,c,oc,c1
dihedral_coeff	 4 at    0.00000    0.00000    0.00000    0.00000    0.00000    0.00000  111.27000  102.96950  # c,c,oc,cp
dihedral_coeff	 5 at   -0.24540    0.00000   -0.11360    0.31130    0.45160   -0.19880  112.67000  110.77000  # c,c1,c,hc
dihedral_coeff	 6 at    0.96720   -0.75660   -1.23310    0.56230   -0.30410   -0.40150  112.67000  111.27000  # c,c1,c,oc
dihedral_coeff	 7 at    0.56230   -0.30410   -0.40150    0.96720   -0.75660   -1.23310  112.67000  111.27000  # c,c1,c,oh
dihedral_coeff	 8 at    0.56760    0.94500    0.07030   -2.74660    1.48770   -0.89550  111.27000  104.50000  # c,c1,oc,c
dihedral_coeff	 9 at   -0.24540    0.00000   -0.11360    0.31130    0.45160   -0.19880  112.67000  110.77000  # c,c3h,c,hc
dihedral_coeff	10 at    0.56230   -0.30410   -0.40150    0.96720   -0.75660   -1.23310  112.67000  111.27000  # c,c3h,c,o3e
dihedral_coeff	11 at    0.96720   -0.75660   -1.23310    0.56230   -0.30410   -0.40150  112.67000  111.27000  # c,c3h,c,oc
dihedral_coeff	12 at   -2.74660    1.48770   -0.89550    0.56760    0.94500    0.07030  111.27000  104.50000  # c,c3h,o3e,c
dihedral_coeff	13 at   -0.77770    0.43400   -0.66530   -1.82340    1.63930    0.51440  104.50000  108.72800  # c,o3e,c3h,hc
dihedral_coeff	14 at   -0.77770    0.43400   -0.66530   -1.82340    1.63930    0.51440  104.50000  108.72800  # c,oc,c1,hc
dihedral_coeff	15 at    0.00000    0.00000    0.00000    0.00000    0.00000    0.00000  102.96950  123.42000  # c,oc,cp,cp
dihedral_coeff	16 at    0.56760    0.94500    0.07030   -2.74660    1.48770   -0.89550  111.27000  104.50000  # c1,c,oc,c1
dihedral_coeff	17 at    0.00000    0.00000    0.00000    0.00000    0.00000    0.00000  111.27000  102.96950  # c1,c,oc,cp
dihedral_coeff	18 at    0.00000    0.00000    0.00000    0.00000    0.00000    0.00000  111.27000  109.00000  # c1,c,oh,h
dihedral_coeff	19 at   -1.82340    1.63930    0.51440   -0.77770    0.43400   -0.66530  104.50000  108.72800  # c1,oc,c,hc
dihedral_coeff	20 at    0.00000    0.00000    0.00000    0.00000    0.00000    0.00000  111.27000  102.96950  # c3h,c,oc,cp
dihedral_coeff	21 at   -1.82340    1.63930    0.51440   -0.77770    0.43400   -0.66530  104.50000  108.72800  # c3h,o3e,c,hc
dihedral_coeff	22 at    1.97670    1.02390    0.00000    1.97670    1.02390    0.00000  118.90000  118.90000  # cp,cp,cp,cp
dihedral_coeff	23 at    0.00000    2.50140    0.00000    0.00000    2.71470    0.00000  118.90000  117.94000  # cp,cp,cp,hc
dihedral_coeff	24 at    0.00000   10.01550    0.00000    0.00000    1.74040    0.00000  118.90000  123.42000  # cp,cp,cp,oc
dihedral_coeff	25 at    0.00000    0.00000    0.00000    0.00000    0.00000    0.00000  102.96950  108.72800  # cp,oc,c,hc
dihedral_coeff	26 at    0.00000    0.00000    0.00000    0.00000    0.00000    0.00000  109.00000  108.72800  # h,oh,c,hc
dihedral_coeff	27 at   -0.80850    0.55690   -0.24660   -0.80850    0.55690   -0.24660  110.77000  110.77000  # hc,c,c,hc
dihedral_coeff	28 at   -0.18920    0.49180    0.72730    2.36680    2.49200   -1.01220  110.77000  111.27000  # hc,c,c,oc
dihedral_coeff	29 at   -0.80850    0.55690   -0.24660   -0.80850    0.55690   -0.24660  110.77000  110.77000  # hc,c,c1,hc
dihedral_coeff	30 at   -0.18920    0.49180    0.72730    2.36680    2.49200   -1.01220  110.77000  111.27000  # hc,c,c1,oc
dihedral_coeff	31 at   -0.80850    0.55690   -0.24660   -0.80850    0.55690   -0.24660  110.77000  110.77000  # hc,c,c3h,hc
dihedral_coeff	32 at    2.36680    2.49200   -1.01220   -0.18920    0.49180    0.72730  110.77000  111.27000  # hc,c,c3h,o3e
dihedral_coeff	33 at   -0.18920    0.49180    0.72730    2.36680    2.49200   -1.01220  110.77000  111.27000  # hc,c1,c,oc
dihedral_coeff	34 at    2.36680    2.49200   -1.01220   -0.18920    0.49180    0.72730  110.77000  111.27000  # hc,c1,c,oh
dihedral_coeff	35 at    2.36680    2.49200   -1.01220   -0.18920    0.49180    0.72730  110.77000  111.27000  # hc,c3h,c,o3e
dihedral_coeff	36 at   -0.18920    0.49180    0.72730    2.36680    2.49200   -1.01220  110.77000  111.27000  # hc,c3h,c,oc
dihedral_coeff	37 at    0.00000    2.45010    0.00000    0.00000    2.45010    0.00000  117.94000  117.94000  # hc,cp,cp,hc
dihedral_coeff	38 at    0.00000    2.57060    0.00000    0.00000    1.87290    0.00000  117.94000  123.42000  # hc,cp,cp,oc
dihedral_coeff	39 at    0.55110    0.97370   -0.66730    0.55110    0.97370   -0.66730  111.27000  111.27000  # o3e,c3h,c,oc
dihedral_coeff	40 at    0.55110    0.97370   -0.66730    0.55110    0.97370   -0.66730  111.27000  111.27000  # oc,c,c1,oc
dihedral_coeff	41 at    0.55110    0.97370   -0.66730    0.55110    0.97370   -0.66730  111.27000  111.27000  # oc,c1,c,oh

# AngleAngleTorsion Coeffs

dihedral_coeff	 1 aat  -16.16400  112.67000  110.77000  # c,c,c,hc
dihedral_coeff	 2 aat  -29.04200  112.67000  111.27000  # c,c,c,oc
dihedral_coeff	 3 aat  -19.00590  111.27000  104.50000  # c,c,oc,c1
dihedral_coeff	 4 aat    0.00000  111.27000  102.96950  # c,c,oc,cp
dihedral_coeff	 5 aat  -16.16400  112.67000  110.77000  # c,c1,c,hc
dihedral_coeff	 6 aat  -29.04200  112.67000  111.27000  # c,c1,c,oc
dihedral_coeff	 7 aat  -29.04200  112.67000  111.27000  # c,c1,c,oh
dihedral_coeff	 8 aat  -19.00590  111.27000  104.50000  # c,c1,oc,c
dihedral_coeff	 9 aat  -16.16400  112.67000  110.77000  # c,c3h,c,hc
dihedral_coeff	10 aat  -29.04200  112.67000  111.27000  # c,c3h,c,o3e
dihedral_coeff	11 aat  -29.04200  112.67000  111.27000  # c,c3h,c,oc
dihedral_coeff	12 aat  -19.00590  111.27000  104.50000  # c,c3h,o3e,c
dihedral_coeff	13 aat  -16.44380  104.50000  108.72800  # c,o3e,c3h,hc
dihedral_coeff	14 aat  -16.44380  104.50000  108.72800  # c,oc,c1,hc
dihedral_coeff	15 aat    0.00000  102.96950  123.42000  # c,oc,cp,cp
dihedral_coeff	16 aat  -19.00590  111.27000  104.50000  # c1,c,oc,c1
dihedral_coeff	17 aat    0.00000  111.27000  102.96950  # c1,c,oc,cp
dihedral_coeff	18 aat    0.00000  111.27000  109.00000  # c1,c,oh,h
dihedral_coeff	19 aat  -16.44380  104.50000  108.72800  # c1,oc,c,hc
dihedral_coeff	20 aat    0.00000  111.27000  102.96950  # c3h,c,oc,cp
dihedral_coeff	21 aat  -16.44380  104.50000  108.72800  # c3h,o3e,c,hc
dihedral_coeff	22 aat    0.00000  118.90000  118.90000  # cp,cp,cp,cp
dihedral_coeff	23 aat   -4.81410  118.90000  117.94000  # cp,cp,cp,hc
dihedral_coeff	24 aat  -21.02470  118.90000  123.42000  # cp,cp,cp,oc
dihedral_coeff	25 aat    0.00000  102.96950  108.72800  # cp,oc,c,hc
dihedral_coeff	26 aat    0.00000  109.00000  108.72800  # h,oh,c,hc
dihedral_coeff	27 aat  -12.56400  110.77000  110.77000  # hc,c,c,hc
dihedral_coeff	28 aat  -20.20060  110.77000  111.27000  # hc,c,c,oc
dihedral_coeff	29 aat  -12.56400  110.77000  110.77000  # hc,c,c1,hc
dihedral_coeff	30 aat  -20.20060  110.77000  111.27000  # hc,c,c1,oc
dihedral_coeff	31 aat  -12.56400  110.77000  110.77000  # hc,c,c3h,hc
dihedral_coeff	32 aat  -20.20060  110.77000  111.27000  # hc,c,c3h,o3e
dihedral_coeff	33 aat  -20.20060  110.77000  111.27000  # hc,c1,c,oc
dihedral_coeff	34 aat  -20.20060  110.77000  111.27000  # hc,c1,c,oh
dihedral_coeff	35 aat  -20.20060  110.77000  111.27000  # hc,c3h,c,o3e
dihedral_coeff	36 aat  -20.20060  110.77000  111.27000  # hc,c3h,c,oc
dihedral_coeff	37 aat    0.35980  117.94000  117.94000  # hc,cp,cp,hc
dihedral_coeff	38 aat    4.22960  117.94000  123.42000  # hc,cp,cp,oc
dihedral_coeff	39 aat  -14.04840  111.27000  111.27000  # o3e,c3h,c,oc
dihedral_coeff	40 aat  -14.04840  111.27000  111.27000  # oc,c,c1,oc
dihedral_coeff	41 aat  -14.04840  111.27000  111.27000  # oc,c1,c,oh

# BondBond13 Coeffs

dihedral_coeff	 1 bb13    0.00000    1.53000    1.10100  # c,c,c,hc
dihedral_coeff	 2 bb13    0.00000    1.53000    1.42000  # c,c,c,oc
dihedral_coeff	 3 bb13    0.00000    1.53000    1.42000  # c,c,oc,c1
dihedral_coeff	 4 bb13    0.00000    1.53000    1.37680  # c,c,oc,cp
dihedral_coeff	 5 bb13    0.00000    1.53000    1.10100  # c,c1,c,hc
dihedral_coeff	 6 bb13    0.00000    1.53000    1.42000  # c,c1,c,oc
dihedral_coeff	 7 bb13    0.00000    1.53000    1.42000  # c,c1,c,oh
dihedral_coeff	 8 bb13    0.00000    1.53000    1.42000  # c,c1,oc,c
dihedral_coeff	 9 bb13    0.00000    1.53000    1.10100  # c,c3h,c,hc
dihedral_coeff	10 bb13    0.00000    1.53000    1.42000  # c,c3h,c,o3e
dihedral_coeff	11 bb13    0.00000    1.53000    1.42000  # c,c3h,c,oc
dihedral_coeff	12 bb13    0.00000    1.53000    1.42000  # c,c3h,o3e,c
dihedral_coeff	13 bb13    0.00000    1.42000    1.10100  # c,o3e,c3h,hc
dihedral_coeff	14 bb13    0.00000    1.42000    1.10100  # c,oc,c1,hc
dihedral_coeff	15 bb13    0.00000    1.42000    1.41700  # c,oc,cp,cp
dihedral_coeff	16 bb13    0.00000    1.53000    1.42000  # c1,c,oc,c1
dihedral_coeff	17 bb13    0.00000    1.53000    1.37680  # c1,c,oc,cp
dihedral_coeff	18 bb13    0.00000    1.53000    0.96000  # c1,c,oh,h
dihedral_coeff	19 bb13    0.00000    1.42000    1.10100  # c1,oc,c,hc
dihedral_coeff	20 bb13    0.00000    1.53000    1.37680  # c3h,c,oc,cp
dihedral_coeff	21 bb13    0.00000    1.42000    1.10100  # c3h,o3e,c,hc
dihedral_coeff	22 bb13   53.00000    1.41700    1.41700  # cp,cp,cp,cp
dihedral_coeff	23 bb13   -6.27410    1.41700    1.09820  # cp,cp,cp,hc
dihedral_coeff	24 bb13   -2.24360    1.41700    1.37680  # cp,cp,cp,oc
dihedral_coeff	25 bb13    0.00000    1.37680    1.10100  # cp,oc,c,hc
dihedral_coeff	26 bb13    0.00000    0.96000    1.10100  # h,oh,c,hc
dihedral_coeff	27 bb13    0.00000    1.10100    1.10100  # hc,c,c,hc
dihedral_coeff	28 bb13    0.00000    1.10100    1.42000  # hc,c,c,oc
dihedral_coeff	29 bb13    0.00000    1.10100    1.10100  # hc,c,c1,hc
dihedral_coeff	30 bb13    0.00000    1.10100    1.42000  # hc,c,c1,oc
dihedral_coeff	31 bb13    0.00000    1.10100    1.10100  # hc,c,c3h,hc
dihedral_coeff	32 bb13    0.00000    1.10100    1.42000  # hc,c,c3h,o3e
dihedral_coeff	33 bb13    0.00000    1.10100    1.42000  # hc,c1,c,oc
dihedral_coeff	34 bb13    0.00000    1.10100    1.42000  # hc,c1,c,oh
dihedral_coeff	35 bb13    0.00000    1.10100    1.42000  # hc,c3h,c,o3e
dihedral_coeff	36 bb13    0.00000    1.10100    1.42000  # hc,c3h,c,oc
dihedral_coeff	37 bb13   -1.70770    1.09820    1.09820  # hc,cp,cp,hc
dihedral_coeff	38 bb13    2.05170    1.09820    1.37680  # hc,cp,cp,oc
dihedral_coeff	39 bb13    0.00000    1.42000    1.42000  # o3e,c3h,c,oc
dihedral_coeff	40 bb13    0.00000    1.42000    1.42000  # oc,c,c1,oc
dihedral_coeff	41 bb13    0.00000    1.42000    1.42000  # oc,c1,c,oh

# Improper Coeffs

improper_coeff	 1    0.00000    0.00000  # c,c,c,hc
improper_coeff	 2    0.00000    0.00000  # c,c,hc,hc
improper_coeff	 3    0.00000    0.00000  # c,c,hc,oc
improper_coeff	 4    0.00000    0.00000  # c,c,oc,hc
improper_coeff	 5    0.00000    0.00000  # c,c1,hc,hc
improper_coeff	 6    0.00000    0.00000  # c,c1,hc,oc
improper_coeff	 7    0.00000    0.00000  # c,c1,hc,oh
improper_coeff	 8    0.00000    0.00000  # c,c1,oc,hc
improper_coeff	 9    0.00000    0.00000  # c,c3h,hc,hc
improper_coeff	10    0.00000    0.00000  # c,c3h,hc,oc
improper_coeff	11    0.00000    0.00000  # c,c3h,o3e,hc
improper_coeff	12    0.00000    0.00000  # c,hc,hc,o3e
improper_coeff	13    0.00000    0.00000  # c,hc,hc,oc
improper_coeff	14    0.00000    0.00000  # c,hc,hc,oh
improper_coeff	15    0.00000    0.00000  # c1,c,c,hc
improper_coeff	16    0.00000    0.00000  # c1,c,c,oc
improper_coeff	17    0.00000    0.00000  # c1,c,oc,hc
improper_coeff	18    0.00000    0.00000  # c3h,c,c,hc
improper_coeff	19    0.00000    0.00000  # c3h,c,c,o3e
improper_coeff	20    0.00000    0.00000  # c3h,c,o3e,hc
improper_coeff	21    4.89120    0.00000  # cp,cp,cp,hc
improper_coeff	22   13.04210    0.00000  # cp,cp,cp,oc

# AngleAngle Coeffs

improper_coeff	 1 aa   -1.31990   -1.31990    0.11840  112.67000  110.77000  110.77000  # c,c,c,hc
improper_coeff	 2 aa    0.27380   -0.48250    0.27380  110.77000  110.77000  107.66000  # c,c,hc,hc
improper_coeff	 3 aa    0.00000    0.00000    0.16890  110.77000  111.27000  108.72800  # c,c,hc,oc
improper_coeff	 4 aa    0.16890    0.00000    0.00000  111.27000  110.77000  108.72800  # c,c,oc,hc
improper_coeff	 5 aa    0.00000   -0.48250    0.00000  110.77000  110.77000  107.66000  # c,c1,hc,hc
improper_coeff	 6 aa    0.00000    0.00000    0.00000  110.77000  111.27000  108.72800  # c,c1,hc,oc
improper_coeff	 7 aa    0.00000    2.59260    0.00000  110.77000  111.27000  108.72800  # c,c1,hc,oh
improper_coeff	 8 aa    0.00000    0.00000    0.00000  111.27000  110.77000  108.72800  # c,c1,oc,hc
improper_coeff	 9 aa    0.00000   -0.48250    0.00000  110.77000  110.77000  107.66000  # c,c3h,hc,hc
improper_coeff	10 aa    0.00000    0.00000    0.00000  110.77000  111.27000  108.72800  # c,c3h,hc,oc
improper_coeff	11 aa    0.00000    2.59260    3.91770  111.27000  110.77000  108.72800  # c,c3h,o3e,hc
improper_coeff	12 aa    2.42590    2.42590    2.12830  107.66000  108.72800  108.72800  # c,hc,hc,o3e
improper_coeff	13 aa    0.00000    0.00000    2.12830  107.66000  108.72800  108.72800  # c,hc,hc,oc
improper_coeff	14 aa    2.42590    2.42590    2.12830  107.66000  108.72800  108.72800  # c,hc,hc,oh
improper_coeff	15 aa   -1.31990   -1.31990    0.11840  112.67000  110.77000  110.77000  # c1,c,c,hc
improper_coeff	16 aa    0.00000    0.00000   -3.57440  112.67000  111.27000  111.27000  # c1,c,c,oc
improper_coeff	17 aa    0.16890    0.00000    0.00000  111.27000  110.77000  108.72800  # c1,c,oc,hc
improper_coeff	18 aa   -1.31990   -1.31990    0.11840  112.67000  110.77000  110.77000  # c3h,c,c,hc
improper_coeff	19 aa   -0.83300   -0.83300   -3.57440  112.67000  111.27000  111.27000  # c3h,c,c,o3e
improper_coeff	20 aa    0.16890    2.59260    3.91770  111.27000  110.77000  108.72800  # c3h,c,o3e,hc
improper_coeff	21 aa    0.00000    0.00000    0.00000  118.90000  117.94000  117.94000  # cp,cp,cp,hc
improper_coeff	22 aa    0.00000    0.00000    0.00000  118.90000  123.42000  123.42000  # cp,cp,cp,oc

# ------------------------------- OPT Section -------------------------------
minimize 1.0e-5 1.0e-7 100000 400000
PPPM initialization ...
  using 12-bit tables for long-range coulomb (../kspace.cpp:342)
  G vector (1/distance) = 0.19677283
  grid = 8 8 8
  stencil order = 5
  estimated absolute RMS force accuracy = 0.026522975
  estimated relative force accuracy = 7.987315e-05
  using double precision KISS FFT
  3d grid and FFT values/proc = 1053 128
Generated 36 of 36 mixed pair_coeff terms from sixthpower/geometric mixing rule
Neighbor list info ...
  update: every = 1 steps, delay = 0 steps, check = yes
  max neighbors/atom: 2000, page size: 100000
  master list distance cutoff = 12
  ghost atom cutoff = 12
  binsize = 6, bins = 6 6 6
  1 neighbor lists, perpetual/occasional/extra = 1 0 0
  (1) pair lj/class2/coul/long, perpetual
      attributes: half, newton on
      pair build: half/bin/newton
      stencil: half/bin/3d
      bin: standard
WARNING: Inconsistent image flags (../domain.cpp:815)
Per MPI rank memory allocation (min/avg/max) = 17.25 | 17.25 | 17.26 Mbytes
   Step          Temp          E_pair         E_mol          TotEng         Press     
         0   492.84444     -2027.0191      17840.758      20213.62       4201.3622    
       444   492.84444     -2613.5187      13942.352      15728.715      4044.559     
Loop time of 5.22283 on 6 procs for 444 steps with 2996 atoms

98.8% CPU use with 6 MPI tasks x no OpenMP threads

Minimization stats:
  Stopping criterion = energy tolerance
  Energy initial, next-to-last, final = 
      15813.7384684871   11328.9193353187   11328.8329850059
  Force two-norm initial, final = 2360.5253 18.769481
  Force max component initial, final = 132.58837 1.6220871
  Final line search alpha, max atom move = 0.0077922296 0.012639675
  Iterations, force evaluations = 444 888

MPI task timing breakdown:
Section |  min time  |  avg time  |  max time  |%varavg| %total
---------------------------------------------------------------
Pair    | 2.4579     | 2.6546     | 2.9023     |   8.4 | 50.83
Bond    | 0.93897    | 1.3112     | 1.6306     |  19.5 | 25.11
Kspace  | 0.46949    | 1.035      | 1.3596     |  29.0 | 19.82
Neigh   | 0.041011   | 0.041036   | 0.04106    |   0.0 |  0.79
Comm    | 0.13984    | 0.14459    | 0.15081    |   1.1 |  2.77
Output  | 0          | 0          | 0          |   0.0 |  0.00
Modify  | 0          | 0          | 0          |   0.0 |  0.00
Other   |            | 0.03635    |            |       |  0.70

Nlocal:        499.333 ave         517 max         486 min
Histogram: 1 2 0 0 0 1 0 0 1 1
Nghost:        6511.83 ave        6593 max        6469 min
Histogram: 1 2 1 0 0 1 0 0 0 1
Neighs:         163540 ave      175851 max      153002 min
Histogram: 1 0 0 1 2 0 1 0 0 1

Total # of neighbors = 981240
Ave neighs/atom = 327.51669
Ave special neighs/atom = 9.2870494
Neighbor list builds = 10
Dangerous builds = 0
# ------------------------------- Run Section -------------------------------
#
fix 		relax all npt temp 600.0 600.0 100 iso 1.0 1.0 1000
run 50000
PPPM initialization ...
  using 12-bit tables for long-range coulomb (../kspace.cpp:342)
  G vector (1/distance) = 0.19677283
  grid = 8 8 8
  stencil order = 5
  estimated absolute RMS force accuracy = 0.026522975
  estimated relative force accuracy = 7.987315e-05
  using double precision KISS FFT
  3d grid and FFT values/proc = 1053 128
Generated 36 of 36 mixed pair_coeff terms from sixthpower/geometric mixing rule
WARNING: Inconsistent image flags (../domain.cpp:815)
Per MPI rank memory allocation (min/avg/max) = 16.13 | 16.13 | 16.13 Mbytes
   Step          Temp          E_pair         E_mol          TotEng         Press          Volume    
       444   492.84444     -2613.5187      13942.352      15728.715      4044.559       33060.56     
     50444   591.69518     -1501.5305      18970.052      22750.895      505.68346      48226.76     
Loop time of 212.237 on 6 procs for 50000 steps with 2996 atoms

Performance: 20.355 ns/day, 1.179 hours/ns, 235.586 timesteps/s, 705.815 katom-step/s
98.7% CPU use with 6 MPI tasks x no OpenMP threads

MPI task timing breakdown:
Section |  min time  |  avg time  |  max time  |%varavg| %total
---------------------------------------------------------------
Pair    | 67.744     | 72.849     | 77.755     |  43.1 | 34.32
Bond    | 45.521     | 63.36      | 71.795     | 107.2 | 29.85
Kspace  | 40.555     | 54.012     | 77.015     | 160.8 | 25.45
Neigh   | 10.653     | 10.666     | 10.683     |   0.4 |  5.03
Comm    | 6.7906     | 7.1821     | 7.5379     |   8.5 |  3.38
Output  | 2.687e-05  | 5.8857e-05 | 0.00021736 |   0.0 |  0.00
Modify  | 2.3411     | 2.609      | 3.0322     |  16.8 |  1.23
Other   |            | 1.559      |            |       |  0.73

Nlocal:        499.333 ave         537 max         460 min
Histogram: 1 1 1 0 0 0 0 0 1 2
Nghost:        5313.33 ave        5382 max        5242 min
Histogram: 1 0 1 1 0 1 0 0 0 2
Neighs:         112803 ave      126391 max       98027 min
Histogram: 1 1 0 1 0 0 1 0 1 1

Total # of neighbors = 676816
Ave neighs/atom = 225.90654
Ave special neighs/atom = 9.2870494
Neighbor list builds = 3344
Dangerous builds = 0
unfix relax

reset_timestep 0

timestep 0.5
thermo_style custom step temp pe evdwl ecoul ebond eangle edihed eimp density vol
thermo          100

neigh_modify delay 0 every 1 check yes

fix 		relax all npt temp 600.0 100.0 100 iso 1.0 1.0 1000

variable Rho equal density
dump DumpPos all custom 1000 dump.pos id type x y z mol

run 5000000
PPPM initialization ...
  using 12-bit tables for long-range coulomb (../kspace.cpp:342)
  G vector (1/distance) = 0.19599685
  grid = 9 9 9
  stencil order = 5
  estimated absolute RMS force accuracy = 0.022642673
  estimated relative force accuracy = 6.8187738e-05
  using double precision KISS FFT
  3d grid and FFT values/proc = 1120 162
Generated 36 of 36 mixed pair_coeff terms from sixthpower/geometric mixing rule
WARNING: Inconsistent image flags (../domain.cpp:815)
Per MPI rank memory allocation (min/avg/max) = 17.4 | 17.41 | 17.41 Mbytes
   Step          Temp          PotEng         E_vdwl         E_coul         E_bond        E_angle        E_dihed        E_impro        Density         Volume    
         0   591.69518      17470.339     -1173.3299      1214.2585      2442.7403      16219.379      243.99446      63.937942      0.73475979     48226.76     
       100   600.41714      17381.275     -1121.6173      1208.1792      2344.5228      16228.337      190.87713      71.081735      0.73489946     48217.594    
       200   599.51038      17355.269     -1134.0863      1220.8933      2341.4765      16210.858      191.20036      67.565579      0.73489023     48218.2      
       300   600.90248      17263.818     -1153.9563      1205.0036      2331.9718      16218.701      151.42316      54.076946      0.73455028     48240.515    
       400   600.81386      17154.653     -1138.0036      1209.6014      2200.2844      16175.296      189.18723      63.648863      0.73403105     48274.639    
       500   587.76117      17205.275     -1193.6393      1223.9458      2263.7767      16175.714      213.13951      66.08028       0.73370195     48296.293    
       600   584.25619      17237.036     -1156.4803      1214.9951      2451.0466      16116.477      103.79232      51.600615      0.73364356     48300.136    
       700   596.98454      17158.437     -1102.449       1209.9097      2307.234       16098.12       135.97165      54.625035      0.73382388     48288.268    
       800   591.41657      17255.02      -1136.8674      1222.695       2284.0053      16170.628      175.27425      82.621575      0.73368659     48297.304    
       900   580.63146      17402.305     -1126.7871      1211.691       2348.9711      16200.305      240.77985      70.764869      0.73372178     48294.988    
      1000   597.83384      17300.139     -1125.417       1212.6756      2273.4894      16099.749      320.65014      61.99566       0.73352202     48308.139    
      1100   602.25005      17290.003     -1162.6311      1206.9645      2263.6624      16119.689      347.70251      56.301502      0.73277532     48357.366    
      1200   608.67174      17246.876     -1170.3559      1220.7045      2327.0353      16072.857      277.73449      57.893537      0.73184363     48418.928    
      1300   597.99728      17341.132     -1128.6282      1217.492       2347.2144      16143.161      230.48804      70.777247      0.73084458     48485.116    
      1400   600.69374      17305.702     -1091.5664      1215.9367      2243.0771      16188.821      227.7996       62.133285      0.72986366     48550.279    
      1500   600.62207      17305.742     -1137.4482      1222.411       2282.3946      16079.219      355.26177      45.489071      0.72888858     48615.227    
      1600   597.64038      17327.688     -1094.7672      1203.5977      2408.4924      16128.892      158.57977      65.718267      0.72741764     48713.534    
      1700   595.13137      17354.671     -1094.7639      1203.83        2307.247       16120.593      278.41894      81.754198      0.72547082     48844.258    
      1800   585.4111       17458.385     -1126.8536      1199.7124      2296.7908      16164.718      396.24513      70.366848      0.7234581      48980.147    
      1900   599.36955      17375.645     -1116.5655      1209.3866      2306.1403      16151.845      313.66621      53.135773      0.72137514     49121.576    
      2000   613.16466      17306.906     -1140.0212      1211.1722      2373.3202      16072.301      255.43468      77.180523      0.71896081     49286.531    
      2100   601.15193      17460.711     -1114.5113      1217.0084      2351.373       16161.297      314.87484      73.318838      0.71658134     49450.191    
      2200   606.29411      17441.316     -1105.0599      1212.4294      2272.8809      16181.863      337.70524      84.783528      0.7145072      49593.74     
      2300   611.16238      17406.307     -1115.1333      1211.3749      2434.001       16175.571      176.46354      66.290556      0.71253395     49731.082    
      2400   611.52249      17364.246     -1128.7757      1218.2358      2320.4736      16176.863      258.51466      61.445125      0.71109732     49831.553    
      2500   602.66786      17339.999     -1063.4866      1223.2674      2295.5002      16139.05       209.15546      77.410148      0.71018601     49895.497    
      2600   595.01784      17309.118     -1105.817       1218.1349      2280.2226      16213.761      180.88123      63.349839      0.70918004     49966.273    
      2700   585.64581      17356.994     -1100.8806      1209.9371      2364.7588      16152.206      190.30349      81.219864      0.70840742     50020.769    
      2800   585.20927      17366.096     -1094.3199      1208.92        2249.4265      16180.806      289.98026      71.544054      0.70812545     50040.687    
      2900   592.16427      17343.555     -1093.2797      1212.0326      2300.4114      16187.931      214.53464      57.603904      0.70789771     50056.786    
      3000   603.2823       17296.706     -1094.0181      1206.9481      2316.7904      16122.095      211.07571      71.676941      0.70771971     50069.375    
      3100   607.99998      17311.682     -1095.5037      1210.2538      2312.3674      16082.98       281.93889      57.363635      0.70752329     50083.276    
      3200   607.14756      17360.729     -1080.6352      1200.488       2426.8778      16058.087      231.07279      64.35021       0.70723164     50103.929    
      3300   605.65539      17387.21      -1086.4751      1210.1668      2314.5521      16134.815      289.63839      65.607996      0.70673448     50139.175    
      3400   612.09601      17324.582     -1087.9999      1217.8698      2339.0286      15992.184      339.09249      68.159692      0.70636927     50165.098    
      3500   597.39407      17437.618     -1068.2585      1215.8945      2297.6617      16265.171      211.47532      59.318048      0.70606981     50186.375    
      3600   605.42696      17357.203     -1061.2122      1216.6127      2272.4007      16194.984      204.2569       74.856754      0.70588353     50199.619    
      3700   600.48831      17398.431     -1046.8768      1214.2837      2348.6297      16066.214      302.98288      57.838774      0.70574039     50209.8      
      3800   595.38435      17433.423     -1083.4651      1212.74        2326.786       16235.64       211.69938      74.869111      0.70504018     50259.666    
      3900   605.62893      17315.167     -1124.5665      1222.8595      2314.2945      16148.128      228.18431      69.118058      0.70411264     50325.874    
      4000   586.19789      17437.131     -1060.5686      1221.0464      2359.8039      16194.501      194.10416      71.352873      0.70372739     50353.425    
      4100   599.35886      17232.463     -1108.2375      1211.4579      2300.8915      16130.153      183.54418      56.810826      0.70352089     50368.204    
      4200   586.97816      17241.21      -1078.0255      1221.5295      2346.7774      16098.693      133.23866      60.080289      0.70311285     50397.435    
      4300   583.24427      17243.768     -1104.8247      1216.4832      2336.6804      15986.357      291.07475      56.934324      0.70309587     50398.652    
      4400   590.05005      17219.417     -1073.0693      1207.9171      2316.1267      16074.643      170.80322      62.308587      0.70313888     50395.569    
      4500   597.44224      17243.015     -1106.4398      1216.5666      2280.6541      16129.868      213.65582      47.794648      0.7032529      50387.398    
      4600   599.28925      17301.94      -1108.7223      1209.2599      2313.0553      16063.226      284.67552      78.784302      0.70357989     50363.981    
      4700   599.49971      17335.076     -1030.3779      1203.1738      2292.5671      16139.907      219.6032       50.553862      0.70374491     50352.171    
      4800   592.59408      17431.887     -1046.5554      1206.4094      2304.5203      16197.425      256.67155      52.097621      0.70350818     50369.115    
      4900   590.80029      17485.338     -1085.3805      1203.7359      2450.0434      16152.106      235.51635      68.111843      0.70287198     50414.706    
      5000   600.26327      17420.886     -1134.4878      1211.1628      2415.0363      16230.233      162.69823      76.565524      0.70221014     50462.222    
      5100   612.0698       17321.773     -1104.0086      1205.2922      2345.2546      16110.511      242.11581      65.193127      0.70159182     50506.695    
      5200   603.68318      17383.347     -1048.9885      1202.7217      2268.0955      16143.682      308.02768      53.110502      0.70091376     50555.555    
      5300   600.11136      17372.776     -1077.413       1198.0681      2247.9495      16147.558      344.60972      56.979626      0.70022015     50605.633    
      5400   586.99867      17415.95      -1080.9039      1203.2876      2347.924       16166.28       247.79268      76.028123      0.69979211     50636.587    
      5500   592.83801      17292.522     -1050.5724      1198.3621      2280.8156      16094.181      242.41764      73.669986      0.69948272     50658.984    
      5600   588.28437      17276.874     -1085.357       1201.0174      2279.5242      16162.648      220.24965      43.439461      0.69926111     50675.039    
      5700   580.77112      17326.58      -1101.2522      1192.9577      2416.0141      16151.457      138.59165      72.754243      0.69957803     50652.082    
      5800   604.70472      17152.559     -1095.3931      1188.5683      2232.8154      16106.484      205.63988      56.876233      0.70044816     50589.16     
      5900   595.26428      17358.111     -1061.3773      1191.1428      2342.2897      16136.124      222.46551      68.814072      0.70172506     50497.105    
      6000   615.10697      17289.2       -1115.402       1199.3527      2275.1486      16160.972      258.39139      51.799025      0.70301346     50404.56     
      6100   606.50755      17391.185     -1089.493       1188.69        2267.2709      16259.348      234.43246      72.004257      0.70459215     50291.625    
      6200   599.07051      17451.731     -1079.0498      1192.6423      2342.2084      16149.288      331.83381      56.907121      0.70645804     50158.795    
      6300   615.44268      17282.283     -1084.3766      1191.4413      2307.1078      16186.188      165.5818       60.452182      0.70816387     50037.972    
      6400   604.49089      17322.991     -1108.161       1191.5909      2347.0706      16254.376      107.0144       73.917555      0.70960488     49936.359    
      6500   594.36932      17341.241     -1120.2165      1198.7838      2364.0773      16025.186      341.31757      74.378782      0.71110379     49831.1      
      6600   582.2341       17394.926     -1115.627       1205.512       2386.0269      16110.393      285.94539      65.425199      0.71282648     49710.673    
      6700   590.47078      17304.751     -1142.1067      1201.1635      2271.6558      16207.142      242.5814       65.142357      0.71396212     49631.602    
      6800   583.2163       17387.475     -1141.7235      1193.5081      2308.2561      16199.509      301.72899      67.052632      0.71496999     49561.639    
      6900   593.84444      17355.949     -1133.1548      1204.9764      2274.3223      16112.181      368.35951      70.864178      0.71609621     49483.692    
      7000   598.0863       17471.494     -1147.3617      1201.3083      2344.4691      16216.189      310.92498      88.058369      0.71784046     49363.453    
      7100   602.69405      17519.393     -1104.7705      1203.9478      2349.7547      16163.726      363.645        86.250325      0.7196124      49241.903    
      7200   604.35491      17496.712     -1153.143       1224.8922      2416.077       16244.037      251.50534      56.089804      0.72110848     49139.741    
      7300   611.45685      17388.385     -1108.6472      1217.9673      2298.6927      16174.363      284.04317      66.507641      0.72268715     49032.398    
      7400   599.04506      17421.85      -1102.7747      1225.8419      2339.8124      16098.811      338.50643      65.211605      0.72420127     48929.884    
      7500   615.06464      17198.037     -1147.5585      1213.1645      2299.3632      16001.533      297.27592      78.605858      0.72528793     48856.575    
      7600   607.42535      17205.871     -1148.4371      1218.0701      2318.8318      16100.715      195.12271      65.748196      0.72680089     48754.872    
      7700   605.01397      17185.231     -1159.0051      1223.0251      2222.0114      16111.667      282.54354      48.037328      0.728633       48632.28     
      7800   592.9232       17264.78      -1110.0196      1222.8343      2277.4983      16154.93       207.07708      54.464684      0.73009935     48534.606    
      7900   589.78051      17290.149     -1096.0219      1206.1164      2375.2711      15967.552      295.93629      80.909171      0.73118804     48462.341    
      8000   595.39054      17277.312     -1135.1194      1201.742       2366.9837      16050.394      269.72613      64.192432      0.73207384     48403.702    
      8100   607.35841      17269.312     -1105.641       1203.4626      2324.2408      16055.757      262.19403      68.125847      0.73261451     48367.98     
      8200   620.21582      17267.631     -1134.2806      1205.919       2248.3301      16130.755      279.49283      80.127975      0.73254381     48372.648    
      8300   611.29572      17386.59      -1162.4954      1189.7263      2359.3564      16235.771      227.55418      76.629482      0.73206969     48403.977    
      8400   607.49486      17396.033     -1144.3461      1190.8913      2266.1819      16241.989      312.60619      67.030173      0.73189007     48415.856    
      8500   599.43527      17407         -1167.2437      1201.2763      2372.9765      16180.725      289.95463      68.634938      0.73183172     48419.716    
      8600   604.50847      17293.616     -1163.4795      1211.608       2344.6363      16051.503      336.15077      52.858099      0.73181955     48420.521    
      8700   597.93213      17301.218     -1133.6504      1212.9393      2360.979       16132.648      195.27686      72.472328      0.73211375     48401.063    
      8800   608.61039      17163.778     -1150.7034      1212.6407      2274.8341      16028.612      286.05576      54.502463      0.73250361     48375.303    
      8900   598.77008      17221.307     -1127.3132      1208.0446      2348.5444      16049.066      224.25949      58.971578      0.7327023      48362.185    
      9000   593.56945      17253.527     -1122.4311      1212.2854      2347.5054      16042.09       252.59395      61.051196      0.73230164     48388.645    
      9100   600.15294      17202.27      -1134.1846      1205.5164      2217.9197      16126.925      252.95262      73.57585       0.73152009     48440.343    
      9200   603.47503      17214.559     -1159.2988      1217.6255      2186.9538      16178.927      260.34636      70.166522      0.73044214     48511.829    
      9300   595.07475      17398.068     -1139.5085      1211.8611      2362.2906      16118.694      298.94937      85.898889      0.72929208     48588.33     
      9400   616.58594      17307.313     -1156.6346      1204.303       2343.5869      16137.059      250.64905      70.524548      0.72807791     48669.358    
      9500   615.81431      17321.23      -1160.892       1204.8244      2332.1439      16137.69       285.75252      64.816125      0.72684759     48751.739    
      9600   603.54931      17385.511     -1099.8321      1213.7126      2331.5339      16120.085      291.78686      70.964843      0.72600731     48808.164    
      9700   607.81081      17292.707     -1126.7014      1230.0462      2391.7029      16064.185      209.91678      66.854963      0.72476687     48891.699    
      9800   595.23618      17351.449     -1153.9432      1235.9399      2404.5691      16051.324      286.57033      67.389541      0.72325837     48993.673    
      9900   594.85279      17318.892     -1125.6536      1226.3986      2284.6873      16148.694      264.29817      61.515856      0.72190547     49085.49     
     10000   597.66222      17279.159     -1148.4488      1218.5698      2321.3055      16170.526      187.3188       69.725463      0.72034381     49191.905    
     10100   597.67726      17275.615     -1106.2953      1211.9182      2300.9768      16164.433      169.78669      74.1109        0.71881803     49296.32     
     10200   601.81366      17248.581     -1129.7591      1213.1454      2373.7594      16043.031      228.91938      57.753722      0.71710455     49414.112    
     10300   605.46495      17230.709     -1113.3434      1212.099       2324.7187      16098.615      173.49788      75.368374      0.71531672     49537.614    
     10400   595.8051       17335.558     -1090.0663      1213.0899      2312.7029      16091.6        264.80795      84.000565      0.71343111     49668.543    
     10500   597.61631      17372.888     -1108.9675      1216.6388      2311.6846      16210.48       224.19128      58.829885      0.71135427     49813.554    
     10600   610.78297      17361.334     -1101.624       1214.2931      2362.2401      16123.157      215.34038      87.45628       0.7095753      49938.441    
     10700   611.88841      17419.594     -1098.498       1205.5856      2401.452       16056.165      319.65324      74.228297      0.70767582     50072.481    
     10800   623.32527      17309.113     -1101.9047      1212.1158      2338.5649      16040.308      296.02541      64.285079      0.70551266     50226.008    
     10900   609.87922      17358.475     -1092.485       1206.5992      2313.9564      16103.126      304.72331      63.87364       0.70348001     50371.132    
     11000   598.0917       17365.029     -1065.1036      1199.4649      2316.2018      16174.64       202.46611      79.539149      0.70164786     50502.661    
     11100   604.75922      17241.148     -1070.8192      1200.1232      2301.9145      16130.035      158.29945      63.404034      0.69965827     50646.274    
     11200   591.01413      17344.398     -1076.8106      1197.0584      2319.8454      16117.925      262.69342      64.341203      0.69766328     50791.098    
     11300   588.11074      17370.535     -1047.6962      1212.6723      2284.3746      16148.212      233.24308      79.918502      0.69551146     50948.239    
     11400   593.7601       17348.32      -1103.0925      1214.5227      2283.7709      16086.49       339.13664      66.754386      0.69315783     51121.234    
     11500   596.08125      17375.493     -1071.7562      1213.0633      2306.6889      16071.261      313.55731      82.36423       0.69120281     51265.828    
     11600   604.69371      17357.029     -1076.1517      1210.0104      2233.0678      16204.513      245.79318      79.510942      0.68950072     51392.382    
     11700   595.69266      17503.805     -1048.9322      1215.5118      2384.3359      16187.821      222.96532      81.280724      0.68783675     51516.707    
     11800   602.44267      17504.804     -1050.3806      1214.5432      2381.3976      16276.875      150.37425      70.381204      0.6866806      51603.444    
     11900   620.94141      17409.204     -1036.3039      1218.6727      2335.8315      16088.254      288.83757      53.380884      0.68552282     51690.598    
     12000   603.9183       17637.776     -1049.6275      1214.4638      2477.799       16197.119      258.30004      78.299798      0.68484705     51741.603    
     12100   618.06393      17565.03      -1036.3684      1219.0196      2481.789       16177.961      193.263        68.855287      0.68422835     51788.39     
     12200   620.04259      17517.176     -1064.8635      1210.7061      2306.4802      16167.868      364.6787       71.754511      0.68372484     51826.527    
     12300   608.57862      17497.543     -1029.4976      1213.7863      2401.1776      16192.447      186.44381      71.62243       0.68347968     51845.117    
     12400   598.76694      17475.597     -1073.2829      1215.2272      2339.6034      16159.277      311.50234      62.987006      0.68311472     51872.816    
     12500   605.40501      17355.169     -1077.4138      1215.4455      2351.4884      16024.127      304.56863      74.67961       0.6829322      51886.68     
     12600   586.28059      17489.273     -1055.4389      1225.2381      2383.7087      15970.235      436.9762       64.293434      0.68303033     51879.225    
     12700   600.44584      17342.201     -1072.2781      1217.524       2293.5956      16111.099      271.73372      57.175335      0.68297929     51883.102    
     12800   585.96416      17456.82      -1060.8273      1218.488       2325.1957      16157.925      286.79778      67.613503      0.68280713     51896.184    
     12900   588.97277      17436.524     -1039.8985      1209.8175      2311.5681      16112.418      313.96245      68.460294      0.68265367     51907.85     
     13000   591.22993      17435.721     -1075.048       1211.1617      2427.7709      16162.703      182.70834      65.625149      0.68247782     51921.224    
     13100   599.59661      17403.558     -1031.6216      1209.4063      2397.6195      16138.639      159.08716      70.711029      0.68217772     51944.066    
     13200   602.89472      17437.68      -1049.0417      1217.593       2233.6083      16169.776      341.64334      66.565163      0.68195896     51960.728    
     13300   611.61397      17426.21      -1090.089       1212.861       2281.5664      16228.068      282.48677      52.797069      0.68176428     51975.565    
     13400   608.31837      17491.45      -1076.0757      1205.3144      2474.2639      16153.873      197.0173       78.714461      0.68206332     51952.778    
     13500   604.76118      17509.06      -1049.8516      1203.4491      2389.3793      16112.457      343.05118      50.684897      0.68252239     51917.834    
     13600   600.36034      17460.767     -1078.5977      1203.2076      2330.4991      16230.471      245.5598       67.231668      0.68275666     51900.019    
     13700   598.89811      17361.648     -1100.6364      1204.4699      2332.8629      16140.595      263.85719      56.546356      0.68303116     51879.162    
     13800   583.87344      17435.456     -1026.0761      1210.1148      2384.4842      16119.349      216.50262      66.768669      0.68340441     51850.828    
     13900   598.29134      17295.95      -1080.9876      1202.521       2326.7101      16103.643      219.14282      59.472397      0.6836028      51835.78     
     14000   587.70814      17405.958     -1076.3497      1198.2597      2324.1645      16172.544      257.02379      67.55235       0.68417193     51792.66     
     14100   585.65643      17458.978     -1043.5339      1200.5968      2374.0404      16116.845      291.68219      56.362408      0.68476153     51748.065    
     14200   597.92741      17394.955     -1062.844       1213.5908      2339.6845      16168.35       199.55969      73.454271      0.68529288     51707.941    
     14300   599.18573      17435.023     -1092.1398      1207.2446      2320.9343      16240.334      224.51913      72.919102      0.68598572     51655.717    
     14400   599.57395      17471.225     -1071.4304      1220.3689      2316.1962      16198.422      281.89274      62.620566      0.68700093     51579.383    
     14500   598.92679      17502.369     -1044.4313      1216.544       2360.7353      16250.86       186.09256      68.732762      0.68811151     51496.136    
     14600   617.35023      17366.701     -1079.7451      1215.7217      2330.709       16058.355      316.13694      64.557804      0.68900845     51429.099    
     14700   601.72658      17529.089     -1078.6149      1202.9019      2408.26        16194.213      278.01948      64.718295      0.68975825     51373.194    
     14800   611.08809      17433.271     -1039.8411      1207.0933      2334.3526      16136.039      274.5383       61.934167      0.69061799     51309.239    
     14900   608.06587      17400.801     -1056.3548      1212.2361      2340.8073      16120.462      260.48764      64.870043      0.69137794     51252.842    
     15000   598.67436      17401.882     -1068.8183      1196.0758      2394.9961      16083.938      266.54447      72.29093       0.69196356     51209.465    
     15100   588.54104      17408.846     -1073.3995      1211.6971      2328.1223      16169.681      259.05599      55.824842      0.69263732     51159.652    
     15200   578.79352      17434.797     -1045.7609      1203.4067      2392.6885      16160.284      195.98463      69.056856      0.69342906     51101.239    
     15300   586.7628       17330.8       -1063.2855      1216.6255      2357.5676      16066.863      234.54261      58.608413      0.69402082     51057.667    
     15400   584.84883      17354.096     -1077.5581      1215.6859      2346.146       16107.519      238.78556      63.988611      0.69464603     51011.713    
     15500   588.49372      17367.642     -1067.4511      1210.7638      2337.2555      16115.835      259.25147      52.587793      0.69516018     50973.985    
     15600   598.41766      17371.642     -1091.1782      1211.6736      2417.333       15998.92       305.24615      69.767176      0.69525785     50966.823    
     15700   608.59265      17362.289     -1084.7707      1207.3716      2313.2401      16079.947      326.38729      59.222346      0.69521602     50969.89     
     15800   602.25947      17454.699     -1099.2877      1207.6887      2295.4716      16242.21       291.40394      55.4174        0.69481908     50999.009    
     15900   597.04479      17500.489     -1095.8994      1203.9311      2383.3243      16174.008      308.24436      64.008172      0.69421256     51043.565    
     16000   612.22998      17337.737     -1083.9379      1209.2737      2297.1858      16096.611      287.70494      68.539717      0.69321257     51117.198    
     16100   591.41871      17497.35      -1039.97        1218.8314      2371.4228      16184.852      238.96389      59.573661      0.69206552     51201.921    
     16200   591.66953      17475.995     -1079.8223      1207.6259      2455.985       16044.773      322.25752      62.401666      0.69062983     51308.36     
     16300   599.63331      17392.293     -1065.4218      1210.7646      2339.255       16082.257      304.30387      59.357937      0.68891131     51436.351    
     16400   600.2821       17377.229     -1046.8022      1204.8137      2340.9564      16074.905      282.68164      59.208728      0.68695829     51582.584    
     16500   602.53707      17354.355     -1075.2706      1205.9232      2341.6763      16032.356      321.6839       66.942513      0.68479133     51745.813    
     16600   589.32533      17477.441     -1090.9643      1214.335       2368.7753      16134.954      307.77463      79.490754      0.68322737     51864.263    
     16700   605.35118      17333.347     -1083.7348      1210.7216      2403.1916      16068.526      217.30536      52.568068      0.68201817     51956.217    
     16800   596.2644       17396.88      -1045.1246      1207.8299      2342.8371      16082.789      273.1756       67.978741      0.68082778     52047.06     
     16900   596.42966      17371.72      -1090.777       1208.4721      2344.5884      16067.64       310.59668      62.904598      0.68001977     52108.903    
     17000   598.78776      17328.34      -1070.1476      1215.6399      2362.8141      16060.385      232.67134      58.675508      0.67936096     52159.436    
     17100   594.42851      17349.679     -1045.0776      1215.5043      2302.4927      16148.418      196.19851      66.100754      0.67874389     52206.856    
     17200   588.98756      17416.495     -1036.1014      1219.1062      2344.8657      16061.602      302.77635      59.346388      0.67822975     52246.431    
     17300   603.73603      17345.028     -1086.9175      1225.186       2304.0188      16163.795      212.00712      63.608758      0.67775791     52282.804    
     17400   598.67172      17475.666     -1040.3892      1225.6983      2318.6539      16227.169      210.30226      71.989661      0.67751475     52301.568    
     17500   611.09057      17425.226     -1066.6602      1230.2204      2328.369       16105.393      291.6249       73.323345      0.67729361     52318.645    
     17600   604.35583      17504.437     -1016.207       1221.6178      2322.4233      16117.103      324.8445       71.537814      0.67703171     52338.884    
     17700   614.57627      17400.93      -1059.3456      1226.1876      2307.5895      16198.488      212.52893      53.711406      0.67681351     52355.758    
     17800   601.54329      17459.468     -1040.7466      1211.1846      2365.8846      16121.138      276.24867      63.286201      0.67662425     52370.402    
     17900   608.17389      17293.455     -1051.3374      1213.1398      2331.5893      16058.865      219.01066      57.999695      0.67621336     52402.225    
     18000   595.1474       17321.989     -1017.178       1210.3399      2333.3507      16036.527      233.34591      62.974206      0.67586296     52429.392    
     18100   593.18226      17315.919     -1044.9021      1212.1226      2407.7535      15989.046      238.05223      53.434422      0.67566637     52444.647    
     18200   590.30847      17346.783     -1043.3518      1214.0868      2389.1265      15965.754      295.37839      64.840625      0.67568245     52443.399    
     18300   597.96251      17301.639     -1083.4707      1222.5146      2297.8042      16121.227      215.77679      67.607901      0.67575368     52437.87     
     18400   593.46417      17378.942     -1054.6342      1207.2088      2320.6567      16063.988      319.26453      62.285415      0.67592211     52424.804    
     18500   599.33199      17390.152     -1076.9653      1210.8379      2265.4714      16166.13       302.48183      62.733333      0.6764638      52382.823    
     18600   601.66204      17428.094     -1060.3507      1221.2973      2408.7079      16163.824      178.40991      57.565614      0.6773819      52311.826    
     18700   608.67342      17401.989     -1044.1689      1218.3466      2301.4276      16190.574      214.81544      64.098511      0.67841653     52232.047    
     18800   589.68634      17586.903     -1053.6359      1210.5452      2416.7231      16180.894      315.9749       58.635993      0.67960005     52141.085    
     18900   600.85357      17484.104     -1055.7527      1205.3618      2399.0524      16188.75       230.31282      60.382678      0.68052101     52070.521    
     19000   603.38784      17396.099     -1080.7204      1221.3742      2384.6582      16221.751      121.97922      69.641099      0.68134998     52007.17     
     19100   583.97427      17412.489     -1064.2328      1221.7762      2288.9833      16196.773      255.85131      57.181025      0.68255708     51915.195    
     19200   592.03017      17267.974     -1054.6573      1225.4737      2277.5161      16112.368      194.15696      55.591897      0.6838149      51819.701    
     19300   587.21282      17304.145     -1093.9601      1237.3919      2356.3344      16083.611      190.70403      71.494289      0.68503987     51727.039    
     19400   587.90783      17335.858     -1064.1834      1226.251       2265.304       16021.407      379.8394       48.183895      0.68671575     51600.803    
     19500   585.91228      17430.468     -1051.9184      1218.8212      2347.4823      16222.661      167.91693      66.348352      0.68841162     51473.686    
     19600   602.66122      17360.616     -1068.6929      1221.4671      2277.8227      16159.399      252.1211       59.231584      0.68960829     51384.365    
     19700   598.73438      17445.328     -1056.519       1212.6123      2370.5779      16166.518      219.71864      73.651638      0.6906797      51304.656    
     19800   607.19772      17387.445     -1035.3684      1208.8708      2284.8236      16147.692      249.38003      73.498035      0.69132938     51256.442    
     19900   608.97909      17355.856     -1099.3973      1208.1607      2332.3427      16161.639      231.95799      61.721177      0.69155167     51239.966    
     20000   600.97899      17373.038     -1046.1418      1214.675       2332.0587      16143.049      205.39104      63.995536      0.69187535     51215.994    
     20100   608.06465      17246.748     -1022.9193      1202.27        2250.077       16097.18       187.21887      70.450856      0.69232972     51182.382    
     20200   576.31031      17486.735     -1073.9014      1204.0793      2348.4399      16207.966      262.85732      74.451744      0.69215836     51195.053    
     20300   596.13495      17286.559     -1098.7053      1195.9245      2228.7294      16142.84       291.53293      64.475591      0.69158835     51237.248    
     20400   606.0055       17195.806     -1099.5858      1205.7203      2246.2513      16113.841      199.5004       68.166833      0.69100194     51280.73     
     20500   592.11569      17327.507     -1052.2222      1198.9224      2284.769       16092.984      283.66764      57.585666      0.69061209     51309.678    
     20600   593.17275      17330.147     -1087.9628      1205.2006      2286.4761      16098.707      294.37364      69.387601      0.68985754     51365.799    
     20700   596.88217      17322.695     -1038.2723      1202.1947      2244.3759      16123.279      244.65297      81.785378      0.68939679     51400.129    
     20800   594.61439      17385.283     -1035.6116      1197.353       2301.4738      16201.477      181.0598       74.829268      0.68904683     51426.235    
     20900   607.04351      17328.191     -1060.9417      1206.0336      2252.8637      16072.411      316.7498       77.208078      0.68823499     51486.897    
     21000   606.60351      17385.243     -1049.3512      1209.1248      2305.1421      16136.329      249.94858      70.848745      0.68709772     51572.117    
     21100   607.52024      17426.576     -1026.5843      1216.4475      2301.7616      16115.393      276.72831      81.621899      0.68605391     51650.583    
     21200   612.96898      17422.816     -1007.2649      1225.6807      2330.7365      16091.974      234.12679      85.733568      0.68526772     51709.84     
     21300   615.32944      17437.914     -1019.8193      1224.6945      2375.9174      16177.885      134.68835      81.521348      0.68438879     51776.249    
     21400   612.65913      17448.229     -1038.795       1232.1068      2422.1766      16124.724      186.78532      58.5154        0.68329078     51859.45     
     21500   600.59853      17470.059     -1045.9889      1226.3528      2330.6233      16144.268      257.45653      95.266977      0.682565       51914.593    
     21600   600.70341      17359.207     -1016.7168      1216.5325      2210.6019      16085.489      319.70775      82.148238      0.6820275      51955.506    
     21700   585.22008      17433.483     -1033.2975      1205.7992      2344.8789      16136.46       248.19599      72.513863      0.68135256     52006.972    
     21800   594.24358      17328.731     -1028.0091      1206.072       2207.7371      16205.689      203.98329      73.44353       0.68038834     52080.675    
     21900   591.56239      17367.328     -1039.8319      1203.0011      2229.5606      16125.37       327.58199      62.313367      0.67956336     52143.901    
     22000   603.12941      17305.568     -1032.6476      1203.0577      2359.9456      16074.076      167.76316      73.181938      0.67876023     52205.598    
     22100   612.42151      17285.729     -1014.8999      1219.5848      2233.325       16024.406      303.52518      60.607947      0.67794496     52268.379    
     22200   606.09336      17405.917     -1055.0886      1215.6219      2345.5629      16072.944      293.63389      73.552657      0.67692599     52347.058    
     22300   599.39742      17515.048     -1052.7124      1210.8666      2397.759       16191.831      235.99118      70.936425      0.67624071     52400.104    
     22400   609.65706      17464.287     -1029.0752      1219.2594      2408.5081      16090.418      247.60942      66.300052      0.67583762     52431.357    
     22500   603.95451      17543.551     -993.98014      1215.6352      2389.6329      16096.358      293.00247      79.228058      0.6754471      52461.672    
     22600   594.53719      17625.02      -1004.2717      1220.3137      2343.58        16275.047      257.74871      68.9587        0.67526583     52475.755    
     22700   613.68369      17419.479     -995.64025      1214.9167      2319.4212      16140.863      230.25992      49.611087      0.67528873     52473.975    
     22800   606.86529      17401.877     -1035.3161      1220.8708      2308.2336      16138.788      256.8482       51.600471      0.67518024     52482.407    
     22900   589.71687      17467.408     -997.443        1218.2705      2272.4107      16168.937      275.15478      72.737214      0.67522958     52478.572    
     23000   590.85572      17399.674     -1008.5099      1225.7172      2288.7743      16142.982      231.17158      61.605044      0.67546754     52460.084    
     23100   582.84182      17443.561     -1048.982       1218.2625      2414.4934      16146.489      193.27529      62.262033      0.67552525     52455.603    
     23200   576.52318      17501.246     -1016.2666      1212.6601      2351.7966      16128.792      306.45837      60.476451      0.67573304     52439.472    
     23300   594.45766      17386.588     -1016.6904      1204.6909      2302.062       16176.429      196.88609      64.701712      0.67599023     52419.521    
     23400   611.11591      17318.759     -1006.2335      1206.5126      2286.758       16099.157      217.83116      57.699447      0.67627905     52397.134    
     23500   598.70797      17515.743     -1024.2667      1206.0923      2372.4         16198.872      218.18505      85.964541      0.67657058     52374.557    
     23600   612.97767      17438.982     -1020.7592      1202.2478      2349.8585      16172.003      205.51383      68.898616      0.67716337     52328.708    
     23700   614.68812      17431.711     -1046.5851      1206.7523      2350.6976      16082.983      313.95378      60.922869      0.67794643     52268.266    
     23800   598.93105      17521.677     -1028.5321      1200.9054      2415.4951      16144.889      262.73503      64.509612      0.67906904     52181.858    
     23900   585.62903      17472.272     -977.56154      1201.2221      2328.435       16092.748      294.40262      71.987363      0.68021745     52093.76     
     24000   577.96791      17450.874     -1027.0463      1215.6599      2403.9074      16024.258      302.12345      70.268014      0.68105193     52029.93     
     24100   591.54593      17320.245     -1025.5066      1202.4453      2342.0389      15965.334      318.76281      55.854183      0.68163523     51985.406    
     24200   586.29489      17389.895     -1021.2887      1206.6625      2252.4443      16121.206      294.98882      74.016556      0.68227656     51936.54     
     24300   579.76582      17499.957     -1071.593       1201.8642      2347.7868      16168.65       302.75292      88.583521      0.68303584     51878.806    
     24400   594.99602      17440.266     -1065.7836      1204.7241      2294.7842      16072.781      400.11391      71.650567      0.68399759     51805.861    
     24500   612.78673      17340.044     -1057.8949      1195.212       2290.9979      16127.335      259.37233      62.82947       0.68505967     51725.544    
     24600   600.70094      17467.76      -1046.4335      1198.4078      2295.6577      16107.163      385.42824      64.220039      0.68617935     51641.14     
     24700   607.8563       17391.655     -1070.2052      1205.5487      2332.7646      16105.034      298.96722      54.601643      0.68721853     51563.051    
     24800   596.3687       17435.98      -1046.617       1194.0895      2366.3063      16154.14       244.19866      62.23583       0.68811587     51495.81     
     24900   599.4892       17292.174     -1082.2206      1203.4525      2324.4501      16023.995      290.51339      72.388746      0.68893183     51434.819    
     25000   581.7343       17349.52      -1066.732       1195.5084      2258.5652      16048.097      384.57213      68.586045      0.68992363     51360.879    
     25100   575.4137       17392.895     -1044.8601      1205.7832      2341.2868      16095.74       256.35756      75.266108      0.69090714     51287.766    
     25200   586.83544      17319.663     -1079.0661      1220.585       2255.8559      16194.781      197.39711      64.477216      0.69190787     51213.587    
     25300   588.3989       17355.379     -1099.9186      1202.4288      2269.6554      16118.136      328.2629       71.760597      0.69292221     51138.618    
     25400   605.13966      17267.039     -1054.4465      1189.344       2244.96        16077.2        292.75656      52.404142      0.69424396     51041.257    
     25500   602.89089      17344.467     -1052.9938      1186.4406      2282.2992      16115.901      286.48569      61.740771      0.69536783     50958.762    
     25600   602.38426      17385.497     -1071.6722      1189.5267      2252.158       16158.172      328.9387       64.669757      0.69624411     50894.627    
     25700   605.72339      17368.702     -1093.3778      1194.2595      2349.0465      16143.099      244.2717       67.499324      0.69733101     50815.3      
     25800   601.1052       17399.621     -1083.2751      1194.4173      2374.2054      16266.844      110.09161      75.123426      0.69854472     50727.009    
     25900   590.0892       17441.763     -1071.7914      1189.7139      2330.7423      16163.402      304.91874      63.105198      0.69975477     50639.289    
     26000   593.7378       17293.941     -1041.6534      1193.4061      2296.5508      16099.903      222.37191      63.032999      0.70065916     50573.925    
     26100   594.31261      17186.102     -1113.117       1197.379       2255.7657      16172.016      146.53783      69.359215      0.70119103     50535.564    
     26200   587.5352       17217.573     -1072.5673      1192.0186      2214.2166      16093.415      267.70727      65.601318      0.70235131     50452.079    
     26300   587.66126      17235.396     -1081.7598      1194.1235      2307.388       16001.477      291.30045      64.969265      0.70344121     50373.91     
     26400   594.97032      17212.952     -1096.747       1195.3749      2265.6533      16038.692      286.06792      63.54963       0.7047053      50283.55     
     26500   591.7551       17283.881     -1099.5894      1189.6886      2254.7043      16122.727      284.92541      71.235521      0.70656847     50150.956    
     26600   594.34769      17297.734     -1087.6795      1187.9946      2284.0442      16159.332      210.22041      83.131887      0.70864415     50004.059    
     26700   595.93595      17321.82      -1077.0495      1194.0966      2339.4228      16054.452      294.42565      55.958828      0.71043081     49878.304    
     26800   594.02326      17358.672     -1088.5639      1205.3449      2343.4029      16109.302      257.56746      73.651302      0.71167637     49791.008    
     26900   595.44906      17343.087     -1084.4026      1209.9125      2273.1433      16101.538      320.01588      63.921642      0.71237037     49742.501    
     27000   595.88719      17337.691     -1122.4025      1227.3157      2339.1256      16184.64       178.86967      72.804111      0.71302691     49696.7      
     27100   598.94244      17313.698     -1146.4876      1219.8103      2266.5354      16123.983      306.04293      88.955687      0.71358406     49657.898    
     27200   607.88688      17233.283     -1103.5674      1210.4242      2209.9291      16104.733      291.25715      64.551691      0.71409127     49622.626    
     27300   604.61744      17261.139     -1077.0783      1210.461       2237.7911      16046.943      321.69141      64.889383      0.71438284     49602.373    
     27400   603.77284      17249.623     -1166.4088      1216.0215      2315.5568      16232.701      123.06947      69.696889      0.71436333     49603.728    
     27500   592.70109      17307.154     -1129.4066      1213.7757      2256.3475      16168.959      250.78509      88.283562      0.71473303     49578.07     
     27600   590.49668      17240.921     -1100.2         1227.7489      2280.3678      16037.131      268.44119      67.599769      0.71551715     49523.738    
     27700   581.06895      17219.377     -1130.7829      1224.1455      2230.5655      16146.931      232.53444      56.780606      0.71617959     49477.931    
     27800   575.51586      17215.537     -1134.5061      1227.4762      2216.1105      16053.675      337.12401      56.90124       0.71678766     49435.957    
     27900   574.22755      17245.898     -1132.2104      1220.0924      2265.5407      16124.345      232.76218      77.36357       0.71718727     49408.412    
     28000   582.38424      17247.367     -1116.3097      1208.0875      2294.2099      16094.456      248.83446      59.410317      0.71756917     49382.116    
     28100   593.52672      17217.021     -1116.5533      1218.2278      2271.2674      16037.313      283.71352      63.908659      0.71808661     49346.532    
     28200   592.55043      17263.659     -1114.9717      1214.6935      2252.7954      16066.348      317.99906      66.680566      0.71782791     49364.317    
     28300   594.81418      17277.269     -1141.3249      1216.2866      2283.9143      16126.688      260.38927      70.633527      0.71721037     49406.821    
     28400   594.60307      17313.993     -1134.6448      1210.0695      2323.3826      16156.183      214.0758       87.856157      0.71655902     49451.731    
     28500   605.45123      17246.602     -1114.0717      1219.14        2222.3469      16087.63       303.29446      70.210578      0.71578828     49504.979    
     28600   608.6927       17237.042     -1103.6141      1206.687       2273.0832      16152.735      182.80207      65.940975      0.71455962     49590.102    
     28700   596.60275      17338.104     -1127.9982      1222.8742      2325.6466      16114.862      286.78057      55.712378      0.71312091     49690.149    
     28800   594.27967      17319.117     -1104.9111      1216.2639      2282.4503      16139.949      250.57069      72.328387      0.71193631     49772.829    
     28900   590.28474      17295.558     -1072.0518      1227.968       2240.6581      16073.967      298.52461      63.752724      0.71051756     49872.214    
     29000   590.3446       17237.849     -1114.5275      1230.2429      2166.6287      16270.478      169.56733      52.296861      0.70906795     49974.172    
     29100   580.54434      17287.756     -1112.0716      1227.9648      2337.9054      16038.791      258.18727      74.226459      0.70753678     50082.321    
     29200   571.46073      17360.468     -1108.1758      1232.4994      2315.5435      16037.579      362.05442      58.34368       0.70611702     50183.019    
     29300   580.92786      17329.455     -1118.4014      1228.849       2335.1518      16029.922      331.3193       59.447477      0.70472604     50282.07     
     29400   602.96785      17257.89      -1122.908       1227.5228      2269.9352      16074.28       262.74804      84.398243      0.70325501     50387.247    
     29500   597.14925      17398.394     -1117.4811      1219.2165      2299.6936      16193.161      273.6843       70.467143      0.7017317      50496.627    
     29600   596.2237       17435.498     -1063.0011      1212.8315      2302.9619      16199.952      250.84807      73.740034      0.70064175     50575.182    
     29700   595.3371       17447.621     -1107.9331      1221.1742      2322.9581      16208.105      282.82068      61.612016      0.69921511     50678.373    
     29800   600.33931      17385.036     -1089.4041      1220.5741      2340.0383      16145.209      231.72981      77.248902      0.69792366     50772.149    
     29900   616.37332      17202.964     -1080.5966      1208.2229      2211.9492      16100.721      243.77949      58.568214      0.69674881     50857.76     
     30000   595.89834      17327.171     -1067.1768      1215.6438      2359.2024      16105.574      199.6157       52.736087      0.69527746     50965.386    
     30100   594.0634       17279.879     -1078.0345      1214.0469      2287.3634      16132.799      210.5103       51.062115      0.69388214     51067.871    
     30200   581.34389      17334.234     -1100.0537      1215.3056      2309.3551      16101.746      277.95342      67.817838      0.69259147     51163.039    
     30300   590.22281      17214.451     -1114.73        1216.3704      2286.4796      16014.621      299.53352      50.593979      0.69150431     51243.475    
     30400   574.14051      17355.128     -1089.0954      1220.2059      2208.732       16115.402      370.58226      69.03993       0.69106419     51276.111    
     30500   582.10083      17371.951     -1083.4053      1210.8747      2281.0397      16159.198      272.9589       71.351642      0.69065079     51306.803    
     30600   595.60415      17376.611     -1083.3678      1215.9992      2290.1677      16135.176      292.76336      64.370793      0.69068279     51304.426    
     30700   608.2927       17330.816     -1080.9852      1209.8464      2349.1355      16049.587      279.94544      59.698968      0.69065513     51306.481    
     30800   588.78053      17537.56      -1078.1827      1210.1738      2392.3634      16233.323      244.42908      70.905961      0.69048426     51319.177    
     30900   591.85032      17501.301     -1081.7324      1221.9135      2382.2793      16234.853      213.44153      69.453766      0.69054963     51314.319    
     31000   588.95257      17496.692     -1042.4301      1214.9319      2379.7636      16177.165      237.19598      70.973928      0.69045621     51321.262    
     31100   602.45195      17336.848     -1063.1978      1219.9064      2299.4125      16062.533      301.34993      58.096775      0.68998644     51356.204    
     31200   592.09809      17376.352     -1054.9834      1209.2696      2292.1661      16087.815      315.22795      68.076961      0.68944928     51396.216    
     31300   590.02585      17348.71      -1078.8327      1204.0728      2258.0435      16147.74       272.45815      84.789667      0.68875982     51447.664    
     31400   593.59409      17270.833     -1096.1327      1208.7221      2251.6789      16061.373      334.69559      52.198674      0.68780737     51518.907    
     31500   574.40208      17401.596     -1059.8726      1212.7252      2385.0115      16106.342      231.89511      67.479163      0.68692093     51585.39     
     31600   583.29559      17316.529     -1071.3789      1222.0067      2232.9019      16094.535      312.51502      66.833746      0.68620269     51639.383    
     31700   584.99676      17375.787     -1062.1411      1223.081       2283.4727      16022.613      363.51155      87.79241       0.68544765     51696.266    
     31800   597.71672      17380.632     -1089.7896      1223.4821      2329.1558      16097.839      297.85791      62.234284      0.68503537     51727.379    
     31900   594.60661      17477.619     -1044.3716      1221.8754      2317.1216      16195.8        248.44099      79.05951       0.68480416     51744.844    
     32000   601.69151      17441.757     -1056.7041      1214.6276      2395.8936      16116.587      236.14554      75.322726      0.68478962     51745.942    
     32100   593.29291      17515.79      -1063.345       1212.3633      2410.4832      16197.714      227.42715      70.886955      0.68493389     51735.043    
     32200   605.633        17373.245     -1043.4132      1216.9402      2382.464       16005.159      274.86832      77.327432      0.68529869     51707.503    
     32300   584.43586      17514.35      -1016.9025      1208.6116      2343.1851      16058.781      388.92519      71.507282      0.68587167     51664.306    
     32400   593.00187      17372.469     -1041.2804      1205.9936      2315.7168      16109.927      254.97574      69.262454      0.68672983     51599.745    
     32500   590.30515      17320.983     -1039.4248      1200.2916      2284.5843      16205.468      143.02597      69.100602      0.6878505      51515.677    
     32600   591.92246      17276.313     -1063.6474      1210.4217      2319.2656      16091.474      176.71783      85.581457      0.68942126     51398.305    
     32700   581.4592       17322.522     -1074.6509      1212.9157      2338.5327      16013.219      311.34202      63.420114      0.69149274     51244.333    
     32800   593.61239      17177.329     -1084.7002      1204.8532      2328.5045      16061.954      135.52979      74.800633      0.69431373     51036.128    
     32900   580.21485      17291.692     -1063.0069      1208.7925      2284.6298      16091.79       237.08277      74.074352      0.6972253      50823.004    
     33000   596.43683      17216.293     -1033.2714      1212.2764      2277.8047      15988.53       233.75999      77.946141      0.7002951      50600.217    
     33100   597.04771      17326.472     -1068.4657      1211.7877      2281.1938      16078.757      288.87832      75.501513      0.70298885     50406.324    
     33200   596.57832      17408.355     -1073.5681      1201.8817      2361.7644      16095.107      288.42485      76.85263       0.70556252     50222.458    
     33300   598.98914      17422.124     -1106.5971      1203.0416      2423.4314      15998.388      362.86564      82.476042      0.70797237     50051.507    
     33400   606.8001       17349.995     -1086.3274      1212.4014      2393.7784      16135.77       175.45388      59.972263      0.70992724     49913.684    
     33500   589.68667      17467.145     -1105.1635      1216.5711      2412.4275      16142.172      259.54753      81.907179      0.71168807     49790.19     
     33600   591.96207      17379.668     -1096.2309      1215.5355      2308.8652      16135.136      289.63931      67.615696      0.71326786     49679.911    
     33700   601.6342       17224.533     -1128.5093      1216.8692      2220.5486      16090.666      295.72201      69.694593      0.71443346     49598.858    
     33800   581.46829      17353.309     -1108.1668      1211.1216      2255.9328      16162.465      297.23706      73.172738      0.71584768     49500.872    
     33900   591.21541      17242.414     -1114.9604      1221.0643      2307.4542      15955.694      337.9906       73.039491      0.71671817     49440.75     
     34000   593.20694      17221.112     -1144.2309      1240.978       2231.4153      16119.89       241.64726      69.082784      0.71730314     49400.431    
     34100   594.90247      17254.761     -1150.5027      1237.691       2314.8587      16195.664      115.93998      78.345597      0.71785269     49362.612    
     34200   598.12506      17334.458     -1110.6756      1222.5519      2304.509       16120.205      266.39606      66.402895      0.7186736      49306.227    
     34300   607.91907      17335.449     -1137.2676      1215.24        2378.646       16082.348      257.09621      76.498228      0.71956374     49245.233    
     34400   603.98579      17397.978     -1107.6452      1200.2372      2219.2067      16231.468      316.13773      78.846451      0.72045617     49184.233    
     34500   618.06506      17244.677     -1132.6294      1192.1105      2253.6551      16127.069      276.07071      69.536907      0.72118315     49134.654    
     34600   596.62811      17357.522     -1107.165       1186.3651      2340.0905      16046.868      357.8048       77.363111      0.72166405     49101.911    
     34700   592.8813       17295.182     -1133.8093      1193.091       2322.1118      16179.432      218.31224      59.719462      0.72170456     49099.155    
     34800   596.58086      17204.492     -1095.0288      1198.0275      2353.5223      16097.29       118.70509      74.420453      0.72127697     49128.262    
     34900   594.79689      17196.037     -1104.5156      1203.2642      2310.2388      15996.849      271.31944      61.438947      0.72014756     49205.31     
     35000   592.69588      17217.841     -1083.7408      1203.5403      2316.7969      16023.009      223.71092      78.133556      0.71902617     49282.051    
     35100   593.01246      17240.273     -1106.3657      1210.9146      2261.4149      16229.002      124.10951      64.109135      0.71785213     49362.651    
     35200   591.00358      17308.195     -1132.0774      1211.4787      2335.2829      16056.102      276.00498      104.1175       0.7164288      49460.719    
     35300   595.39801      17338.889     -1101.7138      1221.9643      2340.8714      16133.928      231.79464      53.406083      0.71539375     49532.281    
     35400   608.21126      17287.88      -1120.4935      1217.7085      2256.558       16231.883      166.60638      75.987452      0.71425795     49611.046    
     35500   602.72464      17401.564     -1100.6811      1215.538       2281.8407      16214.258      257.10824      74.022387      0.71315175     49688        
     35600   608.1797       17450.249     -1059.5806      1216.905       2339.6626      16132.995      303.32102      57.576177      0.71201326     49767.45     
     35700   621.05548      17445.278     -1104.091       1217.4061      2397.8599      16225.97       183.60708      64.827394      0.71059242     49866.96     
     35800   605.37651      17632.392     -1107.8897      1224.1752      2464.3748      16174.082      345.52685      74.573301      0.70881267     49992.17     
     35900   617.17117      17465.891     -1118.3478      1220.7449      2440.4647      16133.948      254.4646       76.905321      0.70702553     50118.535    
     36000   613.00302      17371.491     -1112.0572      1216.4253      2414.3534      16154.568      177.93846      62.821996      0.70543135     50231.797    
     36100   589.74493      17506.758     -1055.0437      1205.1438      2347.2735      16221.451      262.02755      67.504269      0.70381464     50347.182    
     36200   592.56984      17446.86      -1102.2296      1218.2561      2305.6719      16222.315      280.59037      64.462341      0.70161079     50505.33     
     36300   605.00987      17302.631     -1093.1001      1203.5526      2277.8554      16167.478      212.37416      75.993489      0.69967654     50644.951    
     36400   599.27336      17312.492     -1057.7564      1208.1806      2223.936       16145.909      275.58895      58.015146      0.69792587     50771.988    
     36500   592.23529      17339.189     -1071.3987      1194.3241      2296.2127      16056.075      329.12022      76.202091      0.69646768     50878.289    
     36600   590.70319      17327.643     -1089.3879      1206.2574      2297.9126      16092.777      276.73551      85.105123      0.69512888     50976.28     
     36700   584.60335      17371.139     -1114.6467      1212.0932      2311.3853      16282.565      174.28506      46.069727      0.69373462     51078.731    
     36800   602.19764      17225.714     -1091.6684      1212.41        2365.1614      15983.009      226.45987      68.816662      0.69288189     51141.594    
     36900   587.90736      17403.689     -1082.9405      1207.387       2299.7913      16101.668      353.97499      63.503559      0.69197159     51208.872    
     37000   597.97579      17403.917     -1098.9049      1212.9032      2335.4035      16079.362      333.09503      80.381036      0.69117231     51268.09     
     37100   608.92929      17381.833     -1076.1471      1187.4238      2289.1079      16156.243      282.23333      82.473209      0.69051557     51316.85     
     37200   617.97459      17318.979     -1118.5836      1205.8338      2256.5725      16067.085      376.03387      71.023213      0.6898537      51366.085    
     37300   604.18691      17401.509     -1073.0589      1198.1459      2321.5522      16186.02       219.69367      87.061634      0.68959603     51385.279    
     37400   590.68269      17436.903     -1068.0826      1200.7475      2322.788       16190.691      254.49125      74.041721      0.68916037     51417.762    
     37500   600.66791      17262.811     -1058.2914      1196.4172      2292.5785      16079.248      234.24625      59.516653      0.6887424      51448.966    
     37600   607.30333      17166.144     -1084.3591      1207.0178      2136.7931      16130.868      255.41619      59.863189      0.68803158     51502.119    
     37700   589.73461      17324.648     -1065.869       1200.1341      2278.9273      16165.868      207.42697      81.727538      0.68758189     51535.802    
     37800   590.23706      17342.637     -1066.1243      1192.7152      2311.1496      16052.648      332.41706      63.358587      0.68721809     51563.084    
     37900   591.01844      17356.877     -1082.1022      1196.3853      2333.7222      16225.851      155.90389      70.839476      0.68708778     51572.863    
     38000   603.06544      17268.711     -1110.8763      1188.1138      2286.2669      16166.095      226.73404      56.360074      0.68710926     51571.251    
     38100   584.89888      17461.826     -1044.2913      1192.599       2283.3818      16146.234      355.38762      72.920266      0.68713346     51569.435    
     38200   598.21341      17396.614     -1062.1291      1186.9159      2412.9894      16079.375      257.35705      65.049523      0.6871614      51567.338    
     38300   605.90063      17392.407     -1053.661       1203.4132      2299.1422      16234.245      203.18704      47.922329      0.68751744     51540.633    
     38400   609.77984      17430.307     -1023.2999      1196.5608      2322.413       16156.752      245.26278      73.105857      0.68780831     51518.837    
     38500   606.13522      17505.35      -1090.713       1200.5261      2331.3159      16218.021      326.17491      59.879334      0.68781294     51518.49     
     38600   603.61942      17501.272     -1068.9065      1199.508       2381.4905      16148.231      283.16384      98.777082      0.68818671     51490.509    
     38700   599.98677      17405.207     -1076.9874      1202.8182      2284.419       16120.302      345.27046      71.873392      0.68875908     51447.72     
     38800   599.27488      17297.502     -1081.5865      1197.6855      2274.1581      16113.982      265.15644      69.886125      0.68906031     51425.229    
     38900   591.35773      17321.661     -1091.8028      1190.9793      2372.9754      16123.415      186.75957      78.794076      0.68959724     51385.188    
     39000   595.00153      17265.233     -1111.7124      1195.9304      2261.752       16117.572      280.67852      60.184814      0.69046799     51320.386    
     39100   590.7745       17312.926     -1053.2486      1191.9795      2319.8275      16067.157      275.52604      48.273597      0.69153509     51241.195    
     39200   597.83806      17297.089     -1071.2566      1204.4012      2244.4468      16096.549      295.17812      65.461363      0.69261747     51161.118    
     39300   599.62306      17348.498     -1093.3338      1210.7264      2332.3004      16108.322      264.87321      64.180149      0.69396318     51061.908    
     39400   606.09154      17354.068     -1078.5503      1206.6392      2317.5142      16235.905      156.55804      55.643587      0.69530189     50963.595    
     39500   604.75896      17399.125     -1109.3178      1217.4405      2396.3314      16072.652      274.37298      88.161265      0.6966455      50865.303    
     39600   607.82238      17361.336     -1083.8033      1217.1245      2247.3795      16159.601      285.60487      76.354531      0.69825372     50748.149    
     39700   609.6833       17278.729     -1130.1712      1213.3904      2274.5787      16130.959      262.42761      69.343886      0.70007568     50616.076    
     39800   587.78716      17324.406     -1094.9122      1215.7645      2318.0329      16080.186      282.76359      64.423929      0.70196459     50479.874    
     39900   589.22686      17230.828     -1104.8897      1211.0985      2265.6698      16146.706      198.85029      55.61489       0.7035715      50364.582    
     40000   590.94123      17206.954     -1125.5482      1215.6798      2317.0171      16132.23       136.01243      73.439308      0.70538666     50234.979    
     40100   590.15349      17245.281     -1087.6763      1201.8478      2322.9787      16058.742      222.80375      69.351645      0.70716389     50108.729    
     40200   587.39819      17333.468     -1125.8364      1212.6217      2358.9271      16086.108      297.26937      47.571046      0.70874717     49996.791    
     40300   594.31198      17347.274     -1100.6348      1207.2539      2259.2124      16248.88       202.66298      72.972059      0.709891       49916.232    
     40400   599.81718      17356.02      -1126.2343      1196.3964      2368.6205      16136.655      246.23287      78.052041      0.71108059     49832.726    
     40500   603.96751      17341.03      -1109.8252      1196.669       2341.1345      16066.906      342.1333       48.171135      0.71245761     49736.411    
     40600   607.14149      17309.405     -1094.5351      1201.7756      2282.9296      16119.817      291.37862      50.5421        0.7136134      49655.856    
     40700   587.27562      17468.906     -1119.1447      1209.1828      2423.3389      16187.696      249.81636      59.764233      0.71434561     49604.958    
     40800   587.91024      17424.079     -1112.6896      1215.3569      2394.0438      16215.217      209.22128      44.756219      0.71517866     49547.178    
     40900   592.62505      17309.944     -1145.0352      1218.5822      2299.3705      16145.107      270.61778      64.649936      0.71591895     49495.944    
     41000   584.43384      17262.405     -1133.3386      1213.9807      2260.4442      16127.159      267.89744      69.831085      0.71659536     49449.224    
     41100   586.52457      17140.804     -1132.9329      1212.1758      2300.778       16026.357      232.02056      46.951599      0.71731258     49399.78     
     41200   582.56667      17166.083     -1127.5241      1208.673       2321.3167      16133.529      105.56222      68.727135      0.71768072     49374.44     
     41300   577.20548      17247.565     -1123.7814      1191.7969      2244.414       16147.029      258.37414      74.092409      0.7178267      49364.4      
     41400   585.06263      17228.716     -1130.0682      1205.336       2358.4811      16050.017      218.60006      70.286477      0.71793657     49356.845    
     41500   592.53027      17223.347     -1136.4899      1198.9197      2373.3989      16035.288      227.86311      65.863645      0.71792455     49357.672    
     41600   593.93569      17262.028     -1128.0351      1199.7084      2257.4176      16145.466      249.23475      80.263746      0.71787763     49360.897    
     41700   608.65565      17170.331     -1141.4782      1194.7691      2311.338       16171.115      122.88189      54.204373      0.71783759     49363.65     
     41800   592.68413      17335.627     -1102.0631      1194.5668      2324.2117      16178.378      228.66078      54.700428      0.71778864     49367.017    
     41900   607.36573      17210.626     -1129.711       1186.0631      2229.6004      16196.612      201.00484      72.525969      0.71753834     49384.238    
     42000   594.82064      17305.633     -1149.0481      1194.2545      2297.4198      16249.244      182.64498      74.788199      0.7175816      49381.26     
     42100   600.98316      17189.02      -1134.3282      1195.5476      2336.4307      16121.419      156.83623      55.639032      0.7175912      49380.6      
     42200   589.05588      17183.733     -1151.016       1190.3461      2247.0976      16080.385      290.31555      67.855115      0.7173855      49394.76     
     42300   584.05854      17154.528     -1101.362       1196.6346      2265.9714      16095.742      155.28037      84.062097      0.71762095     49378.553    
     42400   581.91894      17168.676     -1141.1742      1206.6711      2237.4051      16221.986      115.45119      70.299421      0.71767701     49374.696    
     42500   589.19453      17145.193     -1140.1999      1199.5345      2268.9625      16099.179      195.58547      64.486045      0.71768739     49373.982    
     42600   583.80947      17269.065     -1121.0461      1189.6498      2343.7195      16108.859      245.92827      44.661689      0.71787592     49361.015    
     42700   596.74889      17232.243     -1105.1184      1188.5298      2279.6785      16155.533      188.10226      68.715465      0.71756248     49382.577    
     42800   598.56186      17255.094     -1170.2062      1196.9127      2312.2854      16173.247      217.41142      66.164626      0.71688809     49429.032    
     42900   597.62152      17268.218     -1127.0072      1194.7905      2273.2923      16154.57       250.3879       63.466453      0.71602562     49488.57     
     43000   589.409        17329.147     -1131.2049      1202.5163      2301.8333      16144.164      270.99469      81.759306      0.71503138     49557.383    
     43100   592.39099      17290.702     -1110.389       1203.6581      2256.3164      16149.763      265.5847       66.294644      0.71405567     49625.1      
     43200   584.93504      17349.361     -1086.1724      1205.109       2365.5474      16176.504      152.71833      75.262201      0.71290374     49705.285    
     43300   587.17362      17334.137     -1093.4883      1209.5792      2355.6468      16191.036      150.02078      61.957702      0.71144629     49807.111    
     43400   594.40814      17292.483     -1107.9215      1200.6958      2335.8017      16215.255      123.80452      67.736271      0.71013131     49899.341    
     43500   590.72606      17374.47      -1143.1973      1198.0542      2428.6074      16180.084      194.35374      60.552945      0.70879058     49993.729    
     43600   602.14568      17324.963     -1136.5254      1216.1813      2299.9445      16127.453      286.67525      74.368144      0.70731893     50097.746    
     43700   594.89817      17430.389     -1111.8895      1209.8753      2365.9578      16259.34       187.71159      63.381597      0.70644667     50159.603    
     43800   610.47176      17302.914     -1120.7513      1207.9593      2418.1095      16105.134      182.5327       52.54044       0.70578109     50206.905    
     43900   597.25962      17388.236     -1102.696       1210.563       2419.9523      16099.115      229.73625      73.848399      0.70521588     50247.144    
     44000   603.25712      17251.865     -1144.789       1219.4148      2276.9775      16188.827      174.536        77.233395      0.70478856     50277.609    
     44100   582.83923      17340.768     -1140.6566      1223.0187      2378.3092      16218.438      124.97671      75.107477      0.70473731     50281.266    
     44200   579.48532      17327.505     -1099.1569      1223.5804      2347.8321      16147.415      161.27637      84.937948      0.70520291     50248.069    
     44300   589.36925      17240.384     -1052.433       1235.5311      2240.2629      16078.275      212.61184      65.512668      0.7054319      50231.757    
     44400   598.85258      17187.608     -1091.5029      1229.2871      2265.8716      16140.871      121.97079      60.729896      0.70541217     50233.162    
     44500   592.06856      17300.791     -1138.0931      1235.9722      2323.1238      16145.202      200.55445      73.396665      0.70544303     50230.965    
     44600   594.27036      17328.167     -1100.7874      1227.9736      2313.2358      16208.033      158.40167      62.50751       0.70543177     50231.767    
     44700   606.9215       17238.493     -1104.3036      1213.5093      2351.7432      16068.428      197.47604      51.040764      0.70546394     50229.476    
     44800   594.0122       17347.011     -1178.3241      1204.6861      2346.7986      16140.19       305.48539      67.36312       0.70564578     50216.532    
     44900   599.61909      17277.791     -1114.017       1208.232       2275.8389      16116.582      264.37763      67.062891      0.70625469     50173.237    
     45000   598.99479      17259.709     -1136.1204      1213.7156      2308.456       16205.409      153.95245      54.576953      0.70645118     50159.282    
     45100   594.11762      17277.483     -1114.6009      1211.1156      2285.0549      16176.958      202.69683      55.652103      0.70691024     50126.709    
     45200   590.63528      17288.318     -1116.2263      1198.0278      2319.9866      16202.674      164.20596      58.893772      0.7074616      50087.643    
     45300   600.75765      17188.367     -1107.0263      1207.0449      2306.5898      16085.27       181.36019      53.693198      0.70757976     50079.279    
     45400   591.25857      17263.549     -1107.7653      1219.99        2370.2354      16019.597      243.9246       55.761324      0.70732511     50097.308    
     45500   590.77493      17281.161     -1139.5514      1217.4945      2270.0791      16168.053      240.18105      62.950397      0.70676892     50136.732    
     45600   602.43109      17231.55      -1121.4584      1214.8422      2269.026       16162.394      182.57306      63.432805      0.70589654     50198.693    
     45700   594.10144      17402.46      -1121.3884      1201.3203      2348.9077      16171.11       284.42172      58.288607      0.70499313     50263.021    
     45800   603.91195      17387.259     -1114.3214      1206.5292      2342.3299      16230.692      194.48813      68.339906      0.70386861     50343.322    
     45900   609.22321      17362.228     -1114.5831      1213.4889      2295.016       16193.374      242.6037       72.452465      0.70205172     50473.609    
     46000   607.92338      17347.033     -1101.1542      1216.6654      2318.2061      16081.957      317.57232      54.466417      0.70036092     50595.462    
     46100   599.1497       17334.912     -1083.4017      1219.3981      2370.2349      16108.902      207.78878      52.50368       0.69837582     50739.277    
     46200   578.28767      17429.488     -1099.5782      1213.608       2314.4347      16210.451      239.37907      92.682845      0.69633692     50887.843    
     46300   589.77242      17289.601     -1081.8511      1210.5653      2363.9267      16020.25       241.61184      74.191605      0.69474123     51004.723    
     46400   587.69916      17306.989     -1083.4779      1218.1016      2329.9863      16061.753      249.52642      67.435224      0.69326495     51113.336    
     46500   586.53433      17340.541     -1096.3439      1208.2647      2280.193       16180.821      222.4777       81.821912      0.69172271     51227.296    
     46600   599.87735      17258.354     -1086.5961      1209.2985      2273.6587      16104.982      257.59326      36.830084      0.69005977     51350.746    
     46700   588.39525      17403.722     -1119.12        1213.9104      2356.867       16185.241      250.02743      55.005724      0.68801528     51503.339    
     46800   602.45719      17325.94      -1108.5382      1198.2005      2375.8617      16094.928      236.05004      69.224137      0.68648509     51618.141    
     46900   603.11818      17364.048     -1115.6861      1202.2063      2347.0304      16152.091      266.81576      52.926123      0.68515778     51718.138    
     47000   601.81113      17427.619     -1102.1898      1196.5086      2447.7093      16069.931      286.0343       69.605363      0.68403574     51802.972    
     47100   601.21933      17485.267     -1081.1848      1197.4639      2391.5021      16120.557      342.52795      53.645992      0.68323934     51863.354    
     47200   606.94595      17471.583     -1107.8612      1195.9674      2289.7118      16170.656      391.72706      72.139954      0.68214329     51946.687    
     47300   602.01995      17507.543     -1133.1664      1193.14        2395.1712      16190.61       329.33352      73.978233      0.68110256     52026.062    
     47400   608.12875      17368.028     -1071.4732      1201.4558      2343.7338      16096.949      262.10183      74.715323      0.68015117     52098.836    
     47500   596.57592      17355.882     -1081.6245      1207.5976      2335.5037      16217.225      165.04007      53.44877       0.67883829     52199.595    
     47600   598.3978       17278.424     -1099.4636      1215.1309      2331.5455      16126.383      189.87088      55.917786      0.67731583     52316.929    
     47700   586.84417      17355.108     -1089.7242      1208.6042      2263.8274      16087.452      361.77868      65.898449      0.67611575     52409.789    
     47800   600.09661      17224.396     -1125.1583      1202.1215      2313.7636      15991.884      328.77909      55.548506      0.67460877     52526.866    
     47900   585.24038      17356.725     -1054.928       1200.9055      2263.3175      16166.129      256.64005      66.830726      0.67334693     52625.3      
     48000   596.85526      17283.294     -1078.2959      1202.2161      2239.2958      16106.23       295.30211      59.953925      0.67203899     52727.72     
     48100   596.85552      17363.082     -1048.9609      1206.6844      2250.4041      16135.42       274.70791      84.190275      0.67059534     52841.232    
     48200   612.78167      17321.173     -1063.4102      1212.5692      2272.5975      16161.361      216.81461      61.29659       0.66934555     52939.896    
     48300   613.34623      17354.885     -1073.5315      1205.8191      2318.4515      16130.693      235.30999      78.859607      0.66819298     53031.213    
     48400   598.8217       17471.941     -1040.781       1208.4611      2323.0685      16185.991      284.1105       50.457375      0.66742786     53092.006    
     48500   609.62434      17336.959     -1013.1105      1207.5042      2291.4341      16129.965      213.15661      48.748617      0.66636002     53177.086    
     48600   600.14457      17361.344     -1036.7719      1203.4881      2282.3925      16146.503      229.82486      77.117728      0.66469588     53310.22     
     48700   590.42928      17365.439     -1067.0318      1197.1365      2395.7601      16109.7        201.35173      71.073415      0.66273607     53467.867    
     48800   589.11896      17293.548     -1054.3084      1199.914       2377.4313      16076.411      176.93718      59.629991      0.66082091     53622.825    
     48900   581.59044      17314.234     -1032.3103      1199.0109      2192.0977      16232.852      200.75895      64.941316      0.65864607     53799.887    
     49000   579.31131      17347.22      -1050.86        1196.7016      2303.4998      16055.475      303.9389       80.990751      0.65637052     53986.404    
     49100   585.61587      17315.126     -1051.5973      1202.2146      2338.0385      16072.528      230.95093      65.822363      0.65450849     54139.992    
     49200   594.24174      17272.818     -1032.0618      1202.82        2238.8449      16057.351      265.9508       83.812502      0.65271906     54288.416    
     49300   591.02551      17359.904     -997.53204      1206.1304      2269.043       16107.494      242.23079      75.87951       0.65120773     54414.409    
     49400   600.22755      17350.695     -1025.5718      1208.5967      2395.1002      15990.81       252.65937      70.848054      0.64977064     54534.758    
     49500   594.79967      17460.971     -1024.2055      1202.4774      2287.612       16195.962      269.8031       68.737196      0.64815373     54670.801    
     49600   606.90656      17391.966     -1014.9315      1210.4266      2406.1745      16046.982      229.25561      54.991065      0.64719125     54752.107    
     49700   609.24256      17377.522     -992.48741      1210.8509      2362.0353      16030.712      250.6777       56.767443      0.64623656     54832.992    
     49800   590.56987      17511.547     -1032.7544      1205.0424      2364.0065      16132.206      281.11966      100.48944      0.64529458     54913.036    
     49900   595.13026      17411.41      -1052.5227      1215.6016      2372.3337      16146.324      197.02043      68.790588      0.64453957     54977.36     
     50000   594.70593      17341.8       -1054.4853      1207.7606      2271.5469      16123.752      271.45013      59.221377      0.64363371     55054.736    
     50100   589.14934      17322.625     -1021.7085      1203.2557      2277.3724      16065.883      271.23993      65.328872      0.64282958     55123.605    
     50200   577.15435      17393.885     -999.6131       1211.5608      2316.7243      16107.545      223.79154      72.545274      0.64206854     55188.943    
     50300   579.71948      17380.855     -1001.1958      1203.4817      2421.9386      16128.641      116.91941      49.335153      0.64135902     55249.997    
     50400   591.85325      17363.866     -1017.6281      1215.6871      2300.6194      16073.419      250.9136       77.687984      0.64062        55313.734    
     50500   585.00748      17580.244     -999.55689      1205.4209      2410.6685      16172.35       251.92542      77.021313      0.6398161      55383.233    
     50600   609.8096       17411.664     -1037.0538      1212.1072      2347.2593      16141.903      211.93479      72.654623      0.63928409     55429.323    
     50700   599.38249      17499.157     -1004.492       1202.2157      2366.1235      16153.555      249.34305      72.853545      0.63899782     55454.155    
     50800   594.2641       17508.486     -1036.3535      1201.5329      2348.2533      16192.764      281.54463      59.883202      0.63869288     55480.631    
     50900   599.90018      17402.515     -1021.6844      1210.4778      2338.6487      16135.871      215.20404      62.681354      0.63869647     55480.319    
     51000   597.02046      17366.449     -1007.0754      1223.663       2329.2943      16182.138      111.62996      64.456072      0.63908918     55446.227    
     51100   589.18371      17387.612     -1006.4275      1209.0551      2321.9179      16121.714      220.49794      58.400043      0.63928899     55428.898    
     51200   587.05085      17373.192     -1007.7299      1203.9835      2334.9137      16023.3        299.7698       56.565473      0.63987497     55378.138    
     51300   589.55148      17346.337     -984.9535       1194.9383      2349.4292      16068.371      184.76646      72.4931        0.64048126     55325.716    
     51400   578.41722      17488.374     -1012.5264      1189.7947      2401.3962      16124.642      240.04655      84.693487      0.64078437     55299.545    
     51500   605.80619      17369.304     -1014.1989      1170.8604      2375.1416      15994.336      319.81388      62.477894      0.64129868     55255.196    
     51600   598.764        17530.278     -998.29788      1183.7237      2354.4212      16268.35       205.9076       55.206145      0.64204643     55190.844    
     51700   614.13329      17410.753     -1020.9126      1194.5975      2251.9968      16147.044      308.65751      69.088002      0.64229965     55169.085    
     51800   601.73029      17481.932     -1057.4582      1200.9752      2405.1441      16082.998      320.10984      68.921687      0.64237093     55162.963    
     51900   600.37741      17417.099     -998.48132      1205.4945      2401.8784      16068.432      210.44622      67.596728      0.64281367     55124.97     
     52000   599.93826      17352.215     -1023.9061      1210.2982      2317.2063      16205.636      118.29858      64.537494      0.64307226     55102.803    
     52100   586.66679      17432.535     -1018.9008      1206.8184      2352.8142      16183.44       199.26328      48.213066      0.6432896      55084.186    
     52200   593.57448      17362.002     -992.13531      1216.5139      2356.7928      16033.419      226.83602      60.153263      0.64375834     55044.078    
     52300   594.71147      17353.013     -1022.8858      1197.7158      2269.133       16159.923      243.88464      46.104428      0.64412702     55012.572    
     52400   591.34107      17394.704     -1040.3464      1197.4147      2305.1526      16154.9        246.77561      71.364532      0.64438334     54990.69     
     52500   596.11005      17355.958     -1053.9314      1194.5713      2313.2068      16123.291      268.66671      52.566966      0.64474675     54959.694    
     52600   597.85642      17342.859     -1043.0249      1193.9497      2308.1297      16187.809      161.78319      74.632658      0.64516175     54924.341    
     52700   593.61048      17386.726     -1010.8792      1205.2839      2275.8007      16186.959      210.22527      58.093919      0.64577227     54872.415    
     52800   586.90981      17472.804     -996.47303      1208.5551      2336.3066      16140.943      237.47465      86.102116      0.64637178     54821.521    
     52900   596.40828      17429.257     -1046.2828      1204.8565      2365.7218      16143.322      238.05711      64.371871      0.64732769     54740.566    
     53000   596.24783      17465.769     -1039.491       1204.3653      2287.5752      16293.15       198.32526      60.890673      0.64864433     54629.452    
     53100   604.88187      17409.193     -1011.0162      1215.135       2244.3423      16016.717      427.38029      55.533896      0.64983493     54529.362    
     53200   597.99098      17476.168     -1041.9643      1218.9085      2337.45        16134.578      302.45647      62.196326      0.65109119     54424.149    
     53300   600.24518      17431.897     -1025.5575      1209.6641      2308.401       16143.419      272.58528      62.767278      0.6523516      54318.996    
     53400   597.46324      17402.167     -1015.0529      1209.5481      2242.3981      16245.774      191.96644      68.292499      0.65347864     54225.313    
     53500   579.26842      17484.259     -1015.1826      1229.1541      2359.8244      16165.213      216.5392       70.821606      0.65444037     54145.627    
     53600   588.47232      17339.583     -1027.9122      1222.5666      2206.1523      16172.205      241.00483      65.875254      0.65536514     54069.223    
     53700   593.281        17271.124     -1023.6996      1217.903       2291.4889      16116.859      139.54083      67.992828      0.65623901     53997.223    
     53800   589.89065      17317.752     -1089.3961      1220.5439      2260.3054      16173.078      237.99849      55.031499      0.656949       53938.866    
     53900   596.93823      17335.052     -1044.842       1211.1613      2300.3275      16223.989      97.407521      85.276106      0.65816856     53838.919    
     54000   604.06506      17407.796     -1043.9792      1202.9875      2325.5071      16138.891      257.5392       65.726384      0.65963108     53719.549    
     54100   607.64752      17434.119     -1030.0189      1204.4767      2389.3106      16078.957      275.79084      54.563814      0.66108103     53601.726    
     54200   609.79101      17399.59      -1048.1212      1205.6785      2332.7216      16263.805      109.35417      76.898845      0.66249134     53487.619    
     54300   596.33875      17466.38      -1074.0328      1202.957       2342.4025      16157.085      311.47364      69.334498      0.66387939     53375.785    
     54400   588.4569       17464.006     -1062.623       1204.5801      2397.1172      16161.265      243.55172      63.521521      0.66555341     53241.534    
     54500   590.82038      17380.652     -1046.0346      1206.9879      2236.7014      16254.119      203.33813      69.943988      0.66686822     53136.562    
     54600   597.82134      17286.416     -1061.3579      1204.8326      2264.9544      16157.911      186.67065      77.178508      0.6678863      53055.563    
     54700   591.34082      17339.252     -1084.1936      1203.6841      2299.1904      16027.106      369.06925      67.351977      0.66869563     52991.35     
     54800   599.73294      17286.857     -1049.9723      1206.8879      2241.9025      16142.385      231.00308      55.55139       0.66962374     52917.903    
     54900   591.78989      17398.543     -1049.8448      1211.7943      2382.2194      16111.551      211.24643      72.451438      0.67030888     52863.814    
     55000   593.80066      17442.589     -1088.3745      1223.7893      2298.834       16151.426      332.85612      63.010183      0.67060127     52840.765    
     55100   606.29484      17433.49      -1118.2965      1224.1669      2353.8165      16193.683      256.02008      63.249876      0.6710551      52805.029    
     55200   617.97188      17422.782     -1073.9103      1217.2721      2301.3901      16245.186      207.38591      64.419886      0.67136778     52780.436    
     55300   615.49568      17461.315     -1072.5276      1221.1624      2393.3347      16049.848      336.54462      71.905255      0.67105312     52805.185    
     55400   609.79482      17424.964     -1087.1254      1229.1025      2347.1371      15991.768      426.91805      56.550905      0.67062239     52839.1      
     55500   594.79457      17418.943     -1098.4341      1224.2088      2376.4643      16135.254      250.31215      71.58116       0.6700569      52883.694    
     55600   601.54504      17305.35      -1096.6233      1224.8733      2267.0149      16035.914      350.3138       62.024768      0.66921044     52950.585    
     55700   592.59819      17366.809     -1103.6697      1229.9271      2324.1749      16073.664      310.91936      71.133054      0.66819461     53031.083    
     55800   591.9848       17360.246     -1079.6997      1222.2579      2312.5116      16112.451      273.04377      60.00689       0.6670629      53121.053    
     55900   589.68537      17380.663     -1102.5793      1225.2682      2345.2843      16085.112      303.75188      62.51077       0.66576363     53224.722    
     56000   587.31368      17420.426     -1023.8638      1220.7072      2349.0408      16052.746      298.05698      63.344048      0.6646297      53315.529    
     56100   593.64112      17403.931     -1095.7755      1217.2535      2242.6156      16232.874      289.06182      59.77239       0.66337426     53416.429    
     56200   595.85166      17438.52      -1096.634       1225.5931      2334.7764      16228.332      227.82384      60.260196      0.66278649     53463.799    
     56300   593.44391      17515.294     -1081.5125      1222.4481      2403.1678      16097.633      339.83383      73.335408      0.66265207     53474.645    
     56400   610.26118      17403.394     -1040.5397      1223.3588      2276.3346      16209.694      205.17654      69.288994      0.66298192     53448.04     
     56500   603.92122      17481.161     -1068.2899      1234.3041      2384.3888      16112.392      293.45716      64.05708       0.66345964     53409.555    
     56600   607.61861      17423.438     -1049.188       1223.2978      2333.7892      16114.822      269.83877      70.177265      0.66446058     53329.099    
     56700   599.82835      17394.953     -1050.9672      1223.1677      2299.1699      16266.99       141.51566      53.434261      0.66612769     53195.633    
     56800   590.55636      17361.363     -1060.5796      1212.0788      2349.9122      16122.006      210.44289      67.240813      0.66771695     53069.02     
     56900   581.09863      17390.503     -1075.3758      1216.9121      2263.9184      16180.286      270.19483      76.357409      0.66921785     52949.998    
     57000   584.54468      17356.11      -1057.8385      1209.6992      2335.1597      16169.53       180.18184      60.454782      0.67089433     52817.683    
     57100   590.23845      17333.131     -1079.5119      1206.8467      2287.4145      16161.08       242.53182      57.009662      0.6723112      52706.372    
     57200   590.33398      17379.712     -1069.133       1206.9546      2251.8589      16147.757      306.70248      76.60631       0.67366696     52600.3      
     57300   593.1264       17419.542     -1084.9043      1209.9455      2423.8991      16226.022      124.38987      62.356726      0.67488665     52505.238    
     57400   609.95965      17332.473     -1095.6773      1220.7403      2333.8542      16204.102      172.228        37.524266      0.67602307     52416.975    
     57500   606.6964       17403.373     -1061.5184      1212.1658      2295.7197      16160.552      267.45383      69.871753      0.67674369     52361.159    
     57600   611.40481      17369.218     -1136.9159      1222.6434      2289.1043      16253.636      222.41594      58.680595      0.67739732     52310.635    
     57700   611.65695      17308.745     -1083.0476      1213.1759      2348.3418      15989.508      320.85756      60.205517      0.67846497     52228.318    
     57800   595.38634      17317.856     -1098.6753      1215.1431      2332.7636      16082.601      260.51049      65.863521      0.67946401     52151.525    
     57900   581.67241      17354.678     -1105.642       1224.8064      2288.5516      16195.185      225.29903      66.515232      0.68046697     52074.657    
     58000   590.60233      17249.453     -1134.5563      1229.5847      2399.4442      16081.941      157.54963      56.493639      0.68161648     51986.836    
     58100   583.55634      17316.103     -1086.5177      1218.3434      2360.1941      16090.696      213.2928       59.994601      0.68304839     51877.853    
     58200   585.97488      17328.328     -1075.1762      1221.5797      2258.6911      16185.697      213.55134      64.794715      0.68445703     51771.086    
     58300   601.64041      17250.93      -1083.5305      1230.3479      2224.2982      16036.527      319.66164      63.756084      0.68547657     51694.085    
     58400   601.97743      17321.982     -1092.9285      1236.0082      2295.9865      16177.084      188.47819      57.26159       0.68669573     51602.307    
     58500   606.04775      17342.779     -1086.8375      1221.5898      2339.3427      16175.234      161.90806      71.940288      0.68787693     51513.698    
     58600   608.63778      17332.126     -1087.4665      1220.6448      2276.3951      16135.45       248.32957      79.077467      0.68881492     51443.549    
     58700   600.0473       17381.291     -1085.692       1223.3503      2451.4601      16035.849      240.00804      58.074339      0.68994326     51359.418    
     58800   598.73299      17309.459     -1083.0876      1219.3923      2224.2496      16125.61       284.31142      79.307297      0.69042087     51323.889    
     58900   588.76586      17267.512     -1116.1891      1225.056       2215.9858      16196.482      221.13318      66.986727      0.69082516     51293.853    
     59000   593.71199      17162.51      -1138.2183      1218.5491      2308.3738      16013.372      242.05498      58.36481       0.69139457     51251.609    
     59100   578.58358      17293.556     -1101.2062      1221.7015      2301.8812      16119.095      219.2609       72.300875      0.69203033     51204.524    
     59200   593.65489      17189.688     -1105.4679      1218.5056      2211.6777      16118.158      225.53745      62.932936      0.69273207     51152.654    
     59300   589.84687      17276.151     -1078.3464      1201.5942      2358.9246      16084.227      200.65872      49.05595       0.69364107     51085.62     
     59400   576.32829      17458.791     -1087.9119      1192.3121      2347.814       16243.462      235.64168      66.150709      0.69446896     51024.72     
     59500   590.47139      17389.636     -1086.8169      1206.2105      2395.5282      16113.216      227.03912      71.473706      0.69502802     50983.677    
     59600   601.75692      17318.788     -1111.9167      1198.9227      2387.9211      16025.411      279.81764      77.338203      0.69498359     50986.936    
     59700   595.93554      17360.854     -1113.5943      1194.9981      2367.2696      16104.996      266.13886      79.91627       0.69516679     50973.5      
     59800   593.12219      17318.34      -1100.2262      1186.1185      2290.3033      16063.159      334.36801      84.604452      0.69543334     50953.962    
     59900   591.26683      17220.608     -1072.3779      1180.4129      2299.5165      15981.542      301.13669      71.019101      0.69514326     50975.225    
     60000   579.53067      17261.945     -1130.0956      1205.3275      2174.3125      16080.893      382.86583      86.031178      0.6946889      51008.565    
     60100   591.73005      17157.935     -1111.214       1194.7714      2262.3776      15997.297      265.94102      86.920638      0.69423369     51042.011    
     60200   586.01796      17241.14      -1115.2201      1194.577       2333.7596      16106.099      194.95945      64.18125       0.69382431     51072.128    
     60300   576.12278      17381.448     -1108.8249      1195.3995      2341.3244      16131.972      279.02388      79.33481       0.69343938     51100.478    
     60400   597.59089      17250.257     -1101.4897      1187.9817      2293.3088      16056.485      285.65871      64.3321        0.69298026     51134.334    
     60500   598.42685      17291.67      -1144.1788      1189.0067      2190.307       16264.021      241.58717      85.527923      0.69234449     51181.29     
     60600   596.85077      17343.771     -1111.2368      1187.9413      2232.8479      16129.779      371.29601      67.642154      0.69193137     51211.848    
     60700   599.38029      17338.941     -1082.9348      1190.8306      2354.185       16085.456      246.64393      78.688568      0.69149613     51244.082    
     60800   595.96022      17363.429     -1072.5551      1186.1586      2341.5271      16158.625      204.41007      81.500103      0.69061024     51309.816    
     60900   600.3594       17281.541     -1086.9169      1199.1557      2274.8268      16084.061      270.2982       75.939202      0.68956541     51387.56     
     61000   590.02851      17278.339     -1096.321       1205.0103      2276.6277      16091.438      271.32139      65.075597      0.68855325     51463.099    
     61100   587.54702      17187.888     -1106.7326      1194.3021      2249.0795      16137.307      165.41678      84.849199      0.68788107     51513.387    
     61200   586.46504      17153.376     -1055.3433      1195.9873      2265.3359      16070.952      158.42151      55.233283      0.68760327     51534.199    
     61300   582.27507      17202.204     -1079.6849      1206.1406      2291.8299      16012.939      242.53065      64.016916      0.68728097     51558.366    
     61400   580.50321      17272.831     -1078.5616      1196.1856      2327.612       16050.542      247.5184       65.950659      0.68699157     51580.086    
     61500   595.37942      17222.271     -1057.677       1187.3355      2377.4525      16081.259      105.9093       64.945645      0.68719697     51564.668    
     61600   594.9588       17279.476     -1059.3681      1201.1245      2289.7599      16107.566      206.68055      73.582072      0.68703906     51576.52     
     61700   579.99501      17436.294     -1056.4815      1195.5151      2308.3472      16249.745      195.47066      83.492751      0.68673418     51599.418    
     61800   601.95842      17255.124     -1054.9711      1203.9641      2266.1116      16071.935      249.64087      58.034634      0.6863886      51625.397    
     61900   589.16403      17378.173     -1080.5264      1195.6706      2348.6964      16133.855      248.10814      73.808744      0.68604876     51650.97     
     62000   587.67387      17394.95      -1129.6139      1204.4419      2411.7261      16158.33       209.68996      82.484178      0.68604589     51651.186    
     62100   593.08979      17323.21      -1085.6012      1215.5044      2363.9864      16034.636      287.36819      50.903223      0.68646657     51619.533    
     62200   594.56712      17256.839     -1094.5309      1214.2942      2315.8899      16126.449      183.05905      54.681589      0.68715796     51567.596    
     62300   594.23404      17162.168     -1114.4325      1202.1257      2277.6574      16047.989      210.8822       80.635469      0.68805819     51500.127    
     62400   576.74563      17223.785     -1087.5739      1216.3606      2341.0328      15988.053      226.20008      79.929885      0.68878995     51445.414    
     62500   579.29165      17186.548     -1081.0384      1210.1717      2323.5361      16058.962      180.17382      36.838843      0.68985666     51365.865    
     62600   572.48835      17302.201     -1071.3437      1215.1411      2308.335       16121.288      204.21241      64.19203       0.69092673     51286.312    
     62700   579.24629      17326.502     -1069.2522      1228.7392      2236.8519      16154.928      260.02819      53.308536      0.6917263      51227.03     
     62800   581.0256       17370.62      -1078.3926      1237.7858      2383.7659      16112.137      198.39174      52.609737      0.69248232     51171.103    
     62900   588.10485      17348.403     -1069.9373      1234.8106      2294.522       16060.65       312.08124      52.086854      0.69299855     51132.984    
     63000   595.49837      17311.266     -1076.8273      1231.5481      2291.9824      16115.521      227.2954       59.885084      0.69339864     51103.48     
     63100   599.36225      17288.691     -1109.4231      1222.1886      2268.576       16177.993      204.90114      62.299968      0.69377061     51076.081    
     63200   600.53464      17262.872     -1115.1551      1218.1291      2304.6909      16178.479      143.67455      71.832124      0.69493581     50990.442    
     63300   598.12791      17232.525     -1072.5892      1210.8817      2249.5911      16168.408      157.88414      58.332851      0.69641743     50881.96     
     63400   569.14896      17417.377     -1030.5393      1214.4341      2427.8917      16170.568      126.62698      48.726233      0.6975497      50799.368    
     63500   579.46909      17263.805     -1104.9302      1210.3518      2233.3845      16228.924      170.26445      65.783094      0.69874401     50712.54     
     63600   587.35803      17170.894     -1043.0482      1198.3947      2283.7655      16059.302      155.47575      57.661502      0.69991612     50627.615    
     63700   597.17019      17098.236     -1098.0647      1196.139       2262.7545      16127.796      100.39759      49.461167      0.7004812      50586.774    
     63800   583.86061      17312.258     -1089.5934      1202.7198      2219.3357      16195.49       256.45767      69.474196      0.70111229     50541.239    
     63900   602.71995      17282.087     -1094.3251      1201.1474      2376.7355      16208.61       72.430945      58.96393       0.70205927     50473.066    
     64000   608.03003      17279.175     -1053.0796      1203.3072      2261.6985      16107.513      226.98278      74.535627      0.70302674     50403.608    
     64100   598.01462      17363.454     -1041.2813      1214.7285      2262.4594      16116.806      280.38232      70.604778      0.70416695     50321.993    
     64200   607.82933      17251.36      -1066.9675      1218.6505      2245.4716      16070.985      260.46362      62.893958      0.70461477     50290.01     
     64300   596.3284       17313.144     -1109.4519      1221.8304      2343.7582      16188.662      145.95556      61.552396      0.70491432     50268.64     
     64400   588.0997       17331.462     -1093.4577      1207.4429      2287.86        16208.998      181.70399      76.348542      0.70507489     50257.192    
     64500   578.94969      17362.234     -1099.8018      1213.5474      2316.4061      16063.266      351.51363      56.719296      0.70486689     50272.022    
     64600   581.79278      17291.531     -1118.7531      1210.1048      2318.996       16015.217      345.01215      61.524675      0.70433704     50309.841    
     64700   586.34368      17200.959     -1170.4463      1222.437       2292.0108      16170.152      157.76114      69.651442      0.70375966     50351.116    
     64800   586.45543      17151.198     -1148.7542      1220.4554      2294.0088      16001.852      249.63861      72.196313      0.70389988     50341.086    
     64900   574.79454      17251.369     -1122.5805      1211.7935      2232.0725      16055.954      363.94413      48.258641      0.70442988     50303.21     
     65000   579.74906      17274.51      -1096.6852      1215.5413      2273.4199      16122.502      227.44872      69.390329      0.70465315     50287.271    
     65100   596.43206      17238.203     -1125.2989      1206.0322      2243.9185      16080.25       310.89462      59.109474      0.70471358     50282.959    
     65200   583.43206      17429.662     -1117.323       1211.5212      2306.7641      16238.012      260.26115      68.339856      0.70513383     50252.991    
     65300   598.79054      17323.398     -1079.6775      1201.5959      2252.2302      16206.969      217.87856      62.881486      0.70576648     50207.944    
     65400   602.37141      17290.044     -1115.8915      1205.1177      2263.0733      16198.294      206.48612      72.383162      0.70622929     50175.041    
     65500   593.32189      17354.066     -1056.505       1206.9676      2328.7873      16202.321      153.81012      57.917389      0.70677553     50136.264    
     65600   592.40495      17332.542     -1076.3259      1206.4349      2354.4047      16104.678      197.37725      87.121071      0.70685242     50130.81     
     65700   596.3434       17231.894     -1107.6564      1194.3521      2344.4874      16058.352      216.11843      70.147888      0.70676812     50136.789    
     65800   592.33633      17167.495     -1092.5196      1202.0299      2265.1671      16075.679      185.26924      74.911498      0.70688394     50128.574    
     65900   580.94297      17200.346     -1113.7495      1210.447       2231.2585      16148.105      197.97876      68.130836      0.70733575     50096.555    
     66000   582.48026      17172.51      -1103.9687      1203.7017      2272.7075      16042.845      229.57018      69.16758       0.70788771     50057.493    
     66100   589.66618      17126.574     -1087.4407      1200.0917      2305.8736      16072.628      138.92502      39.10611       0.70843251     50018.998    
     66200   577.2361       17285.024     -1105.591       1209.2849      2355.5039      16195.925      96.354959      75.218462      0.70897042     49981.047    
     66300   572.90091      17380.487     -1109.4277      1209.8195      2342.8749      16242.044      160.62174      77.682453      0.70960148     49936.598    
     66400   592.84493      17244.155     -1119.4638      1193.2645      2401.5048      16174.227      71.168739      66.241342      0.71039575     49880.766    
     66500   598.40028      17206.696     -1108.23        1194.1169      2222.0625      16149.38       242.37273      50.46515       0.71102217     49836.82     
     66600   596.60389      17225.964     -1097.7756      1179.921       2368.1644      16052.345      202.59444      63.27532       0.71159035     49797.028    
     66700   598.80641      17187.908     -1096.6189      1181.9476      2328.9369      16063.87       192.55718      57.956211      0.71167127     49791.365    
     66800   591.70467      17225.408     -1116.7834      1191.661       2315.7769      16001.537      305.1017       67.373217      0.71116638     49826.714    
     66900   578.38784      17315.713     -1091.0959      1193.5686      2323.9848      16158.457      207.24303      63.745292      0.71057549     49868.149    
     67000   587.06699      17207.602     -1137.7681      1194.3831      2284.2892      16072.182      279.28215      56.365862      0.70957354     49938.564    
     67100   580.68259      17248.912     -1150.7901      1202.4519      2414.9768      16074.268      196.16504      52.350368      0.70844656     50018.005    
     67200   575.94646      17318.927     -1105.2599      1211.7954      2305.1782      16100.488      255.71358      90.846278      0.70787606     50058.317    
     67300   594.67278      17245.941     -1086.7802      1197.5011      2299.64        16075.302      254.03075      47.505532      0.70735123     50095.458    
     67400   599.19482      17300.994     -1113.242       1206.8202      2321.9506      16134.519      231.82828      57.881482      0.70671114     50140.831    
     67500   603.48058      17313.112     -1136.6358      1209.624       2287.2401      16168.662      257.19867      65.463139      0.70626777     50172.308    
     67600   602.25726      17328.982     -1090.6243      1208.7678      2233.0552      16144.712      288.60874      83.595686      0.70646955     50157.978    
     67700   590.583        17407.544     -1107.5888      1208.5229      2375.2152      16100.271      297.48072      71.886789      0.70687738     50129.039    
     67800   599.47872      17271.348     -1086.7919      1205.8378      2322.7723      16142.157      150.48875      75.446179      0.70715109     50109.637    
     67900   594.09977      17263.05      -1098.4609      1210.1812      2285.3698      16191.129      135.8377       76.461673      0.70754527     50081.72     
     68000   589.80962      17240.656     -1078.9382      1203.9843      2406.1298      16007.241      205.62946      34.491085      0.7079016      50056.511    
     68100   575.75749      17281.578     -1134.9763      1200.6577      2324.5246      16097.378      257.30451      75.511689      0.70806435     50045.005    
     68200   575.27571      17185.166     -1125.5241      1192.4502      2364.3067      16029.161      206.04588      56.259734      0.70869292     50000.618    
     68300   574.64366      17103.111     -1114.7081      1195.9481      2247.2034      16087.941      163.80917      59.885049      0.70969816     49929.795    
     68400   564.23612      17155.192     -1109.9367      1186.2798      2251.0599      16042.388      250.32128      72.991676      0.71098835     49839.191    
     68500   578.79035      17090.602     -1110.9311      1198.0742      2184.6109      16035.749      262.32201      58.30225       0.71197776     49769.931    
     68600   587.06025      17186.474     -1117.7016      1210.1296      2235.5247      16063.308      268.88584      62.779416      0.7127638      49715.044    
     68700   593.92037      17204.073     -1151.2037      1206.7673      2327.9689      16121.783      167.78594      66.403758      0.71378089     49644.204    
     68800   588.83942      17294.804     -1087.563       1195.4879      2255.9814      16207.696      213.61141      46.346323      0.7148943      49566.886    
     68900   594.11806      17296.574     -1118.182       1197.4079      2399.3307      16022.903      277.34021      54.962405      0.71570592     49510.676    
     69000   587.6068       17393.535     -1099.9413      1190.1182      2417.7837      16115.944      224.00516      83.804486      0.71614449     49480.356    
     69100   600.9578       17291.886     -1129.8334      1200.3101      2341.6186      16131.104      219.82506      67.484247      0.71658521     49449.924    
     69200   604.2755       17250.103     -1084.438       1192.5833      2282.5405      16098.199      252.20643      49.6936        0.71685123     49431.573    
     69300   596.88034      17269.083     -1112.7917      1209.6367      2276.3801      16096.214      272.30934      68.18473       0.71677119     49437.093    
     69400   593.6688       17224.748     -1110.0808      1203.2561      2329.8225      16118.358      162.281        64.05969       0.71619968     49476.543    
     69500   590.98029      17177.669     -1132.5362      1216.8448      2291.5468      16009.655      274.70302      60.871093      0.71565021     49514.53     
     69600   580.94875      17218.174     -1127.3955      1206.8004      2259.5157      16198.125      171.47234      53.915486      0.71542803     49529.907    
     69700   588.09734      17139.845     -1158.0146      1213.7751      2237.3477      16079.659      240.44597      71.450545      0.71534118     49535.921    
     69800   578.6394       17248.945     -1140.4463      1219.2453      2427.9369      16082.778      134.7419       67.66361       0.71540808     49531.288    
     69900   580.5775       17328.346     -1121.1505      1218.1062      2286.2855      16098.495      307.94852      79.940534      0.71584533     49501.034    
     70000   590.55         17372.369     -1108.5211      1220.6651      2320.5293      16162.409      254.19724      61.794995      0.71634517     49466.494    
     70100   609.44319      17244.158     -1122.6486      1207.3263      2320.8936      16104.488      193.05301      82.124612      0.71687021     49430.265    
     70200   604.18875      17284.649     -1121.4999      1210.7541      2302.5083      16108.143      267.87005      57.310138      0.71684782     49431.808    
     70300   590.12488      17373.529     -1103.9074      1209.3688      2475.8528      16016.851      246.79959      67.642056      0.71668256     49443.207    
     70400   600.42732      17221.64      -1077.8782      1221.9578      2327.1371      15904.358      324.25689      60.094549      0.71573915     49508.378    
     70500   579.4772       17355.863     -1118.6672      1216.5967      2344.541       16152.41       233.89056      65.477666      0.71462868     49585.309    
     70600   595.99922      17182.063     -1091.3241      1194.254       2241.3856      15992.679      324.7975       59.737055      0.71326437     49680.155    
     70700   596.60323      17162.863     -1107.3335      1195.9096      2327.0178      15972.082      261.23663      54.362716      0.71174103     49786.485    
     70800   578.8873       17322.214     -1119.8648      1188.2797      2313.1665      16080.382      329.93122      72.730118      0.70984388     49919.546    
     70900   593.38108      17240.087     -1122.2247      1192.4712      2202.1292      16151.604      293.39283      65.219424      0.70818328     50036.601    
     71000   609.7588       17185.821     -1113.0992      1192.8492      2301.095       16056.781      218.32628      74.926226      0.70669658     50141.864    
     71100   594.43961      17399.403     -1117.3522      1201.9789      2320.5048      16211.457      283.38375      43.708127      0.70540024     50234.012    
     71200   598.72014      17398.734     -1112.2713      1198.0462      2422.6418      16222.594      134.96         75.641261      0.70472152     50282.392    
     71300   600.84895      17384.207     -1054.5773      1189.7628      2318.3082      16148.088      254.24707      72.431344      0.70431613     50311.334    
     71400   602.09902      17341.213     -1074.1186      1196.8068      2265.5437      16232.757      200.29299      62.816537      0.70353525     50367.176    
     71500   597.84527      17275.714     -1083.8295      1201.8166      2227.7803      16159.341      256.92929      59.264297      0.70230382     50455.491    
     71600   593.6743       17198.226     -1109.426       1204.9804      2254.5458      16169.718      139.14111      84.044369      0.70110028     50542.105    
     71700   582.09746      17262.085     -1069.1108      1216.1936      2275.8875      16076.252      256.33504      51.981596      0.69992919     50626.67     
     71800   589.77937      17198.443     -1083.389       1219.5267      2262.7156      16134.115      156.33687      52.256206      0.69848827     50731.108    
     71900   579.62321      17319.562     -1068.0138      1218.2866      2272.827       16300.289      74.779099      63.526851      0.69743344     50807.836    
     72000   581.68978      17357.593     -1074.6266      1204.8302      2405.8696      16087.79       214.54187      60.0899        0.69650645     50875.457    
     72100   599.00694      17255.917     -1070.904       1203.5282      2363.0806      16047.945      200.13794      51.170664      0.69588284     50921.049    
     72200   599.15977      17284.539     -1058.5432      1210.5834      2219.1622      16121.564      259.46679      72.500512      0.69530741     50963.191    
     72300   606.44365      17228.96      -1063.3664      1211.233       2202.7         16146.053      202.95351      70.71597       0.69477899     51001.951    
     72400   594.24836      17338.736     -1065.2299      1207.8932      2332.6726      16074.393      273.43767      56.209832      0.69404642     51055.784    
     72500   582.7816       17430.031     -1071.3254      1212.7564      2324.0032      16175.066      270.41958      59.766275      0.69341849     51102.018    
     72600   592.54228      17312.895     -1050.5315      1195.0268      2282.2756      16126.14       220.10787      79.728855      0.69255716     51165.573    
     72700   582.22936      17346.504     -1064.442       1207.6012      2320.0518      16068.772      293.79173      60.473346      0.69138486     51252.328    
     72800   585.90251      17264.76      -1087.3564      1210.2443      2271.5942      16101.461      239.89751      68.014265      0.69007909     51349.308    
     72900   577.74944      17330.05      -1060.8291      1222.6548      2277.8515      16099.201      260.62144      70.321715      0.68865168     51455.743    
     73000   575.74914      17381.956     -1082.4903      1222.4985      2349.249       16119.698      242.30208      68.762153      0.68709054     51572.656    
     73100   592.64209      17319.973     -1058.3367      1225.9023      2224.7559      16093.423      315.95821      58.480309      0.68563347     51682.255    
     73200   598.17609      17357.494     -1087.9765      1212.1517      2265.5568      16197.28       238.47441      72.574703      0.68446503     51770.481    
     73300   605.74149      17341.292     -1047.1626      1212.2156      2214.1454      16235.162      193.69226      72.283161      0.68335368     51854.676    
     73400   597.37025      17445.068     -1065.828       1222.2802      2316.67        16264.8        185.92818      61.134239      0.68215556     51945.753    
     73500   604.02816      17403.506     -1063.7192      1227.3809      2332.4876      16152.272      229.91905      64.626307      0.68100929     52033.187    
     73600   596.22716      17464.557     -1069.9283      1219.7217      2282.6132      16245.206      254.05723      74.876968      0.68006316     52105.578    
     73700   598.28815      17399.001     -1052.5318      1221.4624      2392.6609      16134.88       168.46259      76.308882      0.67925507     52167.566    
     73800   584.19944      17406.516     -1056.1822      1211.6434      2296.4794      16206.66       229.8461       58.482017      0.67813639     52253.624    
     73900   584.60894      17313.481     -1072.9559      1222.0532      2197.4162      16192.816      240.38755      74.251786      0.67680222     52356.631    
     74000   579.22232      17346.801     -1085.8605      1226.2556      2351.8127      16098.359      249.71181      46.372636      0.67516019     52483.965    
     74100   591.2539       17264.975     -1051.9188      1228.7239      2256.3052      16014.927      286.18112      70.925879      0.67343583     52618.353    
     74200   581.47682      17401.987     -1083.2351      1221.6105      2383.6929      16219.799      146.67835      52.783461      0.67183994     52743.343    
     74300   594.88447      17338.82      -1024.4706      1224.324       2373.7548      16071.558      176.30835      56.159961      0.6706283      52838.635    
     74400   604.17308      17293.917     -1052.8197      1228.9951      2306.4066      16031.011      250.68196      67.928779      0.66913881     52956.253    
     74500   590.85046      17434.221     -1062.6263      1217.0919      2265.9014      16234.721      267.16171      51.530182      0.66736574     53096.948    
     74600   596.75573      17399.519     -1036.2698      1213.5889      2384.2944      16168.556      147.3126       62.486801      0.6658361      53218.929    
     74700   608.74888      17292.249     -1038.6174      1203.9254      2247.3139      16081.642      284.8265       54.382839      0.66435495     53337.578    
     74800   589.38315      17446.941     -1057.2746      1209.6693      2324.5507      16170.639      271.96911      68.020775      0.66295404     53450.288    
     74900   583.90855      17412.983     -1021.2053      1206.3069      2307.2736      16152.209      250.62781      57.423122      0.6615648      53562.529    
     75000   577.48095      17327.185     -1046.5122      1208.5907      2247.3059      16190.968      213.66466      53.245485      0.66021829     53671.77     
     75100   590.32405      17157.897     -1031.274       1203.0799      2191.6514      16106.982      182.96443      44.82658       0.65927633     53748.455    
     75200   565.71116      17397.928     -1034.3964      1203.5302      2235.6881      16185.224      276.4153       69.700631      0.65842522     53817.933    
     75300   585.40892      17296.094     -1059.0344      1215.7957      2288.5983      16130.557      191.51121      65.414399      0.6576372      53882.42     
     75400   587.20602      17370.583     -1050.6465      1222.5151      2314.8439      16102.484      246.62003      71.744817      0.65714592     53922.703    
     75500   588.14033      17423.741     -1054.6393      1228.0862      2368.4272      16148.419      204.51459      65.718534      0.6569168      53941.51     
     75600   586.30474      17475.243     -1030.4774      1231.9367      2286.8587      16216.827      223.20689      84.742112      0.6569439      53939.285    
     75700   597.58001      17392.768     -1025.2047      1232.3035      2222.6144      16166.142      280.56188      55.981359      0.65705776     53929.938    
     75800   597.46795      17399.519     -1066.2664      1219.0073      2333.9542      16098.375      282.53539      72.206643      0.65700228     53934.491    
     75900   592.62352      17424.336     -1026.2726      1224.9539      2301.6377      16074.65       342.12326      47.384205      0.65714796     53922.535    
     76000   595.39283      17352.782     -1012.1822      1212.1294      2340.263       16117.391      176.0407       60.607896      0.65709643     53926.764    
     76100   591.73246      17292.337     -1053.4005      1212.8741      2246.8068      16112.727      257.44001      57.551372      0.65708498     53927.703    
     76200   590.54402      17205.067     -1029.6409      1209.1804      2278.0327      16011.813      225.35417      52.580337      0.65773243     53874.619    
     76300   592.64775      17141.677     -1081.9106      1217.2452      2176.8063      16069.322      240.35038      61.280536      0.6583869      53821.065    
     76400   581.90087      17248.097     -1085.1314      1205.4416      2308.0243      16047.564      242.73442      71.786551      0.6596169      53720.704    
     76500   576.02846      17348.782     -1032.966       1212.5757      2315.0811      16052.913      294.6117       47.781841      0.66168197     53553.045    
     76600   589.97572      17290.83      -1042.6469      1207.9662      2205.074       16043.344      352.38659      67.612301      0.66390711     53373.557    
     76700   593.87998      17297.403     -1069.7628      1202.0793      2287.9361      16066.811      283.12249      70.261673      0.66658761     53158.93     
     76800   582.79903      17422.017     -1024.159       1189.3572      2368.1521      16081.681      280.98053      67.459703      0.66960598     52919.307    
     76900   589.65981      17383.036     -1059.4009      1182.359       2340.2108      16077.627      311.51893      73.637494      0.67237136     52701.656    
     77000   597.71473      17337.162     -1082.3202      1192.4757      2290.5374      16153.747      254.8519       69.830603      0.67533195     52470.617    
     77100   594.59297      17372.69      -1056.9771      1194.5526      2236.3308      16214.232      257.19117      69.084047      0.67838147     52234.747    
     77200   586.46054      17435.93      -1041.7615      1200.7834      2285.2914      16095.587      353.66695      83.81847       0.68130433     52010.654    
     77300   593.52344      17343.698     -1063.9309      1211.9154      2292.2324      16152.659      230.07577      60.57224       0.68409263     51798.663    
     77400   594.90355      17267.859     -1084.6594      1231.7467      2233.0536      16154.738      199.84293      69.534663      0.68603475     51652.025    
     77500   587.0058       17257.622     -1092.5893      1228.6693      2185.2551      16137.823      251.27781      84.150257      0.68778212     51520.799    
     77600   579.51071      17266.288     -1115.8061      1219.381       2319.5787      16074.473      251.77182      54.454598      0.68942537     51397.998    
     77700   590.4793       17145.773     -1073.5395      1211.2937      2288.0318      16108.689      88.184612      62.23204       0.69074025     51300.158    
     77800   585.25287      17210.156     -1112.9875      1206.3381      2162.0171      16232.442      194.91947      66.726015      0.69181979     51220.108    
     77900   581.25848      17333.822     -1044.7657      1210.1534      2250.9823      16052.762      341.37726      61.137221      0.69285425     51143.634    
     78000   605.0562       17251.611     -1071.7673      1207.9236      2324.7003      16089.359      187.5478       51.303155      0.69359118     51089.295    
     78100   605.02254      17300.994     -1057.7951      1205.5036      2293.9373      16124.527      204.57976      67.835682      0.69381908     51072.513    
     78200   597.59077      17374.235     -1038.2757      1213.7315      2304.6465      16100.586      255.3072       76.859758      0.69440291     51029.573    
     78300   597.21474      17364.614     -1045.9508      1211.8692      2277.0827      16223.346      178.33952      58.256787      0.69478895     51001.22     
     78400   593.47566      17361.854     -1038.2007      1211.1163      2260.2758      16202.917      196.74297      67.224735      0.69478176     51001.748    
     78500   588.26535      17356.704     -1052.1221      1204.9851      2312.7162      16196.903      173.59067      57.819772      0.69453219     51020.075    
     78600   584.17306      17334.443     -1054.2937      1218.1935      2338.5851      16146.485      153.61971      69.293456      0.69438168     51031.133    
     78700   586.6003       17254.481     -1089.3315      1220.7451      2282.1211      16165.75       161.98024      50.777077      0.69420748     51043.939    
     78800   590.19085      17140.418     -1061.4157      1211.9064      2215.1648      16056.22       192.81827      64.222311      0.69419855     51044.596    
     78900   574.30821      17193.724     -1042.5202      1219.9716      2255.5204      16101.153      147.66001      51.704654      0.69456896     51017.373    
     79000   577.43261      17132.093     -1044.5827      1222.9197      2200.1308      16048.51       168.90494      74.438474      0.69509986     50978.408    
     79100   578.17517      17194.514     -1077.108       1201.6263      2177.5742      16080.822      275.801        74.441532      0.69555273     50945.216    
     79200   583.28174      17301.226     -1083.9997      1204.485       2265.7512      16130.982      259.93097      63.33278       0.69637073     50885.372    
     79300   589.07104      17322.105     -1045.5728      1191.4785      2287.2835      16126.048      221.22973      81.199365      0.69731974     50816.121    
     79400   581.29188      17430.444     -1047.8556      1195.9146      2347.233       16052.776      344.51627      78.256767      0.69783085     50778.901    
     79500   592.98103      17359.484     -1095.6294      1206.4195      2294.0921      16122.642      306.38048      68.22064       0.69836772     50739.865    
     79600   597.7012       17337.85      -1067.7228      1199.392       2237.567       16130.639      302.63084      77.722539      0.69882664     50706.544    
     79700   582.40969      17475.821     -1106.3964      1199.7217      2269.6097      16199.448      386.27057      70.370431      0.69917503     50681.278    
     79800   598.35806      17313.266     -1096.2975      1194.9128      2245.3119      16184.696      267.71651      59.054241      0.69973364     50640.819    
     79900   589.76579      17330.009     -1102.6248      1205.1177      2207.3241      16284.327      230.27987      48.816433      0.7003484      50596.366    
     80000   585.1798       17291.2       -1076.984       1195.7787      2215.0151      16098.253      334.69171      68.205132      0.70121013     50534.188    
     80100   588.34797      17202.913     -1102.1199      1203.4009      2284.0375      16089.98       203.3219       66.955361      0.70239059     50449.258    
     80200   580.07561      17262.956     -1066.1798      1192.5805      2289.3967      16088.888      229.28901      72.890034      0.70369938     50355.429    
     80300   576.79493      17337.429     -1100.9788      1192.4188      2268.3204      16201.142      249.47038      70.830747      0.70494509     50266.446    
     80400   604.22011      17195.147     -1066.1401      1190.6943      2213.8019      16088.857      255.73471      54.586182      0.70636587     50165.34     
     80500   594.16984      17386.768     -1086.9665      1192.2458      2355.4362      16027.428      373.99264      65.525351      0.70768431     50071.88     
     80600   611.80262      17262.109     -1132.9312      1203.5125      2310.0942      16008.077      349.54508      62.777266      0.70879949     49993.101    
     80700   607.6067       17286.674     -1113.6802      1202.1103      2251.4687      16147.645      278.51888      59.234029      0.70976986     49924.752    
     80800   585.59279      17448.903     -1109.8094      1202.3561      2413.1714      16055.735      347.33162      76.577149      0.71075829     49855.323    
     80900   594.83333      17309.966     -1121.8068      1201.3431      2262.2116      16109.731      328.94441      66.429317      0.71167238     49791.288    
     81000   583.69838      17341.87      -1137.6105      1186.8082      2292.7101      16233.041      233.73622      70.8054        0.7125917      49727.052    
     81100   589.20876      17242.579     -1096.7707      1207.2914      2281.2846      16071.215      256.14456      60.541361      0.71355909     49659.635    
     81200   583.91208      17262.661     -1138.229       1203.8351      2372.3623      16069.167      227.12045      65.616662      0.71432931     49606.09     
     81300   580.93186      17279.761     -1113.8013      1191.0514      2294.0852      16088.365      293.44199      63.501727      0.7153321      49536.549    
     81400   599.41532      17119.497     -1126.8313      1200.0671      2165.7465      16109.486      242.02169      65.39248       0.71608357     49484.565    
     81500   588.43772      17263.424     -1095.6963      1208.1471      2218.0644      16158.888      254.61136      56.954975      0.71711276     49413.546    
     81600   603.49606      17246.237     -1126.231       1221.9731      2291.6988      16086.263      233.8377       77.014818      0.71822258     49337.19     
     81700   594.51376      17412.91      -1141.1109      1225.1695      2356.3286      16267.262      172.94434      72.73662       0.71908016     49278.35     
     81800   600.56856      17379.48      -1088.4968      1225.0452      2266.0584      16248.509      197.58145      71.117288      0.72011134     49207.785    
     81900   597.37566      17371.186     -1115.0134      1216.9365      2327.8051      16170.653      241.84536      69.847617      0.7212256      49131.761    
     82000   600.04015      17270.953     -1113.1577      1204.7751      2370.8395      16174.919      100.99897      70.712079      0.72230671     49058.223    
     82100   592.48385      17259.209     -1116.5864      1207.689       2331.5094      16024.866      292.2983       55.662489      0.72330881     48990.256    
     82200   581.17921      17313.977     -1118.3658      1224.2102      2305.8715      16091.077      291.03632      56.223185      0.72393873     48947.628    
     82300   597.04753      17170.22      -1132.2943      1222.6715      2307.9981      16099.433      152.68229      54.609384      0.72413641     48934.267    
     82400   588.27647      17258.18      -1125.1176      1221.3099      2339.4484      16121.456      162.91008      74.016926      0.72449093     48910.321    
     82500   590.93616      17245.047     -1117.8829      1216.6455      2202.88        16060.953      356.94183      64.960554      0.72471073     48895.487    
     82600   599.1777       17185.958     -1162.0393      1214.9228      2234.6574      16172.652      202.85927      62.578614      0.72487906     48884.133    
     82700   592.119        17260.433     -1113.969       1200.4603      2187.3009      16232.142      226.54805      67.415658      0.72496984     48878.012    
     82800   592.54107      17259.775     -1136.0805      1197.9388      2225.2469      16078.507      359.59719      74.077285      0.72496146     48878.577    
     82900   593.68947      17246.888     -1166.9327      1205.4892      2293.3151      16060.413      339.04667      54.460217      0.7245517      48906.219    
     83000   589.70604      17276.538     -1115.9953      1202.4768      2218.7737      16199.749      242.36248      68.369291      0.72433277     48921.001    
     83100   593.6444       17246.901     -1121.6626      1209.3761      2225.6856      16193.617      205.89629      74.269198      0.72381986     48955.667    
     83200   583.08946      17347.323     -1108.367       1213.4432      2273.0902      16043.143      399.89152      65.181651      0.72320479     48997.303    
     83300   592.17351      17266.737     -1107.9464      1209.3453      2253.7623      16115.357      280.73076      55.869813      0.72279653     49024.978    
     83400   588.66273      17287.748     -1140.1759      1200.4288      2288.4502      16123.43       278.68207      76.426418      0.72165088     49102.807    
     83500   576.53809      17386.838     -1113.3239      1212.4444      2256.7784      16197.002      293.64909      78.260832      0.72035829     49190.916    
     83600   594.30724      17230.851     -1102.996       1190.7098      2268.6749      16092.66       251.81322      72.399835      0.71932928     49261.284    
     83700   591.88138      17253.172     -1122.3386      1213.1106      2319.2906      16128.253      213.63544      43.482266      0.71800869     49351.888    
     83800   589.14277      17275.938     -1129.3097      1216.6311      2266.6532      16102.179      279.07348      82.55813       0.7167057      49441.61     
     83900   590.9339       17257.16      -1151.6317      1217.2228      2263.3617      16110.559      288.10505      69.696491      0.71566353     49513.609    
     84000   594.71731      17230.122     -1080.3433      1215.2921      2299.6021      16074.539      213.783        47.819454      0.71502448     49557.861    
     84100   595.89029      17238.461     -1085.0903      1217.9939      2239.7146      16117.759      225.77535      61.188119      0.71454023     49591.447    
     84200   599.64403      17229.082     -1116.971       1217.7998      2309.0262      16099.104      201.4119       56.23442       0.71397812     49630.49     
     84300   599.48397      17245.43      -1132.0063      1213.4498      2272.8613      16200.755      158.14443      71.409615      0.71385534     49639.027    
     84400   602.01452      17222.38      -1108.1241      1211.0708      2235.9673      16100.638      250.84438      71.277515      0.7144378      49598.557    
     84500   603.42245      17192.434     -1102.6098      1205.727       2281.3618      16024.809      265.98654      57.652439      0.71506947     49554.744    
     84600   585.02791      17302.478     -1139.1165      1202.8905      2298.3763      16170.216      246.08544      65.350575      0.715168       49547.916    
     84700   587.47475      17205.464     -1123.9958      1194.4451      2229.0637      16110.266      273.09637      63.231274      0.71546561     49527.306    
     84800   584.96103      17166.547     -1105.8994      1191.5929      2257.4287      15934.375      359.25765      71.401157      0.71582783     49502.244    
     84900   583.79296      17143.022     -1144.7898      1195.5701      2293.3254      16003.931      280.28375      58.407345      0.71599498     49490.688    
     85000   581.4473       17168.003     -1134.0149      1202.1904      2266.7227      16083.158      227.93535      65.232022      0.71600606     49489.922    
     85100   589.13096      17160.82      -1111.4764      1204.1797      2320.6165      15971.976      252.15465      65.179858      0.71605497     49486.541    
     85200   598.61028      17202.386     -1091.8903      1208.444       2244.5966      16095.051      230.21025      55.809614      0.71618309     49477.689    
     85300   597.92409      17300.972     -1138.1183      1206.1162      2296.215       16244.98       155.02002      73.749011      0.7162491      49473.129    
     85400   600.42692      17288.262     -1117.9049      1199.7154      2297.3699      16037.574      328.73031      79.554076      0.7162535      49472.825    
     85500   599.83561      17264.873     -1111.5089      1207.7132      2265.635       16052.618      332.2446       54.657179      0.71627988     49471.003    
     85600   608.24194      17127.801     -1124.0786      1212.3309      2250.7724      16114.264      142.32295      67.525239      0.71599147     49490.931    
     85700   583.63553      17279.665     -1148.1916      1220.0426      2316.6735      16132.89       224.57332      69.584211      0.71564194     49515.103    
     85800   597.70952      17122.607     -1130.7666      1212.1996      2264.5221      16033.735      216.25002      61.469568      0.71588815     49498.073    
     85900   593.78895      17149.254     -1107.1947      1217.9707      2251.0255      15974.859      279.64202      68.16775       0.71623665     49473.989    
     86000   589.04639      17197.398     -1091.5268      1220.3542      2222.8874      16086.552      232.50464      62.823913      0.71664322     49445.921    
     86100   587.80915      17240.071     -1141.6422      1212.1109      2312.4476      16154.999      174.12319      65.001063      0.71689598     49428.488    
     86200   588.17468      17329.71      -1121.8143      1215.0427      2246.6743      16163.232      294.63298      71.071121      0.71756967     49382.082    
     86300   604.08913      17324.973     -1110.9294      1210.6036      2230.5866      16138.764      333.98153      59.695376      0.71819496     49339.087    
     86400   609.24182      17317.969     -1131.6864      1206.576       2328.8884      16180.183      214.79164      56.753546      0.71848571     49319.122    
     86500   611.86472      17263.2       -1105.6406      1201.589       2333.6259      16111.039      184.9525       76.003931      0.71845832     49321.002    
     86600   596.04652      17337.517     -1092.5768      1206.4577      2331.5469      16177.623      177.17819      74.093458      0.71864986     49307.856    
     86700   599.89337      17238.757     -1072.9797      1195.518       2282.9357      16086.785      229.82304      54.236123      0.71834547     49328.75     
     86800   590.87022      17274.502     -1128.6089      1194.232       2394.2734      16084.741      195.26084      67.814475      0.71791031     49358.65     
     86900   595.08086      17202.919     -1127.7761      1196.9472      2248.2329      16147.325      193.12603      78.205715      0.71751557     49385.805    
     87000   588.20524      17228.372     -1107.4289      1207.1414      2238.5726      16226.143      133.35389      66.138914      0.7170815      49415.7      
     87100   584.9268       17229.506     -1126.6336      1209.4914      2268.9897      16107.998      240.56024      65.504115      0.71700947     49420.664    
     87200   584.55669      17214.404     -1137.5511      1217.2412      2216.3638      16143.375      245.73789      65.210714      0.71717539     49409.231    
     87300   592.96108      17140.365     -1118.218       1219.4381      2297.2039      16116.787      98.909072      63.995172      0.71787273     49361.234    
     87400   588.95173      17207.47      -1094.543       1218.6104      2313.7826      16091.271      149.91737      68.023286      0.71853781     49315.545    
     87500   602.01249      17189.467     -1123.7271      1220.3568      2293.2682      16085.675      178.34235      74.663635      0.71860109     49311.203    
     87600   611.71056      17193.823     -1151.2435      1223.1887      2321.5948      16104.923      182.17002      53.696132      0.71905311     49280.204    
     87700   607.34556      17266.418     -1105.9895      1217.7524      2323.6662      16118.541      197.94812      54.358492      0.7197568      49232.024    
     87800   598.51191      17314.339     -1077.0177      1205.3601      2303.5462      16180.549      164.3142       76.67938       0.72049791     49181.384    
     87900   596.12791      17261.293     -1118.3618      1218.8994      2296.452       16094.784      253.6972       56.108874      0.72097124     49149.095    
     88000   586.54683      17257.585     -1118.7682      1210.2966      2273.6338      16151.656      224.0006       57.062973      0.7213401      49123.963    
     88100   583.3327       17236.929     -1107.8075      1214.3297      2239.4581      16106.617      250.96478      73.104731      0.72167244     49101.341    
     88200   589.8364       17166.948     -1158.8068      1216.8503      2216.8434      16033.866      317.88895      77.32329       0.72170872     49098.872    
     88300   580.3638       17262.001     -1137.5628      1204.7623      2348.4363      16182.93       127.21345      73.555092      0.72159966     49106.292    
     88400   595.88437      17143.878     -1113.5144      1201.689       2195.6663      16035.191      291.8633       69.412673      0.72129018     49127.363    
     88500   587.34427      17254.123     -1121.6311      1201.2994      2210.432       16120.358      309.89975      71.691342      0.72081273     49159.903    
     88600   595.41879      17230.865     -1112.1333      1202.3349      2260.9153      16210.056      135.63547      73.783953      0.71984645     49225.893    
     88700   607.23605      17200.966     -1076.8549      1198.492       2277.5263      16119.41       158.73793      62.541982      0.71869117     49305.022    
     88800   618.05714      17225.993     -1105.8704      1208.1716      2214.2398      16057.287      321.27581      68.634071      0.71701838     49420.05     
     88900   615.64882      17336.651     -1075.1127      1219.6895      2286.3146      16145.044      227.61545      70.145708      0.71520484     49545.364    
     89000   600.32698      17466.864     -1106.5521      1224.4249      2372.1631      16244.765      209.17377      60.044008      0.71332222     49676.125    
     89100   601.01283      17396.878     -1081.2207      1222.6301      2315.2755      16199.886      192.51563      85.334409      0.71158512     49797.393    
     89200   587.98542      17451.044     -1026.3541      1223.9983      2341.3516      16268.576      126.00702      54.956814      0.70997611     49910.248    
     89300   601.70652      17289.279     -1089.8259      1223.3072      2236.3104      16206.91       190.13212      60.039733      0.70795811     50052.515    
     89400   590.3633       17346.64      -1104.9383      1234.3112      2259.7523      16142.525      272.02683      81.860724      0.70598232     50192.594    
     89500   593.19837      17280.642     -1040.8255      1225.5875      2270.5185      16108.613      188.87282      65.468896      0.70451708     50296.984    
     89600   589.95929      17275.11      -1076.2107      1219.4239      2269.9401      16258.15       91.522923      53.551804      0.70320527     50390.811    
     89700   583.94432      17302.973     -1103.3031      1212.6514      2256.8062      16215.745      203.3504       57.676094      0.70187964     50485.983    
     89800   594.97451      17191.182     -1085.2072      1208.2189      2260.8264      15985.9        301.16093      61.798204      0.70054618     50582.081    
     89900   596.11991      17173.891     -1061.7242      1210.6558      2264.8736      16160.984      102.39701      39.693065      0.69949679     50657.966    
     90000   582.26441      17318.602     -1086.5377      1212.7322      2309.3925      16162.882      180.17236      84.224331      0.69816028     50754.942    
     90100   594.81645      17279.378     -1105.7395      1210.4313      2293.1791      16164.943      182.4118       78.328416      0.69706598     50834.62     
     90200   602.18878      17305.937     -1077.4615      1216.781       2375.5266      16021.764      243.57267      69.552078      0.69670062     50861.278    
     90300   592.17709      17449.51      -1066.2485      1214.0132      2356.8695      16101.851      328.79587      57.870671      0.69638422     50884.387    
     90400   593.13065      17462.874     -1031.4325      1221.666       2321.7599      16138.321      273.01327      80.976019      0.69568428     50935.582    
     90500   604.13635      17367.141     -1086.6385      1222.466       2337.9996      16105.314      254.96999      75.25754       0.69481719     50999.147    
     90600   601.29409      17345.838     -1074.2946      1211.7173      2246.6028      16209.397      232.5372       62.399333      0.69394607     51063.167    
     90700   592.31802      17317.349     -1073.7541      1205.244       2199.7433      16147.648      311.93284      69.45833       0.69274495     51151.703    
     90800   581.74316      17308.714     -1078.4511      1216.8105      2325.8968      16054.115      271.28359      59.594108      0.69153514     51241.191    
     90900   576.3553       17315.851     -1080.8076      1209.5298      2334.0866      16072.51       236.39288      84.699971      0.69037242     51327.491    
     91000   589.21692      17198.336     -1099.2007      1208.2065      2242.2697      16135.529      180.96406      70.704693      0.68924215     51411.661    
     91100   579.05239      17316.878     -1061.7237      1209.4026      2183.5313      16099.654      356.30009      70.126466      0.68875109     51448.317    
     91200   587.95248      17292.777     -1066.6402      1210.7158      2276.0147      16123.71       227.21887      59.185615      0.68800048     51504.447    
     91300   584.71238      17384.825     -1072.271       1218.2018      2294.9717      16190.906      214.82728      77.29848       0.68757569     51536.266    
     91400   597.56448      17330.6       -1054.7074      1210.477       2307.4177      16201.902      129.3198       75.81182       0.68726992     51559.195    
     91500   592.11689      17449.312     -1036.4493      1218.1528      2297.7345      16120.702      322.94481      67.151445      0.68740394     51549.143    
     91600   598.07334      17384.593     -1040.1971      1214.9251      2362.8163      16057.531      253.03118      77.727775      0.68715111     51568.11     
     91700   596.4476       17376.295     -1079.2726      1202.9602      2289.3945      16146.966      307.22746      50.611435      0.68688157     51588.346    
     91800   592.45947      17385.973     -1075.5978      1218.0836      2225.277       16258.262      236.4278       64.735152      0.68715267     51567.993    
     91900   589.33547      17386.416     -1046.5133      1224.0994      2343.1086      16153.403      198.85906      55.383945      0.6875087      51541.288    
     92000   587.72919      17377.97      -1086.2988      1219.4417      2386.2062      16119.304      222.24861      57.888399      0.68753174     51539.561    
     92100   592.48508      17321.919     -1058.6994      1214.5804      2253.0152      16184.173      203.16069      65.885075      0.68773435     51524.377    
     92200   601.48262      17239.429     -1101.3564      1209.6814      2304.1017      16059.972      241.15564      66.102547      0.68855334     51463.093    
     92300   595.87344      17283.521     -1063.3185      1200.4722      2241.0753      16056.026      323.79012      65.305433      0.68938066     51401.332    
     92400   589.33313      17340.261     -1080.6706      1198.5282      2319.4219      16064.668      314.92539      61.840415      0.68998593     51356.241    
     92500   586.43039      17370.43      -1067.1518      1207.8077      2390.2883      16048.576      255.75864      74.533026      0.69067519     51304.991    
     92600   596.73964      17274.067     -1078.0582      1207.3476      2264.8586      16111.347      246.18696      61.925769      0.69143818     51248.377    
     92700   598.65221      17211.666     -1092.1582      1193.4035      2296.3026      16162.212      132.8483       60.13124       0.69246287     51172.54     
     92800   575.53401      17321.431     -1072.9727      1192.6491      2232.4621      16103.833      344.96531      59.274464      0.69400676     51058.702    
     92900   574.79586      17255.22      -1084.3591      1188.918       2290.7418      16095.249      259.18938      46.668329      0.69573623     50931.779    
     93000   587.91937      17113.007     -1105.0819      1190.7405      2225.7443      16118.463      162.52877      62.883204      0.69751873     50801.624    
     93100   577.92203      17241.884     -1081.6716      1208.8366      2329.9186      16142.195      112.27264      70.645695      0.6998476      50632.572    
     93200   588.1989       17239.271     -1080.0901      1198.7782      2370.4903      16111.083      130.12738      50.072648      0.70208043     50471.545    
     93300   604.78172      17173.463     -1080.7561      1196.9792      2214.6444      16081.092      245.7109       57.257985      0.70451528     50297.112    
     93400   596.0319       17287.014     -1083.6588      1196.9861      2290.1752      16200.781      177.32063      46.467416      0.70714177     50110.297    
     93500   592.4896       17322.329     -1103.7125      1194.1312      2286.307       16112.705      313.10329      59.913137      0.70959196     49937.268    
     93600   588.76608      17349.341     -1124.9159      1188.0641      2346.4221      16119.499      292.85014      68.185235      0.7118374      49779.745    
     93700   595.92024      17259.929     -1132.8528      1207.4752      2354.1809      16159.493      167.81446      45.891341      0.71414212     49619.093    
     93800   593.38583      17221.175     -1148.7996      1214.7176      2400.8359      16022.298      191.36242      81.091206      0.71624108     49473.683    
     93900   577.95467      17268.115     -1126.3848      1206.4901      2369.2707      16104.678      193.1723       60.044329      0.71791295     49358.469    
     94000   584.47962      17122.064     -1129.077       1208.3923      2287.3746      16039.429      230.43143      25.26055       0.71925156     49266.607    
     94100   571.59366      17204.674     -1155.9554      1204.2446      2372.778       16004.981      246.08594      70.902907      0.72031295     49194.012    
     94200   579.00999      17157.868     -1162.1026      1204.9837      2233.4896      16134.748      222.88787      61.922052      0.72135346     49123.053    
     94300   595.99174      17056.019     -1119.7702      1210.003       2276.5338      16047.237      135.94719      44.92299       0.72204988     49075.674    
     94400   592.24359      17119.844     -1148.9445      1223.8046      2281.9545      15942.368      309.39098      51.504956      0.72255045     49041.675    
     94500   590.73016      17154.583     -1136.4528      1213.357       2292.0375      16124.081      131.13815      71.423686      0.7228728      49019.805    
     94600   600.00648      17104.967     -1150.9181      1211.7184      2324.6686      16100.715      91.017877      68.515836      0.7232749      48992.553    
     94700   590.76753      17217.415     -1127.1546      1213.8787      2346.0185      16031.977      233.30934      61.981379      0.72381593     48955.933    
     94800   584.09353      17290.865     -1122.9699      1221.2597      2345.0873      16124.16       205.01299      62.347563      0.72412101     48935.307    
     94900   594.10141      17198.245     -1136.2967      1216.4877      2293.5849      16134.735      166.75541      66.520365      0.72414038     48933.998    
     95000   590.77516      17214.472     -1106.6669      1222.8838      2343.5872      16157.035      84.846092      56.361794      0.72379924     48957.062    
     95100   585.73982      17235.088     -1121.6132      1207.0318      2294.2421      16200.978      138.91107      60.126102      0.7233415      48988.043    
     95200   585.75876      17194.374     -1138.9319      1211.6729      2357.2875      16085.163      165.96416      57.40816       0.72293305     49015.72     
     95300   589.30362      17117.085     -1113.6158      1207.1697      2227.996       15977.825      301.59985      60.622343      0.72212845     49070.334    
     95400   587.63101      17090.332     -1158.8402      1213.5496      2238.8068      16105.266      174.77168      61.007832      0.72131891     49125.406    
     95500   595.22651      17003.839     -1161.5588      1210.1828      2199.4739      16041.606      206.6819       50.69974       0.72103276     49144.902    
     95600   571.24437      17230.706     -1117.8749      1202.0739      2358.889       16117.021      157.07062      55.543789      0.72147535     49114.754    
     95700   589.04777      17140.469     -1124.9655      1201.5731      2264.3558      16089.857      205.36832      45.814639      0.72175899     49095.452    
     95800   597.62163      17175.902     -1102.9487      1191.9661      2257.538       16053.417      238.71626      80.134329      0.72197028     49081.084    
     95900   595.18968      17262.375     -1127.0546      1203.6771      2323.4278      16155.593      197.10137      54.177673      0.7221198      49070.922    
     96000   590.20389      17329.312     -1097.3388      1206.7466      2399.9365      16094.889      201.27638      68.759865      0.72202627     49077.278    
     96100   605.77381      17186.456     -1110.3626      1199.7828      2312.5859      16127.44       139.58504      62.034383      0.72178936     49093.386    
     96200   599.60388      17208.144     -1144.5481      1204.0938      2301.4418      16102.57       215.78973      73.253331      0.72126639     49128.982    
     96300   596.40796      17180.266     -1137.3357      1213.3436      2327.4245      16121.122      138.80208      61.33173       0.72043938     49185.379    
     96400   588.03409      17186.561     -1115.0043      1211.0077      2318.1455      16081.92       160.90125      72.890753      0.71991427     49221.256    
     96500   574.69309      17245.729     -1088.3519      1208.7804      2296.8434      16072.219      232.73352      65.369408      0.71935224     49259.712    
     96600   579.82127      17149.262     -1084.8008      1210.6678      2313.2863      16066.289      133.58378      51.18542       0.71862011     49309.897    
     96700   570.22699      17176.855     -1101.4217      1212.0313      2209.8135      16108.871      234.17184      54.892782      0.7174786      49388.35     
     96800   566.00707      17169.489     -1112.6643      1204.9223      2398.6176      15986.135      175.08294      58.425035      0.71631146     49468.822    
     96900   574.99722      17119.024     -1099.525       1203.7961      2248.0851      16065.746      185.26956      57.2812        0.71487477     49568.24     
     97000   580.23009      17180.264     -1101.8422      1201.1635      2233.2495      16103.917      223.45479      61.941663      0.71319802     49684.776    
     97100   592.97666      17175.659     -1106.1103      1206.8371      2272.5356      15992.654      288.84949      62.887607      0.71132162     49815.84     
     97200   591.16341      17260.603     -1107.0942      1218.6732      2275.2444      16187.188      153.79026      73.062411      0.70915412     49968.1      
     97300   595.37858      17271.953     -1140.0943      1229.7792      2267.5787      16269.12       118.07944      67.875151      0.70710618     50112.819    
     97400   592.16849      17326.092     -1116.4056      1224.4305      2269.37        16113.863      299.79955      75.613054      0.70579432     50205.964    
     97500   596.90776      17299.963     -1106.0598      1227.3016      2306.1217      16099.399      254.3727       58.810267      0.70478546     50277.831    
     97600   607.02301      17235.163     -1094.7861      1212.8718      2246.6437      16157.743      182.41396      69.146191      0.70359071     50363.206    
     97700   611.71021      17221.817     -1090.7396      1204.2025      2268.7732      15922.228      386.08386      72.07026       0.70257967     50435.681    
     97800   595.39291      17372.015     -1109.4804      1208.4108      2358.0418      16099.961      289.95381      66.685746      0.7015116      50512.47     
     97900   602.68911      17273.01      -1108.0117      1208.705       2345.0934      16079.998      218.25485      70.577459      0.70060962     50577.502    
     98000   589.59939      17296.688     -1109.6079      1212.6712      2321.4855      16047.151      301.73754      62.601521      0.69990139     50628.68     
     98100   582.76561      17258.859     -1115.0066      1203.0971      2238.4252      16215.358      192.80723      64.446267      0.69927932     50673.719    
     98200   576.73377      17268.662     -1125.8965      1218.189       2298.4597      16288.054      63.60724       66.285437      0.69917872     50681.011    
     98300   581.71494      17227.488     -1105.1333      1200.2019      2240.6771      16049.308      312.26755      68.667881      0.69939433     50665.387    
     98400   591.34344      17175.208     -1138.9163      1209.4573      2343.0989      16042.681      201.51438      56.282225      0.69949373     50658.187    
     98500   583.12571      17310.435     -1117.384       1210.6907      2310.3604      16142.627      236.04692      66.076916      0.69968854     50644.082    
     98600   594.93524      17276.231     -1084.1133      1216.848       2321.3561      16027.458      254.59354      75.961553      0.7003222      50598.259    
     98700   601.31816      17267         -1112.4077      1209.7569      2337.2265      16066.452      246.1705       58.868804      0.70068864     50571.797    
     98800   586.46578      17405.393     -1126.9081      1213.9593      2327.8356      16212.956      246.21588      69.938353      0.70108609     50543.128    
     98900   595.60057      17309.339     -1148.5626      1209.5523      2363.8616      16137.956      238.04601      48.583899      0.70190149     50484.412    
     99000   591.47113      17322.479     -1100.319       1203.2187      2309.9166      16060.658      320.32727      67.335805      0.70266635     50429.459    
     99100   588.77281      17318.588     -1116.2567      1205.1892      2355.5534      16132.016      225.53149      52.649112      0.70334744     50380.625    
     99200   591.62049      17262.032     -1101.6034      1196.1865      2324.8728      16020.772      289.37516      70.133853      0.70389235     50341.624    
     99300   584.95007      17272.406     -1127.8678      1200.9683      2318.3711      16037.883      324.35527      57.817739      0.70472031     50282.479    
     99400   585.49068      17225.854     -1106.8025      1192.4104      2327.6695      16081.062      201.88675      70.579613      0.70574355     50209.575    
     99500   590.43204      17155.118     -1150.3619      1197.1171      2222.5604      16066.589      301.92168      58.682895      0.70631004     50169.306    
     99600   589.19126      17155.507     -1146.9171      1198.8014      2237.6402      16013.306      318.73429      76.03594       0.70705139     50116.702    
     99700   589.99477      17171.217     -1129.3025      1205.6996      2276.1028      16020.843      275.69962      63.570948      0.7083091      50027.712    
     99800   595.45316      17195.176     -1096.7943      1212.9826      2238.513       16088.986      221.45074      71.049957      0.70935369     49954.042    
     99900   596.82823      17286.392     -1089.0345      1222.9561      2299.7393      16059.297      268.87697      64.950767      0.70998972     49909.292    
    100000   592.07081      17385.148     -1137.2058      1219.5043      2375.3912      16097.149      305.05141      66.946561      0.71056756     49868.705    
    100100   593.61224      17378.708     -1085.559       1217.6438      2289.8254      16340.148      95.327945      64.232921      0.71149475     49803.718    
    100200   595.54614      17329.117     -1124.0275      1217.8127      2421.2653      16096.189      194.5194       65.495773      0.71226667     49749.743    
    100300   593.36834      17261.144     -1107.0093      1213.5668      2292.927       16118.541      226.00887      60.056326      0.71295999     49701.364    
    100400   583.73239      17249.851     -1107.583       1213.9018      2303.955       16106.312      198.19855      76.519282      0.71381391     49641.908    
    100500   591.0942       17143.242     -1107.2303      1207.175       2264.6081      16041.087      231.92979      48.708158      0.7145496      49590.797    
    100600   587.19024      17173.337     -1135.1032      1219.0905      2268.2082      16002.041      293.23026      66.427012      0.71522203     49544.173    
    100700   589.66365      17170.755     -1154.4849      1215.4806      2316.5105      16066.03       204.14594      64.16874       0.71604948     49486.921    
    100800   588.72137      17205.818     -1105.7003      1208.8404      2275.7431      16063.213      241.7809       63.541306      0.71686046     49430.937    
    100900   590.03258      17244.185     -1158.0271      1203.4844      2320.1125      16053.704      308.68836      58.160761      0.71773492     49370.712    
    101000   596.64441      17222.695     -1116.3568      1211.3606      2313.7473      16146.868      148.16677      60.467365      0.71858385     49312.386    
    101100   596.88007      17267.198     -1152.4857      1204.0088      2337.2007      16094.632      247.45632      77.494186      0.71911996     49275.623    
    101200   621.61764      17122.119     -1152.4624      1211.2848      2219.9927      16096.616      229.3384       58.792149      0.72007518     49210.256    
    101300   612.99397      17277.039     -1143.6406      1206.0047      2349.2992      16067.548      267.95275      69.330473      0.72108534     49141.318    
    101400   599.5034       17414.971     -1122.8284      1209.8129      2385.6159      16079.449      332.83518      68.624051      0.72221651     49064.351    
    101500   596.12177      17366.45      -1129.5201      1208.7056      2345.8575      16101.192      302.6841       76.195232      0.72326064     48993.519    
    101600   584.90678      17329.233     -1170.1233      1206.9502      2279.4709      16229.299      243.83674      79.403329      0.72387698     48951.804    
    101700   579.37706      17307.326     -1118.493       1202.2017      2262.3293      16095.669      319.74592      86.092515      0.7244228      48914.921    
    101800   592.54011      17161.959     -1161.9213      1203.6718      2213.225       16068.837      308.9711       67.169943      0.72473981     48893.525    
    101900   587.44493      17187.33      -1131.6753      1204.8267      2233.421       16088.186      257.65458      73.227663      0.72496045     48878.645    
    102000   578.47746      17257.824     -1152.1059      1202.8257      2323.2501      16152.931      196.19243      73.141796      0.72486998     48884.745    
    102100   584.05799      17199.002     -1164.9825      1205.3371      2280.8334      16000.599      353.22286      63.390173      0.7245258      48907.967    
    102200   582.76533      17200.552     -1140.4306      1214.1054      2245.6408      16095.34       248.36631      78.237396      0.72392774     48948.372    
    102300   584.31924      17176.83      -1170.4493      1223.1553      2281.4516      16102.516      224.76079      53.768416      0.72290976     49017.299    
    102400   579.74178      17200.135     -1178.5755      1230.9749      2291.5006      16008.476      293.92387      92.789755      0.72194987     49082.472    
    102500   590.12694      17097.589     -1153.6357      1229.5691      2232.532       15958.521      300.27767      68.612115      0.72105792     49143.186    
    102600   585.47003      17164.797     -1139.4025      1226.3263      2317.4846      16061.851      185.1595       53.236999      0.71979666     49229.298    
    102700   592.40789      17179.981     -1163.8529      1216.5798      2253.7936      16094.331      243.20513      76.411975      0.71811812     49344.367    
    102800   588.58261      17304.809     -1142.0387      1221.1923      2274.0461      16054.696      351.81806      84.078898      0.7159388      49494.572    
    102900   603.32836      17226.53      -1107.7987      1213.8052      2367.2924      16089.383      147.34449      56.417504      0.7136573      49652.801    
    103000   597.3103       17296.35      -1107.0239      1220.5981      2318.906       16130.819      209.78866      63.062089      0.71058298     49867.623    
    103100   595.3993       17305.914     -1109.7979      1218.263       2314.236       16033.59       323.26799      66.971578      0.70702215     50118.775    
    103200   593.32172      17276.357     -1151.6466      1227.9282      2235.1362      16235.394      209.24404      59.839586      0.70353722     50367.035    
    103300   591.16478      17198.763     -1108.0334      1214.1721      2204.8318      16136.081      237.05814      55.348567      0.70054439     50582.211    
    103400   578.26953      17226.498     -1116.2288      1222.3196      2342.7895      16039.271      217.14337      61.975698      0.69751327     50802.021    
    103500   569.95411      17276.171     -1125.8102      1209.6412      2310.7649      16104.401      256.19139      63.240654      0.6948445      50997.142    
    103600   582.94015      17175.38      -1101.5278      1209.7409      2296.2454      16043.273      204.00532      65.647388      0.6926772      51156.707    
    103700   587.40326      17166.456     -1069.2624      1205.3719      2284.4449      15985.63       246.92156      53.621258      0.69057434     51312.483    
    103800   597.34584      17120.208     -1078.7221      1207.3362      2316.9931      15946.353      211.78165      57.869082      0.68839602     51474.853    
    103900   594.28065      17201.8       -1102.2808      1210.9358      2243.0267      16149.775      161.92222      80.666366      0.68643853     51621.642    
    104000   580.72915      17375.929     -1061.962       1215.0969      2299.4766      16109.433      278.40142      77.221771      0.68494946     51733.867    
    104100   595.71809      17281.514     -1078.3659      1216.4383      2389.1233      16059.07       172.09058      63.358143      0.68348332     51844.841    
    104200   587.95239      17360.187     -1066.4592      1217.5306      2347.1167      16107.148      235.44613      58.899657      0.68222003     51940.844    
    104300   589.11585      17330.898     -1036.7864      1215.5686      2236.199       16085.614      291.16224      78.603965      0.68099359     52034.387    
    104400   587.94008      17294.218     -1069.8003      1213.6954      2272.6086      16062.908      268.7827       84.394669      0.67944137     52153.263    
    104500   586.83628      17191.783     -1093.7962      1210.1535      2238.466       16032.038      275.96147      68.83543       0.67779617     52279.853    
    104600   570.99873      17221.565     -1096.358       1214.0111      2230.351       16088.237      268.73968      55.021139      0.67640595     52387.304    
    104700   571.10339      17190.454     -1061.2217      1207.0066      2282.5346      15963.769      274.89218      59.472378      0.67512711     52486.537    
    104800   581.3236       17129.895     -1108.5699      1207.2359      2224.5458      16051.976      228.11367      62.935734      0.67396646     52576.925    
    104900   580.02041      17210.292     -1089.9056      1207.523       2204.3898      16125.377      229.061        70.980326      0.67309623     52644.9      
    105000   585.79203      17232.988     -1059.2021      1204.568       2278.7505      16028.171      246.62106      72.305031      0.67232575     52705.231    
    105100   588.48375      17260.512     -1089.0559      1208.0672      2345.5254      16038.164      227.83635      67.753018      0.67139113     52778.601    
    105200   592.95189      17248.539     -1052.7019      1203.0977      2208.1162      16092.058      264.24672      74.825815      0.67071675     52831.667    
    105300   598.18707      17211.585     -1061.687       1207.2001      2218.0738      16082.683      232.17265      72.195311      0.67002565     52886.16     
    105400   588.96079      17303.414     -1062.3998      1209.4551      2351.8661      16030.911      247.21342      67.672989      0.66915011     52955.359    
    105500   589.17018      17312.327     -1067.3302      1217.7848      2316.8256      16065.21       244.11157      73.898915      0.66819093     53031.376    
    105600   585.06239      17364.293     -1089.6096      1205.8821      2259.6739      16054.478      389.84575      84.716368      0.66725844     53105.487    
    105700   589.9794       17344.247     -1093.286       1201.5671      2327.4243      16049.675      325.83925      71.707955      0.66659836     53158.073    
    105800   597.66918      17313.857     -1066.0294      1209.0349      2267.9832      16051.121      308.47998      84.331798      0.66602323     53203.976    
    105900   593.42488      17406.009     -1072.9217      1213.843       2348.0498      16120.947      264.28446      71.493322      0.66576902     53224.291    
    106000   595.4378       17432.589     -1042.1006      1205.2216      2291.9514      16062.69       392.12292      63.150784      0.66524604     53266.133    
    106100   594.85496      17454.424     -1059.6737      1223.8159      2397.9758      16157.624      194.15795      79.784224      0.66450564     53325.483    
    106200   604.2251       17337.144     -1052.1836      1226.1353      2377.9121      16011.736      247.14051      64.90226       0.66354464     53402.713    
    106300   593.33008      17348.646     -1066.0147      1210.0778      2392.902       16055.895      224.84446      69.865732      0.66267572     53472.737    
    106400   595.84004      17220.801     -1072.2292      1208.986       2297.4182      16033.818      222.23697      69.189772      0.66203698     53524.328    
    106500   585.74911      17254.902     -1089.6645      1211.5395      2344.6754      16072.855      179.60584      75.531282      0.66165065     53555.58     
    106600   582.80142      17255.551     -1073.6684      1210.24        2409.8738      16057.413      126.20302      67.638507      0.66103563     53605.407    
    106700   582.09358      17256.677     -1079.8851      1200.8477      2370.0343      16040.587      198.41321      69.338624      0.66036402     53659.926    
    106800   592.51996      17179.408     -1044.421       1213.6908      2229.3745      15975.244      284.1541       65.655206      0.65993225     53695.033    
    106900   584.36331      17295.745     -1039.769       1206.1343      2383.129       15981.459      247.40579      62.720049      0.65952363     53728.301    
    107000   583.91996      17361.474     -1061.7901      1204.2479      2366.2482      16070.196      267.35448      61.717622      0.65891942     53777.568    
    107100   597.14622      17332.429     -1074.3867      1205.9934      2407.5228      15974.505      286.05638      78.075811      0.65817777     53838.166    
    107200   597.52332      17421.219     -1074.4025      1211.4893      2302.2183      16051.448      403.8667       68.370944      0.65759048     53886.249    
    107300   594.56019      17503.879     -1053.9428      1207.973       2474.3725      16042.826      298.15319      74.136884      0.65711839     53924.961    
    107400   598.74334      17457.869     -1061.3582      1205.8405      2380.4156      16025.755      352.26548      92.440602      0.6566015      53967.413    
    107500   590.69563      17451.962     -1023.9438      1200.5842      2409.8949      16059.988      265.11465      76.873363      0.65603357     54014.132    
    107600   588.89442      17385.493     -1042.1306      1198.0348      2353.5734      16165.993      173.7046       74.467202      0.65563783     54046.735    
    107700   583.29084      17408.099     -1033.8396      1196.674       2321.3792      16090.597      289.31207      82.913706      0.65504378     54095.749    
    107800   590.35552      17321.239     -1041.5433      1194.7395      2365.9268      16032.831      249.14819      58.932931      0.65391666     54188.991    
    107900   590.85179      17289.507     -1073.3214      1198.1022      2273.6448      16159.124      197.27078      73.647927      0.6530066      54264.512    
    108000   582.34529      17343.368     -1038.4357      1199.0364      2339.3394      16080.842      231.19399      70.131348      0.65212006     54338.282    
    108100   588.43577      17270.985     -1015.8471      1196.6479      2335.2239      16073.825      157.64003      63.444838      0.65144064     54394.955    
    108200   585.29679      17297.812     -1032.1093      1201.5828      2330.5883      16113.03       148.63157      75.392086      0.65089744     54440.35     
    108300   600.27141      17181.881     -1045.4075      1204.5061      2223.9528      16089.866      185.15108      62.312047      0.65031324     54489.255    
    108400   594.88324      17281.826     -1049.845       1204.8505      2284.3846      16047.1        261.26149      72.297228      0.65005736     54510.703    
    108500   590.70871      17400.766     -1034.152       1192.2498      2319.8462      16121.312      273.84647      66.124091      0.65000914     54514.748    
    108600   601.10978      17377.48      -1064.9826      1197.9748      2332.8469      16139.49       238.28074      72.951805      0.64963254     54546.35     
    108700   593.16133      17476.087     -1004.2287      1203.3111      2374.0317      16101.309      262.32157      78.097798      0.64955797     54552.612    
    108800   592.52125      17462.132     -1020.9434      1198.8897      2412.1995      16103.721      240.98518      67.038718      0.64979092     54533.055    
    108900   590.59665      17399.557     -1053.6245      1211.8223      2335.6293      16215.378      157.5587       73.84196       0.64975973     54535.673    
    109000   582.07848      17352.735     -1075.5122      1207.6118      2288.5759      16121.608      282.52812      69.769829      0.65010566     54506.654    
    109100   580.54484      17305.646     -1046.1414      1212.8641      2351.4927      16033.263      222.23151      74.024877      0.65131634     54405.336    
    109200   577.7493       17333.931     -1036.8449      1216.2851      2273.7884      16071.843      273.19448      76.319279      0.65237016     54317.451    
    109300   575.04419      17394.71      -1029.4891      1223.8039      2341.2429      16130.077      211.52787      58.33946       0.65343096     54229.27     
    109400   585.37934      17359.034     -1050.4649      1217.2239      2366.7522      16133.264      157.97938      75.273291      0.65460084     54132.353    
    109500   590.8833       17368.25      -1037.6482      1224.9226      2324.2639      16120.633      211.03035      65.43919       0.65573637     54038.614    
    109600   589.71268      17416.226     -1024.888       1222.5633      2427.9915      16101.939      168.93009      59.517618      0.65681989     53949.469    
    109700   596.29527      17370.899     -1036.2263      1205.6071      2333.6839      16105.885      249.78723      50.404454      0.65752624     53891.513    
    109800   597.27008      17354.307     -1026.9911      1217.5022      2271.5684      16022.282      339.90009      69.127185      0.65789991     53860.904    
    109900   591.45649      17366.548     -1080.0059      1207.2165      2303.9966      16087.485      318.01335      69.57357       0.65795126     53856.701    
    110000   585.64446      17305.783     -1066.4591      1214.9477      2348.9237      16000.875      291.79554      55.899135      0.65819639     53836.643    
    110100   574.53121      17303.378     -1085.7901      1220.4934      2353.9321      16025.124      255.81386      72.796511      0.65821991     53834.719    
    110200   573.51451      17286.519     -1098.6761      1214.9417      2327.2039      16069.926      234.24117      78.206123      0.65840654     53819.46     
    110300   580.50664      17242.039     -1071.6239      1205.9346      2269.5701      16004.453      302.45574      70.67073       0.65917957     53756.344    
    110400   589.41749      17213.58      -1050.1448      1208.7134      2268.1293      15961.114      306.88717      59.671151      0.66031        53664.315    
    110500   589.72565      17282.729     -1043.9521      1206.401       2291.3622      16021.934      277.84206      70.466934      0.66144552     53572.188    
    110600   590.40559      17338.077     -1048.5876      1205.3786      2309.3489      16085.901      253.92032      73.719781      0.66248449     53488.172    
    110700   593.26397      17335.367     -1052.1694      1210.7423      2289.1959      16123.286      240.95823      65.076843      0.66390461     53373.758    
    110800   597.13043      17294.337     -1078.0512      1205.2501      2214.4085      16114.326      308.63741      72.800185      0.66535345     53257.534    
    110900   586.53617      17372.216     -1087.9675      1202.3984      2315.3767      16127.345      289.97033      68.0147        0.66720771     53109.524    
    111000   589.2533       17322.656     -1064.865       1209.1648      2458.2314      16078.844      115.78139      68.544163      0.66941551     52934.364    
    111100   586.23181      17316.675     -1060.9901      1200.1055      2388.3647      16091.194      173.93426      67.379322      0.67187383     52740.682    
    111200   585.38226      17288.52      -1061.7349      1201.4311      2292.4426      16119.877      200.95619      76.859703      0.67419994     52558.717    
    111300   596.97444      17152.873     -1102.178       1199.5696      2269.6146      16028.01       252.08574      49.131769      0.6765833      52373.572    
    111400   574.07483      17302.006     -1066.3504      1206.8569      2291.5246      16132.733      208.10652      71.657644      0.67921166     52170.901    
    111500   576.58036      17173.134     -1087.7307      1213.0663      2285.1016      16116.092      135.63279      53.720621      0.6820981      51950.128    
    111600   575.53505      17095.757     -1071.7883      1206.4955      2212.1276      16000.576      216.61371      73.82751       0.68490217     51737.438    
    111700   567.49942      17169.256     -1072.6498      1208.3789      2184.372       16144.952      174.73315      72.136947      0.68786253     51514.776    
    111800   581.13847      17128.809     -1087.0838      1204.322       2293.2322      16001.68       196.65235      63.381571      0.6907311      51300.837    
    111900   582.85232      17207.761     -1079.1435      1211.0543      2321.752       15978.861      250.8753       64.906366      0.69311921     51124.083    
    112000   587.11466      17224.579     -1121.303       1198.7908      2262.3879      16139.258      224.39344      61.362106      0.69525182     50967.266    
    112100   597.02683      17171.073     -1125.7676      1218.9653      2218.7103      16142.553      185.46681      69.3901        0.69723913     50821.995    
    112200   591.37996      17260.235     -1099.8098      1207.2765      2275.9604      15976.459      354.34914      82.044804      0.69862781     50720.976    
    112300   588.77045      17314.938     -1085.9075      1205.1046      2294.0082      16034.236      333.60884      69.664153      0.70022365     50605.381    
    112400   584.73942      17369.1       -1123.6342      1200.9018      2316.0164      16134.013      309.53843      66.993784      0.70157381     50507.992    
    112500   587.43102      17343.707     -1101.7237      1206.5263      2284.7346      16107.031      328.64898      54.78003       0.70228336     50456.961    
    112600   584.74756      17329.657     -1110.4594      1215.0888      2352.3962      16069.199      264.0084       76.973339      0.70256498     50436.736    
    112700   586.21511      17219.294     -1084.6939      1209.002       2273.9247      16053.159      224.67013      81.552814      0.70263027     50432.049    
    112800   574.30725      17226.511     -1078.8958      1216.3373      2309.6193      16090.49       167.74656      59.313228      0.70255004     50437.808    
    112900   595.54159      17010.394     -1102.6111      1213.4128      2179.0748      15914.176      273.86675      72.235468      0.70218786     50463.823    
    113000   579.91729      17177.343     -1115.3973      1197.6988      2278.4174      16075.48       220.59265      61.039891      0.70150273     50513.109    
    113100   582.61559      17212.58      -1110.7177      1207.4555      2284.0169      16006.145      313.80429      51.330777      0.7006023      50578.03     
    113200   587.7453       17232.288     -1108.0907      1216.1762      2195.5375      16024.62       360.81801      83.348577      0.70022338     50605.4      
    113300   592.62048      17233.446     -1090.5494      1211.1607      2221.0937      16114.771      252.33856      64.562361      0.69987657     50630.477    
    113400   587.00091      17305.412     -1083.1853      1217.4152      2259.098       16175.308      224.37719      51.101345      0.69940547     50664.58     
    113500   589.08238      17301.889     -1116.3311      1220.8681      2344.8142      16084.157      251.54594      56.079823      0.69877557     50710.25     
    113600   596.3935       17239.062     -1122.092       1209.9671      2246.8499      16139.791      230.14555      74.614686      0.69839705     50737.735    
    113700   588.07856      17302.603     -1128.5329      1220.835       2434.1709      16154.6        110.5507       50.697103      0.69831154     50743.947    
    113800   585.276        17286.839     -1054.445       1213.6613      2278.7398      16073.074      255.11464      59.733229      0.69818784     50752.938    
    113900   593.38141      17177.695     -1079.7358      1215.4878      2263.461       16168.955      71.842609      77.048679      0.6977855      50782.202    
    114000   583.06983      17227.569     -1126.5454      1215.5967      2277.5191      16088.334      263.45492      47.989823      0.69745136     50806.531    
    114100   577.34271      17189.171     -1092.8236      1217.2284      2233.8737      16053.067      257.98086      57.144619      0.69712215     50830.523    
    114200   578.44687      17084.46      -1110.8276      1225.5414      2281.2442      16077.683      89.087483      58.369321      0.6967312      50859.046    
    114300   567.2762       17150.318     -1123.3814      1217.0964      2200.0243      16065.62       264.76349      64.094327      0.69625755     50893.644    
    114400   577.93577      17095.411     -1119.3754      1209.4347      2329.0292      15949.321      199.03224      68.117171      0.69608581     50906.201    
    114500   579.76562      17179.541     -1065.0773      1201.9033      2193.2504      16024.001      296.33413      69.020431      0.6960876      50906.07     
    114600   585.86596      17216.001     -1092.9549      1193.1955      2261.9187      16113.799      212.40555      65.769563      0.69569547     50934.763    
    114700   590.22426      17224.518     -1094.5053      1205.9084      2266.7564      16023.09       294.01436      66.202105      0.69490445     50992.743    
    114800   587.13136      17279.496     -1058.5125      1212.739       2200.6361      16072.911      322.12933      66.095042      0.69435994     51032.731    
    114900   592.48543      17265.277     -1092.8823      1213.3329      2248.6839      16074.779      287.08313      70.140617      0.69403903     51056.327    
    115000   596.27954      17258.879     -1123.484       1213.5025      2283.9966      16154.946      181.75068      84.313458      0.69365604     51084.518    
    115100   588.51955      17342.897     -1128.7596      1217.9037      2333.3682      16186.824      196.87418      74.985133      0.69340209     51103.227    
    115200   604.70045      17179.972     -1125.2118      1218.1385      2285.8465      16059.643      227.86702      53.204096      0.69351599     51094.833    
    115300   587.00801      17267.412     -1109.1975      1212.3876      2311.7337      16029.673      299.56669      61.673223      0.69391041     51065.791    
    115400   584.60452      17193.872     -1079.0593      1202.6779      2251.6107      16052.576      253.37476      54.108063      0.69439265     51030.327    
    115500   579.67455      17180.478     -1104.7417      1198.9804      2230.5705      16047.358      271.75954      78.298483      0.69470862     51007.117    
    115600   580.51727      17175.517     -1111.5959      1210.3262      2256.2737      15942.403      366.5403       53.353527      0.69465345     51011.168    
    115700   581.79549      17211.612     -1120.5573      1205.9727      2291.3178      16012.343      302.02632      62.680853      0.69479475     51000.794    
    115800   591.66268      17192.914     -1102.6349      1203.346       2265.3356      16148.365      159.74216      60.174418      0.69502483     50983.911    
    115900   594.85626      17223.257     -1098.0115      1196.3089      2291.7796      15996.505      309.77442      67.785238      0.69504371     50982.526    
    116000   591.10115      17277.363     -1086.5026      1199.5812      2346.3521      16025.566      260.55978      72.052874      0.69552469     50947.269    
    116100   585.96462      17316.155     -1106.6459      1192.4517      2304.5008      16103.929      306.71575      55.043411      0.69600822     50911.876    
    116200   586.11106      17298.371     -1098.7731      1201.3686      2271.7854      16174.248      229.27525      58.004714      0.69642383     50881.493    
    116300   584.78616      17302.857     -1086.6996      1209.5159      2236.6552      16068.264      347.66297      64.380581      0.69716965     50827.061    
    116400   587.67331      17285.203     -1073.4741      1200.8036      2233.7003      16112.415      276.26509      71.190035      0.6981073      50758.793    
    116500   594.07867      17243.011     -1075.9318      1206.2399      2286.154       16141.598      147.63958      73.447314      0.6988173      50707.222    
    116600   582.30667      17369.039     -1076.0468      1213.918       2262.0698      16102.698      334.58511      67.665867      0.69946383     50660.353    
    116700   592.18303      17310.524     -1117.9838      1214.6541      2302.4492      16195.338      193.72929      60.61467       0.70000027     50621.529    
    116800   601.51785      17244.534     -1093.1727      1203.7748      2344.8524      16067.366      182.75088      78.615772      0.70084658     50560.401    
    116900   598.78199      17256.815     -1060.0621      1204.3627      2333.8484      16040.196      217.06518      61.275009      0.70184792     50488.265    
    117000   592.76854      17265.343     -1061.1189      1210.0826      2314.0745      16046.404      231.97263      64.597692      0.70266861     50429.297    
    117100   577.59394      17324.729     -1063.1595      1209.5364      2407.0007      16103.374      154.55129      54.605971      0.70375174     50351.682    
    117200   569.79869      17330.534     -1054.0825      1216.573       2266.0149      16110.873      284.28669      46.570166      0.70487829     50271.209    
    117300   582.70041      17193.461     -1088.4499      1215.0241      2288.2146      16001.775      268.06811      47.838472      0.70560864     50219.175    
    117400   582.81965      17202.438     -1105.5299      1228.1459      2274.4496      16127.124      145.9431       71.414566      0.7061067      50183.753    
    117500   594.33525      17143.012     -1120.9437      1223.2925      2155.4639      15997.219      360.56649      66.451819      0.70662544     50146.913    
    117600   581.9647       17365.854     -1069.6762      1214.855       2354.5047      16003.667      329.59958      70.446858      0.70728965     50099.82     
    117700   597.73257      17327.974     -1073.045       1215.3256      2322.4933      16023.55       311.71141      66.442358      0.70754465     50081.764    
    117800   592.87694      17398.009     -1110.8421      1226.1609      2351.5617      16093.154      308.94783      68.172139      0.70749928     50084.975    
    117900   589.54381      17406.419     -1083.632       1228.62        2313.6874      16135.576      284.77391      66.922226      0.70742076     50090.535    
    118000   597.218        17291.513     -1051.2238      1216.7312      2223.9928      16122.293      232.58075      86.504178      0.70725038     50102.602    
    118100   588.2906       17316.164     -1113.4213      1224.0839      2327.6399      16124.164      231.52599      62.301568      0.70708102     50114.602    
    118200   585.1535       17290.164     -1091.1856      1229.4092      2257.1994      16035.385      337.51444      61.944926      0.70701199     50119.495    
    118300   597.24602      17149.255     -1118.3144      1224.8606      2208.1717      16081.739      230.49504      61.150913      0.70681053     50133.78     
    118400   584.69814      17247.777     -1088.3302      1224.1797      2199.1381      16168.746      212.87638      70.027963      0.7068736      50129.307    
    118500   585.99765      17251.11      -1100.431       1218.6206      2303.0898      16213.22       81.133107      73.81019       0.70733028     50096.942    
    118600   585.83532      17282.246     -1081.0852      1212.2229      2294.0554      16180.683      144.23746      69.805236      0.70800617     50049.118    
    118700   598.02016      17196.276     -1082.6502      1218.3868      2217.215       16039.522      294.02104      47.425291      0.70882757     49991.12     
    118800   590.04261      17268.714     -1104.4051      1217.4543      2238.01        16042.64       342.84522      70.71582       0.70953582     49941.219    
    118900   593.98985      17230.331     -1107.3072      1219.9921      2258.9472      16069.312      272.74518      55.07691       0.71055743     49869.416    
    119000   581.09205      17341.71      -1074.6407      1208.6558      2249.1585      16130.599      295.48031      71.283439      0.71203144     49766.179    
    119100   581.19858      17336.892     -1060.5263      1205.3989      2261.71        16172.287      218.45812      78.354496      0.71349967     49663.771    
    119200   595.61789      17200.835     -1083.0149      1203.5981      2236.7193      16073.716      244.83712      64.197054      0.7149246      49564.785    
    119300   583.988        17286.287     -1044.4075      1204.8491      2273.8373      16172.155      152.92213      66.247745      0.71618859     49477.309    
    119400   584.96483      17254.366     -1115.8417      1199.4394      2261.827       16166.016      211.86302      72.597497      0.71730055     49400.609    
    119500   588.24513      17185.258     -1096.6875      1206.7188      2236.7055      16003.898      323.24214      54.116973      0.71847207     49320.058    
    119600   585.44382      17144.456     -1109.3439      1203.3403      2189.2094      16108.882      221.61754      73.548655      0.71954118     49246.777    
    119700   575.06858      17118.299     -1146.3636      1199.4765      2250.8198      16108.905      195.49189      52.627203      0.72028469     49195.942    
    119800   568.47652      17100.982     -1116.9114      1199.5728      2193.8911      16045.449      266.92239      53.906921      0.72066301     49170.117    
    119900   572.25672      17073.126     -1117.4583      1199.9825      2190.4065      16044.778      244.82898      54.202463      0.72118918     49134.243    
    120000   579.8617       17073.695     -1135.6802      1195.6991      2164.512       16124.65       205.4487       64.048083      0.72181245     49091.816    
    120100   592.39084      17053.532     -1117.4324      1201.6196      2159.044       16115.686      168.12286      70.017101      0.72258157     49039.563    
    120200   583.76712      17190.336     -1093.6773      1189.3566      2353.9343      15966.473      251.03231      66.509329      0.72297811     49012.665    
    120300   586.34531      17200.145     -1132.3988      1203.1316      2240.266       16080.977      297.22227      53.041057      0.7231404      49001.666    
    120400   583.46938      17259.53      -1120.5748      1212.9384      2322.3362      16119.455      194.82717      71.521509      0.7234755      48978.969    
    120500   589.12806      17235.365     -1113.1548      1211.1773      2250.0928      16017.784      332.12891      78.831059      0.72339298     48984.556    
    120600   590.23316      17236.402     -1109.2998      1202.5739      2268.2954      16091.63       269.76977      55.873188      0.72303472     49008.828    
    120700   601.84825      17129.764     -1085.2578      1204.0833      2206.693       16003.606      271.15816      73.35956       0.72231828     49057.438    
    120800   588.90526      17220.678     -1098.0363      1199.4418      2217.1129      16107.991      274.53647      62.785894      0.72130808     49126.143    
    120900   594.66955      17095.481     -1145.5566      1196.8998      2225.2285      16093.045      191.53081      76.904287      0.72058916     49175.156    
    121000   578.24026      17133.343     -1113.0607      1193.1046      2241.328       16100.826      179.33228      72.889455      0.71986476     49224.64     
    121100   579.29805      17068.63      -1107.1117      1192.2047      2288.1747      15960.988      201.663        72.675411      0.71903741     49281.28     
    121200   575.78023      17107.868     -1098.878       1191.3973      2214.6427      16003.17       277.40797      61.854967      0.71817992     49340.121    
    121300   577.75924      17143.423     -1075.3182      1197.1944      2325.61        15987.843      186.11168      64.348657      0.71686123     49430.884    
    121400   575.66971      17244.594     -1102.2561      1189.1819      2286.792       16092.832      257.90503      63.434872      0.71503199     49557.341    
    121500   588.59489      17199.761     -1115.5265      1193.0039      2314.2479      16044.259      246.28798      59.676091      0.7126176      49725.244    
    121600   588.08059      17233.979     -1101.1197      1199.3385      2301.7271      16005.564      300.77848      71.000189      0.70991245     49914.724    
    121700   594.62379      17184.809     -1101.5882      1207.1047      2308.5422      16023.004      223.48974      67.131829      0.70718788     50107.029    
    121800   586.41924      17240.433     -1085.3094      1203.4131      2310.9455      16054.035      222.47903      76.726069      0.70454745     50294.815    
    121900   592.12199      17165.661     -1088.64        1206.6722      2216.8408      16143.959      160.91036      65.4038        0.70195911     50480.268    
    122000   598.12725      17096.06      -1077.7358      1202.3126      2229.2562      15981.809      246.16176      54.389909      0.69929688     50672.447    
    122100   584.74145      17208.179     -1075.2982      1205.1882      2280.8166      16022.065      255.19019      59.906635      0.6965952      50868.976    
    122200   583.92063      17214.275     -1102.032       1203.8511      2322.0726      16074.286      197.84064      58.43467       0.69404742     51055.711    
    122300   576.46277      17292.171     -1073.6077      1201.749       2293.5359      16051.187      307.01117      51.698318      0.69174535     51225.619    
    122400   583.71641      17275.501     -1067.0646      1204.1597      2365.3404      16085.153      168.02286      59.426768      0.68950011     51392.427    
    122500   594.17516      17268.733     -1089.9257      1198.8758      2269.9774      16191.267      172.75348      65.474385      0.68691537     51585.807    
    122600   588.81987      17386.157     -1061.0235      1202.1324      2345.7474      16101.713      268.27576      69.045213      0.68453869     51764.911    
    122700   596.37542      17361.757     -1069.9277      1203.8482      2388.3665      16035.284      274.40737      68.287992      0.68247618     51921.349    
    122800   604.80063      17279.836     -1066.5106      1222.8909      2322.0743      16086.406      209.17713      43.489752      0.68071722     52055.513    
    122900   588.28007      17374.926     -1032.2331      1215.9         2410.4107      16019.091      227.82591      73.940868      0.67956108     52144.076    
    123000   579.93031      17351.408     -1054.9556      1219.2826      2324.2267      16052.223      287.07576      63.155978      0.67861001     52217.155    
    123100   577.56846      17301.53      -1064.4906      1214.2646      2319.1661      16126.957      180.75843      65.445861      0.67799079     52264.846    
    123200   576.50603      17289.443     -1021.0099      1219.607       2321.9891      15994.898      239.34566      75.528048      0.67801956     52262.628    
    123300   572.45086      17330.793     -1070.4162      1210.248       2398.6311      15946.361      328.03821      57.945499      0.67821729     52247.391    
    123400   589.07938      17196.45      -1064.6647      1217.2063      2243.3028      16057.626      214.37727      69.122534      0.67856921     52220.295    
    123500   573.17651      17358.467     -1082.8021      1212.8602      2316.6932      16137.534      240.47693      74.603843      0.67913559     52176.744    
    123600   584.02027      17288.371     -1088.2822      1214.3065      2213.975       16143.783      290.11049      53.914894      0.68028476     52088.605    
    123700   587.13589      17289.53      -1029.273       1212.7432      2299.8189      16073.543      191.16884      78.940202      0.68139184     52003.975    
    123800   590.08137      17293.968     -1055.8676      1199.2525      2343.2809      16005.547      273.50055      66.223693      0.68227569     51936.607    
    123900   591.07453      17336.416     -1055.6171      1196.1068      2288.4351      16135.259      249.36111      61.368707      0.68344139     51848.022    
    124000   604.09905      17324.248     -1081.0342      1203.8144      2286.0426      16162.427      225.95717      66.278753      0.68413233     51795.658    
    124100   601.89533      17441.525     -1040.3111      1210.7055      2297.8948      16072.297      363.09215      76.515253      0.68479411     51745.603    
    124200   608.03107      17399.322     -1078.4915      1209.87        2293.8476      16218.772      226.92912      67.174705      0.68541902     51698.425    
    124300   592.99328      17460.975     -1045.5105      1209.8443      2320.8371      16144.637      280.9903       89.996217      0.68599587     51654.953    
    124400   592.03023      17365.604     -1058.6898      1211.0071      2269.4608      16081.921      332.23706      69.282752      0.68628213     51633.406    
    124500   595.44797      17274.897     -1053.2492      1215.0994      2256.7405      16044.255      283.95231      68.199893      0.68620905     51638.905    
    124600   590.06465      17287.841     -1048.0943      1196.5648      2307.7039      16007.776      299.36022      63.661982      0.68603537     51651.979    
    124700   579.8375       17346.757     -1016.8461      1196.3411      2271.1818      16106.73       249.84282      76.711169      0.68571189     51676.345    
    124800   582.55107      17298.183     -1032.2498      1192.8255      2260.66        16133.393      221.74186      59.746106      0.68487774     51739.285    
    124900   584.99119      17255.643     -1025.5224      1201.6221      2297.1356      15967.978      268.13796      83.741038      0.6839907      51806.383    
    125000   585.4115       17242.725     -1084.641       1205.9631      2184.2301      16108.778      295.99861      71.366785      0.68295359     51885.054    
    125100   572.77227      17370.73      -1065.4643      1207.2038      2384.1399      16126.295      198.2187       59.217193      0.68222992     51940.091    
    125200   583.43931      17346.758     -1037.8633      1194.6439      2288.1145      16058.244      296.5457       87.508765      0.68167495     51982.377    
    125300   597.1334       17324.122     -1071.542       1203.1929      2247.1023      16135.583      271.14264      80.27891       0.68150639     51995.234    
    125400   606.50244      17300.651     -1019.7159      1192.6692      2309.5375      16045.597      252.09539      61.252795      0.68152378     51993.907    
    125500   599.54209      17367.303     -1081.8414      1196.1456      2316.9316      15994.008      411.0159       69.757542      0.68132178     52009.322    
    125600   605.24237      17272.373     -1072.5237      1207.8676      2274.1319      16075.635      269.64721      55.498577      0.68136872     52005.739    
    125700   597.87789      17264.135     -1065.943       1200.1817      2265.5885      16129.843      204.77255      69.019438      0.68150746     51995.152    
    125800   579.81208      17351.61      -1067.6668      1201.8821      2357.2201      16111.298      236.84958      51.891793      0.68134204     52007.776    
    125900   583.77401      17278.478     -1055.8465      1213.3152      2221.7299      16064.635      303.20922      71.355349      0.68117272     52020.703    
    126000   586.76849      17246.722     -1063.322       1209.9843      2300.545       16166.544      100.80515      71.69953       0.68110047     52026.221    
    126100   568.41275      17418.935     -1074.7635      1206.5457      2393.752       16079.627      273.24088      80.407287      0.68118911     52019.452    
    126200   583.55933      17295.949     -1022.5561      1203.1579      2332.2603      15983.188      274.82817      65.525406      0.68146747     51998.204    
    126300   592.48616      17228.597     -1067.6944      1219.7301      2238.5726      16120.304      190.92461      65.865978      0.68148519     51996.852    
    126400   589.06412      17279.809     -1047.0126      1218.837       2257.9384      16102.328      224.32118      61.805203      0.68133504     52008.31     
    126500   595.72303      17258.542     -1045.2792      1206.7287      2207.8207      16179.916      184.12766      63.19683       0.6809282      52039.384    
    126600   584.81109      17410.607     -1037.7088      1213.8457      2284.1735      16156.5        264.87176      68.791492      0.68014459     52099.34     
    126700   584.69232      17471.277     -1094.2002      1217.3948      2334.6834      16169.76       307.53253      73.380557      0.67952083     52147.164    
    126800   606.14117      17304.743     -1115.3333      1212.4726      2318.7547      16133.547      221.81082      72.498211      0.67877261     52204.646    
    126900   593.98392      17383.287     -1072.3802      1214.8863      2316.7404      16104.872      297.94122      61.573797      0.67850927     52224.908    
    127000   595.46606      17277.351     -1078.961       1212.6049      2293.3279      16060.717      263.04065      67.036951      0.67844218     52230.072    
    127100   588.3009       17242.382     -1086.6513      1207.602       2233.6867      16033.107      330.3538       62.887074      0.67820568     52248.286    
    127200   591.27938      17165.759     -1069.7571      1208.6975      2195.6686      16049.008      261.86014      60.230702      0.67786506     52274.54     
    127300   578.62778      17262.095     -1071.3066      1201.0257      2217.1746      16135.553      273.94608      46.599609      0.67707734     52335.357    
    127400   581.41801      17255.212     -1096.5415      1205.3148      2285.3856      16161.609      161.32603      80.118041      0.67645077     52383.832    
    127500   585.43975      17258.572     -1045.3933      1205.9286      2247.8275      16171.936      174.45233      46.106121      0.67589518     52426.892    
    127600   582.65998      17333.685     -1017.346       1206.2049      2402.8154      16009.839      218.97088      55.166581      0.6748117      52511.07     
    127700   589.13679      17337.079     -1036.0044      1206.0272      2296.8686      16120.027      215.94272      74.456843      0.673213       52635.769    
    127800   600.5045       17306.997     -1079.6487      1202.6096      2380.52        16076.294      203.41224      63.543149      0.67159382     52762.672    
    127900   600.87455      17388.042     -1024.4233      1210.7444      2336.7255      16076.378      270.31168      56.982472      0.66995291     52891.903    
    128000   603.74192      17464.467     -1053.7437      1203.5249      2318.5386      16116.512      354.47456      64.421603      0.66760355     53078.034    
    128100   611.97507      17441.629     -1070.2757      1209.0282      2280.7939      16221.655      272.91001      65.797686      0.66469282     53310.466    
    128200   600.55691      17498.588     -1024.3871      1198.9623      2361.1586      16228.196      216.26697      57.335287      0.6617687      53546.026    
    128300   594.69512      17409.25      -1055.6586      1202.5858      2323.8369      16147.555      267.74529      62.663267      0.65876793     53789.935    
    128400   591.1276       17357.415     -1008.2995      1207.2286      2250.8706      16137.312      237.02481      72.489153      0.65561915     54048.275    
    128500   594.35821      17287.302     -1067.4897      1201.0009      2306.9615      16188.812      129.35822      66.316953      0.65264405     54294.656    
    128600   587.23445      17322.126     -1026.6589      1197.2311      2286.8118      16117.98       208.35858      75.781985      0.65050856     54472.894    
    128700   579.23992      17374.462     -991.18932      1195.5494      2254.5891      16212.483      187.83803      53.444176      0.64863417     54630.307    
    128800   594.37974      17224.202     -1045.4181      1195.7538      2262.0775      16040.544      233.3295       75.578068      0.6466252      54800.036    
    128900   579.09025      17343.897     -999.78729      1204.5514      2260.2757      16134.112      208.97782      71.978884      0.64502392     54936.078    
    129000   579.33241      17347.804     -991.54544      1208.0978      2298.0646      16064.178      236.34321      68.384716      0.6438599      55035.395    
    129100   582.88353      17352.422     -985.18782      1204.6474      2341.5391      16068.903      183.65664      72.4002        0.64254137     55148.331    
    129200   590.57305      17353.235     -1042.6544      1212.3852      2226.7448      16134.783      298.9562       57.612097      0.64131466     55253.819    
    129300   599.19522      17359.593     -1033.6534      1208.2201      2248.6707      16040.299      359.78951      71.905292      0.64041751     55331.223    
    129400   592.28936      17476.183     -1005.1802      1208.5639      2288.3342      16131.784      325.89234      64.859525      0.63987754     55377.915    
    129500   599.96134      17423.561     -985.74589      1215.8612      2350.1103      16085.493      230.08872      65.349773      0.63930451     55427.552    
    129600   593.19823      17474.01      -1010.6739      1205.8186      2347.2946      16124.731      246.09247      99.032079      0.6387188      55478.38     
    129700   587.12343      17461.969     -1048.743       1207.4169      2360.7656      16119.183      278.09865      82.926401      0.63848783     55498.449    
    129800   586.46831      17321.338     -997.84987      1201.8797      2283.7319      16066.914      238.44826      63.157571      0.63884179     55467.699    
    129900   578.56129      17308.359     -1015.8716      1207.5752      2160.0576      16036.91       379.72171      74.847464      0.639344       55424.128    
    130000   583.89608      17244.031     -1044.7708      1204.2008      2273.1179      15998.908      262.99169      85.983997      0.63947321     55412.93     
    130100   578.45136      17311.03      -1020.8055      1204.1838      2293.3773      16048.162      241.09608      81.213678      0.6400513      55362.881    
    130200   591.54724      17245.835     -994.82185      1207.0239      2181.2659      16041.542      269.28336      79.198431      0.64097622     55282.993    
    130300   576.08148      17456.018     -1011.5297      1217.916       2337.7871      16064.41       314.68515      69.777907      0.64168748     55221.717    
    130400   595.542        17346.084     -1013.5737      1214.8531      2321.8433      16050.52       245.67594      62.778184      0.64243601     55157.375    
    130500   591.84511      17414.102     -1029.5596      1224.0061      2357.617       16089.036      236.88012      72.138562      0.64315179     55095.99     
    130600   594.56826      17380.74      -1023.5581      1209.841       2194.1814      16176.362      293.81353      65.631851      0.64426411     55000.866    
    130700   593.23618      17364.036     -1012.4593      1200.6341      2310.8303      16090.548      239.97499      69.829731      0.64524505     54917.25     
    130800   594.57574      17311.558     -1019.3806      1188.7         2237.0626      16081.657      291.47948      67.015386      0.64575596     54873.801    
    130900   581.25886      17374.613     -982.5311       1185.438       2234.3677      16096.624      318.78229      57.787841      0.64614436     54840.816    
    131000   571.2032       17348.286     -1012.616       1197.903       2278.7277      16114.868      241.21811      64.366905      0.64620928     54835.307    
    131100   572.74848      17200.304     -1068.7027      1213.3671      2232.7374      16049.432      243.60011      64.679007      0.64619835     54836.234    
    131200   571.51574      17184.005     -1064.106       1212.5561      2247.2408      16048.848      213.10762      62.71896       0.64669003     54794.542    
    131300   582.788        17114.9       -1027.4359      1215.0951      2229.3665      15993.061      191.90274      49.654302      0.64771387     54707.928    
    131400   577.20826      17225.801     -1016.988       1214.498       2309.7145      15963.765      229.09874      61.229074      0.6487992      54616.411    
    131500   586.24396      17214.241     -1006.2283      1219.9452      2296.8967      15975.227      196.4203       70.313094      0.65003346     54512.708    
    131600   587.73978      17255.53      -990.40287      1221.0683      2346.3661      15962.797      205.20438      47.892297      0.65145111     54394.08     
    131700   590.9341       17270.103     -982.82913      1216.2297      2328.7531      15973.331      211.13602      61.895094      0.65283391     54278.866    
    131800   589.78062      17309.227     -1024.6677      1225.0792      2388.0884      16091.433      105.4018       64.49044       0.65401486     54180.854    
    131900   588.07214      17342.418     -1006.6574      1224.676       2310.3239      16058.842      229.82152      65.776959      0.65516236     54085.958    
    132000   582.33315      17408.991     -979.48812      1210.1317      2350.9344      16092.064      203.17648      72.77743       0.65642452     53981.963    
    132100   581.61012      17421.415     -1023.2245      1209.5173      2263.9149      16181.34       253.77667      76.60193       0.65735228     53905.775    
    132200   603.69313      17258.155     -1018.2389      1209.8277      2286.2514      16111.626      145.40506      59.969426      0.6583763      53821.931    
    132300   588.24044      17308.743     -1009.2526      1205.887       2298.0521      16051.711      244.32929      54.628404      0.65919091     53755.42     
    132400   584.46233      17237.502     -988.46746      1198.6962      2260.6748      16041.443      215.44705      49.268066      0.65978276     53707.199    
    132500   584.16112      17185.354     -1049.8425      1201.6759      2293.6174      15880.81       332.24753      65.752604      0.66020769     53672.631    
    132600   589.97457      17113.086     -1033.287       1193.3626      2264.7687      15943.338      227.79154      57.284702      0.66082484     53622.506    
    132700   587.22053      17151.509     -1048.1799      1198.5911      2264.7548      15991.801      217.50548      68.12216       0.66141776     53574.437    
    132800   585.42468      17220.733     -1043.9825      1197.8088      2228.9289      16026.944      275.97368      78.292581      0.66195065     53531.308    
    132900   592.00791      17247.837     -1032.6599      1198.233       2324.3841      16037.326      199.4524       64.089559      0.66281613     53461.409    
    133000   581.44465      17413.398     -1031.7907      1200.8184      2310.0059      16169.285      256.70407      49.624756      0.66388647     53375.217    
    133100   580.56543      17450.967     -1021.4101      1192.5218      2375.4727      16068.784      310.68754      65.042393      0.66514138     53274.515    
    133200   594.12262      17326.532     -1054.1278      1204.9716      2248.598       16093.481      302.84387      71.153135      0.66589306     53214.376    
    133300   589.86984      17344.134     -1064.6609      1196.0613      2385.0582      16113.972      194.885        57.300443      0.66648621     53167.018    
    133400   581.70967      17386.64      -1028.0344      1198.8189      2389.8876      16088.492      214.99386      61.088688      0.66707835     53119.823    
    133500   586.66418      17305.925     -1061.9479      1195.5294      2285.7122      16143.002      207.50978      73.364454      0.66735274     53097.982    
    133600   577.65314      17365.655     -1044.3435      1209.4984      2308.9127      16170.487      200.57184      57.649865      0.66763509     53075.527    
    133700   589.741        17245.748     -993.82776      1208.405       2282.0892      16044.029      184.36719      58.589667      0.66776293     53065.365    
    133800   604.99035      17103.177     -1045.9331      1215.4435      2204.0597      16053.528      167.26074      48.012869      0.66755861     53081.608    
    133900   588.62547      17242.87      -1041.6376      1211.711       2231.4574      16055.745      255.42473      70.357037      0.66707671     53119.954    
    134000   580.75521      17316.387     -1050.9432      1217.905       2272.7516      16081.794      265.08938      70.662369      0.6668143      53140.858    
    134100   590.1222       17244.194     -1045.8076      1224.5023      2233.7312      15921.396      385.68419      63.383148      0.66662668     53155.814    
    134200   589.64063      17272.48      -1058.5217      1226.905       2266.4411      16125.928      180.13428      69.090269      0.66653313     53163.275    
    134300   594.97178      17272.97      -1040.7321      1234.6315      2295.3194      16000.913      260.5524       61.318095      0.66681703     53140.641    
    134400   584.14339      17429.579     -1062.6033      1231.5828      2346.9346      16065.733      336.89417      49.65811       0.66729827     53102.317    
    134500   596.45129      17358.878     -1057.0805      1235.996       2271.8773      16159.537      233.93923      54.964472      0.66783426     53059.698    
    134600   592.59815      17409.39      -1045.9048      1230.2153      2289.9286      16217.219      191.40233      68.318321      0.66823948     53027.522    
    134700   595.58218      17364.936     -1067.157       1232.8598      2303.2102      16029.873      349.36792      57.141093      0.66889629     52975.453    
    134800   595.95293      17287.117     -1052.7939      1229.223       2294.1337      16044.094      255.37732      54.873872      0.66961549     52918.555    
    134900   587.12836      17261.099     -1053.1527      1209.6224      2261.2794      16116.397      196.2795       68.039063      0.67043531     52853.845    
    135000   580.73383      17252.137     -1046.652       1215.0571      2201.9295      16041.455      307.60161      68.790188      0.67148144     52771.502    
    135100   570.50381      17322.817     -1044.6643      1208.0527      2374.3501      16039.648      214.05194      67.802915      0.67269145     52676.578    
    135200   577.97847      17258.648     -1042.7356      1204.1022      2283.0565      16098.598      185.48745      66.846679      0.67405142     52570.298    
    135300   594.69375      17132.498     -1068.52        1208.8541      2189.897       15943.258      332.76861      62.956751      0.67548114     52459.028    
    135400   588.39113      17231.736     -1070.3103      1213.4728      2194.9156      16108.573      267.35002      55.855003      0.6771913      52326.55     
    135500   587.98165      17292.087     -1076.3174      1216.5143      2247.9414      16119.62       246.38817      75.653492      0.67886134     52197.823    
    135600   595.68569      17276.635     -1089.9456      1216.7082      2328.44        16074.067      213.06153      71.020045      0.68049523     52072.494    
    135700   590.92244      17367.017     -1056.2244      1206.4297      2284.5259      16143.191      251.68224      75.898686      0.68213382     51947.408    
    135800   600.65297      17358.535     -1053.2092      1207.2519      2299.2827      16037.649      343.69166      61.814374      0.68387583     51815.085    
    135900   605.74753      17381.311     -1040.2626      1203.0696      2295.435       16028.394      353.65088      77.441905      0.68531793     51706.052    
    136000   601.32626      17438.116     -1072.9459      1203.5636      2297.8672      16180.177      292.51874      73.9789        0.68637775     51626.213    
    136100   602.32054      17380.173     -1068.661       1200.6476      2341.7083      16115.848      262.00625      65.343701      0.68745694     51545.169    
    136200   591.28902      17359.774     -1094.8203      1207.3982      2260.3472      16142.336      318.42136      63.69286       0.68769907     51527.02     
    136300   592.75871      17250.856     -1115.5304      1204.8806      2287.5743      16113.782      237.20982      62.016953      0.68791325     51510.977    
    136400   591.62198      17212.421     -1088.8901      1211.1679      2216.9005      16064.145      277.65156      68.617055      0.68849289     51467.611    
    136500   590.62158      17187.176     -1085.5493      1195.7326      2212.7252      15977.891      352.9915       69.840307      0.68882187     51443.03     
    136600   571.54973      17327.068     -1087.3345      1202.129       2327.3117      16191.263      179.71387      51.828686      0.68886743     51439.628    
    136700   573.37846      17306.288     -1124.6629      1211.0949      2306.2093      16111.036      277.73675      62.277188      0.68888575     51438.259    
    136800   580.67172      17277.67      -1100.048       1203.6316      2315.7784      16110.122      219.35748      65.865912      0.68887775     51438.857    
    136900   598.20878      17193.913     -1119.1913      1214.9578      2253.0757      16126.558      201.07721      55.574571      0.68896646     51432.234    
    137000   591.82839      17342.671     -1065.3117      1205.2481      2309.1055      16097.354      250.09908      83.720458      0.68926191     51410.188    
    137100   589.73537      17419.539     -1066.0588      1220.324       2254.1879      16079.181      387.28184      82.599234      0.6897574      51373.257    
    137200   608.87989      17250.251     -1093.6317      1218.5592      2352.9517      16014.68       226.2698       69.503643      0.6902192      51338.885    
    137300   603.38745      17263.431     -1097.3766      1223.9077      2341.9111      16103.438      169.31516      60.925951      0.69091496     51287.186    
    137400   587.07596      17354.277     -1091.1708      1214.2299      2340.2223      16070.009      285.47911      73.069321      0.69202823     51204.68     
    137500   581.02262      17363.958     -1064.4903      1217.813       2347.0654      16050.217      285.14803      65.618643      0.69332402     51108.981    
    137600   585.6538       17293.326     -1050.0109      1207.9411      2292.0365      16110.754      205.81551      64.354139      0.69428112     51038.525    
    137700   591.85699      17225.873     -1072.8116      1212.5849      2230.8098      16021.549      291.09478      80.814561      0.69484375     50997.198    
    137800   590.64755      17229.54      -1101.4118      1215.2841      2235.7334      16150.92       212.06859      54.739196      0.69556005     50944.68     
    137900   581.78315      17284.935     -1050.9694      1199.4579      2336.0892      16046.854      217.12169      74.303173      0.69633351     50888.093    
    138000   573.35604      17329.647     -1049.8171      1202.165       2313.5809      16080.692      249.08891      71.922033      0.69653615     50873.288    
    138100   577.48922      17255.61      -1095.9742      1195.2178      2292.7578      16151.658      188.96116      63.592252      0.69653254     50873.551    
    138200   584.99868      17142.746     -1074.5093      1193.4237      2210.2296      16097.13       209.45246      47.589489      0.69672681     50859.366    
    138300   579.40244      17142.328     -1082.047       1188.8355      2230.0647      15917.642      354.93903      72.345226      0.6967386      50858.506    
    138400   582.02375      17091.539     -1099.1497      1200.1036      2242.0108      16024.266      200.19301      63.90704       0.69667901     50862.856    
    138500   583.77877      17101.128     -1058.8062      1198.314       2183.1612      16020.319      240.60147      57.882131      0.69688996     50847.46     
    138600   567.89868      17328.624     -1065.5161      1202.9577      2244.4753      16178.591      264.14162      44.115689      0.69730309     50817.334    
    138700   577.53122      17346.235     -1087.0728      1207.9351      2331.245       16229.338      137.09373      69.05622       0.69768183     50789.748    
    138800   598.84764      17216.452     -1096.7719      1208.0944      2267.823       16204.783      107.29738      66.238531      0.69799173     50767.198    
    138900   587.15905      17348.154     -1065.6634      1201.4302      2370.2756      15990.218      344.33523      49.800489      0.69847273     50732.237    
    139000   592.46796      17295.819     -1054.3559      1204.0972      2287.6715      16058.09       273.29825      67.469586      0.6986571      50718.849    
    139100   596.12719      17233.436     -1092.6609      1203.8254      2200.3942      16154.677      234.58749      73.887158      0.69877152     50710.544    
    139200   586.54566      17272.086     -1076.6492      1201.0066      2302.9389      16078.687      243.61574      63.444922      0.69911002     50685.991    
    139300   587.0949       17259.017     -1073.4647      1211.2269      2356.6214      16063.953      174.66938      67.253797      0.69939919     50665.035    
    139400   583.04159      17203.857     -1069.9323      1204.5166      2305.7619      16149.795      100.56776      52.908988      0.69961387     50649.488    
    139500   588.91548      17097.446     -1086.8185      1207.2433      2243.4626      16015.836      204.98445      54.484763      0.6993209      50670.707    
    139600   586.50856      17109.737     -1101.1164      1196.7872      2249.8015      16087.325      161.97105      58.61798       0.69915328     50682.855    
    139700   586.61738      17120.529     -1077.6547      1217.2112      2293.9319      16032.266      145.29958      53.42041       0.699653       50646.655    
    139800   572.39217      17270.574     -1060.5581      1198.069       2391.9358      16120.476      106.2536       57.314559      0.70031228     50598.976    
    139900   579.80459      17236.88      -1108.5033      1205.6322      2312.6376      16022.877      285.66003      62.365876      0.70077663     50565.448    
    140000   584.3985       17234.851     -1091.3034      1199.6047      2351.7586      16138.847      111.19472      67.074125      0.70155048     50509.671    
    140100   585.67037      17255.753     -1103.9581      1191.4489      2394.5633      16040.003      225.64813      51.610993      0.70239533     50448.917    
    140200   592.64312      17225.755     -1092.3713      1200.4977      2252.9958      16023.185      324.85249      57.62847       0.70311934     50396.97     
    140300   594.74061      17233.124     -1072.4694      1205.5261      2310.7237      15991.938      274.21093      65.250083      0.70407859     50328.308    
    140400   591.68983      17281.392     -1099.92        1210.2956      2297.1213      16157.165      202.62528      55.621174      0.70453463     50295.731    
    140500   593.67862      17262.541     -1092.5129      1213.3375      2315.0056      16032.142      260.74691      72.518776      0.70463099     50288.853    
    140600   594.63153      17208.832     -1101.548       1202.1082      2265.1784      16054.219      246.99139      80.096616      0.70483925     50273.994    
    140700   590.14451      17173.917     -1115.7422      1214.2453      2264.1464      16158.585      116.56324      72.056665      0.70512279     50253.778    
    140800   585.37847      17157.147     -1085.5403      1202.0382      2257.1116      16039.716      226.5633       56.29978       0.70570442     50212.359    
    140900   596.08091      17025.943     -1100.8486      1197.5598      2248.9603      15971.78       195.66902      54.216286      0.70631434     50169        
    141000   589.32409      17065.514     -1111.6155      1194.0001      2305.44        15991.98       175.99991      51.758316      0.70727676     50100.733    
    141100   572.54958      17205.885     -1081.6726      1205.536       2308.1749      16049.288      200.79219      65.30151       0.70855686     50010.22     
    141200   568.79371      17267.267     -1099.4419      1210.9141      2404.1114      16053.463      160.76515      79.444621      0.71009428     49901.942    
    141300   578.19621      17281.167     -1100.6249      1211.7103      2300.5108      16160.279      191.92699      60.859168      0.7117581      49785.291    
    141400   591.40933      17270.913     -1146.8432      1220.5006      2380.2782      15959.561      327.92667      72.658461      0.71359545     49657.105    
    141500   599.02428      17243.659     -1145.0257      1211.721       2311.4838      16108.948      228.95072      70.298724      0.71546224     49527.539    
    141600   593.35323      17282.473     -1113.6613      1198.2931      2278.5398      16075.334      310.48537      76.483766      0.71699501     49421.661    
    141700   595.65524      17214.955     -1132.4648      1214.5012      2302.1533      16082.075      223.1564       64.664832      0.71856052     49313.987    
    141800   579.07388      17304.824     -1103.3324      1207.9539      2337.0593      16104.863      238.55647      62.423433      0.71988469     49223.278    
    141900   593.00482      17115.556     -1120.7801      1205.846       2284.4339      15981.278      225.02597      82.386452      0.7209829      49148.301    
    142000   579.98817      17179.534     -1173.9647      1211.7359      2273.0789      16032.12       318.00411      59.806088      0.72184555     49089.565    
    142100   581.31935      17138.006     -1125.6956      1204.6947      2325.5721      15998.359      211.03454      64.971447      0.72265851     49034.341    
    142200   580.18585      17132.855     -1148.2677      1211.9889      2235.1312      16072.356      224.81876      78.858531      0.72329162     48991.421    
    142300   586.61973      17072.781     -1126.2173      1217.4746      2189.2667      16020.838      243.82402      69.776394      0.72407038     48938.729    
    142400   584.21299      17112.633     -1127.1474      1221.3346      2247.687       15998.414      263.89758      52.644883      0.72481165     48888.679    
    142500   589.33181      17099.965     -1146.2364      1213.4276      2247.5121      16072.2        192.42733      64.343287      0.7249641      48878.399    
    142600   593.94763      17100.069     -1116.4935      1218.0191      2250.9022      15986.437      228.88969      76.252951      0.72480099     48889.398    
    142700   595.72715      17140.08      -1120.3158      1211.3793      2214.0009      16028.088      261.5079       85.651051      0.7245381      48907.137    
    142800   594.36588      17190.656     -1142.3283      1208.7393      2188.5274      16176.744      228.04215      71.23098       0.72445095     48913.02     
    142900   592.95902      17227.432     -1105.8291      1190.345       2243.1142      16047.696      305.90124      89.799189      0.72408604     48937.67     
    143000   592.60598      17221.698     -1129.2897      1196.5524      2288.7854      16006.091      310.74028      92.098483      0.72338373     48985.183    
    143100   595.72043      17118.669     -1142.6555      1200.7916      2174.8441      16168.557      183.20552      76.234419      0.72264915     49034.976    
    143200   586.21873      17101.074     -1097.2475      1212.5387      2212.2208      16028.082      221.42481      64.680646      0.72196932     49081.149    
    143300   577.22193      17117.451     -1124.8454      1215.5677      2312.7942      15913.307      287.52888      53.667293      0.72089042     49154.605    
    143400   575.72565      17116.055     -1131.7139      1213.8696      2216.2986      16124.321      163.56814      71.072878      0.71988362     49223.351    
    143500   582.95135      17080.465     -1133.8167      1209.2365      2292.661       16087.932      93.286226      71.417031      0.71908806     49277.809    
    143600   577.27967      17194.55      -1106.0977      1211.5121      2274.0196      16088.793      189.90826      75.710218      0.71856398     49313.749    
    143700   588.45976      17183.055     -1088.4666      1216.9761      2276.509       16094.853      169.06129      54.032158      0.71799811     49352.614    
    143800   589.89128      17238.959     -1102.6941      1207.8365      2223.3488      16205.231      163.84949      80.064108      0.71741729     49392.57     
    143900   586.26127      17295.719     -1086.5488      1214.4722      2247.1894      16217.191      163.98601      78.236074      0.71678242     49436.319    
    144000   591.81381      17236.395     -1106.8938      1217.5442      2220.1325      16170.785      196.50685      75.225149      0.71599925     49490.393    
    144100   595.61222      17183.938     -1088.1261      1211.5808      2277.4349      16020.574      221.19963      76.559337      0.71547136     49526.908    
    144200   580.86146      17291.538     -1089.2845      1208.4353      2254.8584      16112.791      276.78805      65.716238      0.71476788     49575.653    
    144300   594.90909      17131.756     -1142.3011      1208.8613      2204.9529      16062.842      265.89119      70.293097      0.71348106     49665.066    
    144400   578.13398      17231.691     -1104.0316      1204.3135      2185.8124      16174.713      246.23867      63.551336      0.71234686     49744.143    
    144500   574.91301      17197.368     -1088.7017      1216.3034      2258.4636      16040.894      236.60423      75.177292      0.71135312     49813.634    
    144600   561.32247      17218.136     -1077.9509      1208.3842      2301.2237      16028.851      232.03364      65.964415      0.70991312     49914.677    
    144700   568.04811      17057.597     -1099.6751      1202.2359      2260.8501      16064.292      106.05544      65.010881      0.70853355     50011.865    
    144800   560.11884      17109.472     -1112.868       1207.8949      2196.4093      16126.218      168.60311      65.628013      0.7073842      50093.123    
    144900   573.92531      17059.654     -1077.3398      1201.152       2235.0773      16011.649      175.61746      58.871577      0.70636206     50165.611    
    145000   582.92036      17087.095     -1099.5853      1201.0098      2189.9925      16133.664      146.47305      60.073656      0.70549849     50227.016    
    145100   570.96251      17259.61      -1079.4317      1206.8696      2219.0842      16203.99       164.08607      88.443628      0.70471656     50282.746    
    145200   586.42135      17176.614     -1064.6815      1203.9966      2234.0767      16027.48       259.3652       60.1198        0.70400361     50333.668    
    145300   585.91921      17244.939     -1052.5712      1211.6751      2214.2691      15976.895      363.88039      73.038797      0.70326317     50386.663    
    145400   588.97648      17269.799     -1102.94        1214.3322      2308.3087      16193.95       128.96227      69.554231      0.70229396     50456.199    
    145500   581.86542      17360.519     -1059.3063      1212.5268      2276.3222      16053.191      333.73342      85.22754       0.70094865     50553.038    
    145600   578.18206      17409.875     -1093.1888      1210.1808      2350.5889      16177.436      243.42734      62.266397      0.69953145     50655.455    
    145700   583.59524      17362.616     -1071.2435      1203.0915      2371.917       16195.49       137.21269      66.879699      0.69834847     50741.264    
    145800   586.82943      17305.021     -1063.8985      1203.8299      2289.5636      16132.604      228.86715      54.465686      0.69677506     50855.844    
    145900   577.55171      17314.849     -1055.0886      1205.881       2309.304       16168.051      143.91091      82.1996        0.69483008     50998.201    
    146000   575.53099      17244.769     -1081.6227      1219.6395      2233.9719      16179.494      173.03712      59.607339      0.69274165     51151.947    
    146100   573.3784       17212.485     -1078.5793      1207.4897      2307.8654      16119.472      113.63924      82.22109       0.69109349     51273.937    
    146200   573.63852      17199.968     -1070.8495      1198.236       2261.817       16031.289      266.28807      52.378945      0.68954969     51388.732    
    146300   577.46383      17194.275     -1047.2495      1202.0978      2218.3228      16114.691      187.7086       58.972587      0.68808477     51498.138    
    146400   590.63341      17173.713     -1094.3441      1197.0749      2240.903       16032.807      268.10868      69.702396      0.68668473     51603.134    
    146500   589.76378      17296.286     -1078.44        1201.8256      2251.7956      16110.337      268.73465      81.809322      0.68583862     51666.796    
    146600   604.95505      17200.56      -1090.3805      1206.5513      2277.6031      16086.706      212.11622      47.44069       0.68531148     51706.538    
    146700   592.89199      17295.804     -1073.893       1216.2164      2274.1698      16126.109      213.33781      78.026112      0.68499883     51730.138    
    146800   586.49964      17326.446     -1095.9103      1225.0903      2274.4289      16169.563      229.5711       64.346111      0.68517592     51716.768    
    146900   581.4373       17334.312     -1066.6946      1227.1167      2222.8863      16143.61       280.34843      68.358184      0.68547695     51694.056    
    147000   590.67616      17218.139     -1051.8238      1214.8887      2316.6784      16053.206      152.89256      74.275625      0.68570093     51677.17     
    147100   588.70091      17209.877     -1072.1437      1215.3825      2253.9313      16039.339      257.45963      56.206666      0.68582039     51668.17     
    147200   574.9943       17303.332     -1065.71        1207.3544      2292.7489      16103.04       239.18703      66.736478      0.68600432     51654.317    
    147300   580.56969      17212.262     -1086.6163      1213.5014      2266.3451      16067.512      213.44543      76.982017      0.68617469     51641.491    
    147400   580.04443      17188.5       -1054.9186      1218.9987      2199.5461      16086.384      194.78243      83.504474      0.68636361     51627.277    
    147500   571.39234      17195.217     -1100.8053      1224.3565      2277.159       16138.764      130.50879      65.416795      0.68658241     51610.824    
    147600   564.4095       17225.005     -1048.3193      1221.0547      2235.316       16144.028      155.01255      57.480255      0.68679969     51594.496    
    147700   575.65828      17141.65      -1054.0291      1221.1213      2221.445       16080.626      149.53989      62.751998      0.68685608     51590.261    
    147800   593.71343      17061.926     -1123.5801      1211.7574      2254.7616      15924.953      265.3666       68.432541      0.68676134     51597.377    
    147900   591.43407      17186.822     -1107.7879      1206.2932      2377.8278      16029.188      158.07399      64.6599        0.68707116     51574.111    
    148000   601.84005      17142.105     -1068.4071      1197.8638      2186.2718      16090.518      217.80715      59.854052      0.68708471     51573.094    
    148100   596.52268      17194.658     -1084.5083      1195.3249      2256.4116      16076.954      235.44492      57.726804      0.68698511     51580.571    
    148200   575.42502      17363.52      -1097.5588      1207.6104      2340.9705      16157.916      212.9151       83.200255      0.68659539     51609.848    
    148300   588.37146      17223.341     -1131.8116      1209.0694      2282.4829      16195.553      159.17361      50.880399      0.6858618      51665.05     
    148400   585.29736      17218.946     -1092.9499      1218.5418      2288.7083      16074.244      204.24275      68.626237      0.68514671     51718.973    
    148500   572.12344      17295.61      -1088.528       1222.1404      2278.6017      16198.997      168.36489      58.099281      0.68462687     51758.243    
    148600   583.16801      17144.615     -1080.6173      1230.1033      2237.2452      16100.46       134.31429      65.451116      0.68407207     51800.22     
    148700   578.88696      17083.564     -1085.8675      1223.4931      2147.171       16051.003      227.38128      63.003911      0.68345799     51846.762    
    148800   572.07789      17048.657     -1053.2302      1211.8034      2108.2966      16085.288      163.45177      75.674958      0.68290791     51888.525    
    148900   556.86376      17173.043     -1104.0765      1211.1846      2157.5259      16198.547      180.06933      71.530538      0.68188548     51966.328    
    149000   572.17691      17118.361     -1083.3598      1212.3806      2195.6683      16181.498      91.892832      62.424726      0.68069875     52056.925    
    149100   581.54374      17143.502     -1068.5111      1219.2872      2278.1902      16105.302      89.634375      60.592005      0.67928438     52165.315    
    149200   584.20427      17174.903     -1056.4656      1224.3408      2197.5569      16050.887      228.32407      71.273817      0.67771967     52285.755    
    149300   584.2084       17227.504     -1072.1912      1216.1868      2259.3301      16090.442      205.03358      66.500189      0.67595322     52422.391    
    149400   583.73905      17280.322     -1068.309       1212.9772      2289.1535      16049.844      281.8691       52.853863      0.67387794     52583.831    
    149500   574.09917      17407.195     -1073.9691      1214.9641      2348.9803      16164.409      204.36922      84.347869      0.67172159     52752.635    
    149600   583.12164      17360.931     -1083.8565      1218.9517      2299.8833      16162.224      238.39868      61.748685      0.66951717     52926.326    
    149700   584.40171      17361.786     -1054.0046      1222.3388      2348.7421      16184.411      119.29935      77.787059      0.66799148     53047.21     
    149800   594.37688      17266.736     -1069.0134      1220.6008      2250.5164      16227.758      116.75233      57.320484      0.66665761     53153.348    
    149900   589.4306       17277         -1034.2332      1217.4646      2241.3775      16065.446      252.12202      73.769626      0.66567365     53231.916    
    150000   586.72311      17221.609     -997.29958      1212.2929      2297.4272      16076.24       132.52056      39.398789      0.66482907     53299.541    
    150100   569.73057      17287.224     -1026.5967      1214.5593      2204.3126      16287.563      90.083421      58.503569      0.66360518     53397.841    
    150200   570.96947      17230.866     -1034.9145      1215.697       2170.2275      16159.419      174.45229      85.954732      0.66273112     53468.266    
    150300   579.0481       17170.21      -1039.5197      1211.1367      2321.6491      16013.106      145.86331      58.245361      0.66189752     53535.605    
    150400   569.43536      17312.431     -995.10353      1203.7899      2281.47        16154.125      142.13077      64.591581      0.66077461     53626.582    
    150500   581.99748      17295.708     -1016.0843      1198.9284      2257.2225      16169.95       157.72391      66.889193      0.6599721      53691.791    
    150600   598.17774      17221.796     -1052.4619      1204.5883      2291.8249      16014.129      249.57446      54.630185      0.65904267     53767.511    
    150700   587.27788      17329.278     -1035.7986      1200.4627      2292.8997      16074.888      266.12736      71.123024      0.65827752     53830.008    
    150800   585.18448      17330.74      -1045.5537      1213.9066      2273.2696      16111.511      251.29156      67.103136      0.65763877     53882.292    
    150900   579.7344       17350.555     -1042.2062      1213.4492      2297.9907      16139.407      225.97035      56.683457      0.65673257     53956.642    
    151000   582.67472      17295.093     -1033.1829      1224.9015      2331.1418      16079.679      180.44469      50.712261      0.65594092     54021.761    
    151100   570.65472      17380.9       -1028.526       1230.3971      2296.0983      16113.586      241.63566      66.798548      0.65493394     54104.821    
    151200   584.50554      17242.495     -1041.1869      1231.5263      2329.5308      16008.258      198.50971      54.180706      0.65408611     54174.953    
    151300   580.53889      17282.746     -1044.1209      1219.803       2305.8452      16108.592      162.29871      70.092723      0.65276978     54284.198    
    151400   582.84268      17312.796     -1024.3366      1214.9749      2233.4141      16092.022      273.03989      64.074275      0.65124955     54410.916    
    151500   591.86068      17327.411     -996.90623      1205.462       2248.3144      16145.866      208.24679      59.138013      0.64971296     54539.599    
    151600   584.93811      17469.948     -1012.2634      1207.3219      2350.056       16178.063      225.80019      63.39235       0.64803829     54680.541    
    151700   588.37845      17469.41      -1034.913       1212.0393      2298.8065      16171.139      290.49656      75.321176      0.64662041     54800.442    
    151800   601.94005      17314.292     -1035.7554      1212.9434      2314.3828      16078.508      220.2385       67.89722       0.64531209     54911.545    
    151900   579.30969      17435.045     -1034.3944      1213.9716      2398.646       16215.375      141.15917      44.415505      0.64407513     55017.004    
    152000   576.97857      17379.29      -1000.0943      1211.5167      2286.1192      16091.713      262.11177      72.303897      0.64303515     55105.983    
    152100   589.47016      17239.896     -985.69441      1212.1667      2226.1028      16009.268      271.54638      50.344998      0.6421628      55180.842    
    152200   590.85294      17226.963     -964.66963      1204.8684      2235.858       16020.368      208.67257      64.071218      0.64175551     55215.862    
    152300   572.32225      17395.889     -984.58955      1204.139       2370.2495      16148.784      124.4117       75.713295      0.64127485     55257.249    
    152400   576.42899      17367.683     -978.39113      1200.5936      2266.569       16080.488      265.38164      73.504499      0.64092383     55287.512    
    152500   583.23897      17328.308     -991.84363      1200.6863      2368.8527      16033.54       219.65749      38.515185      0.64106073     55275.706    
    152600   578.20486      17402.478     -977.09341      1201.3583      2264.3456      16234.94       161.80599      57.159831      0.64145714     55241.546    
    152700   600.55736      17270.788     -996.69949      1193.1511      2244.8769      16111.472      189.52257      67.083452      0.6415611      55232.595    
    152800   600.04839      17362.479     -1004.0554      1198.8502      2266.2298      16122.96       261.12566      56.463587      0.64175374     55216.015    
    152900   601.06313      17410.014     -974.64892      1196.8081      2325.7705      16071.375      269.63524      59.857059      0.64224414     55173.853    
    153000   593.10835      17480.185     -984.73433      1190.106       2348.0128      16131.771      267.79856      65.407299      0.64298659     55110.145    
    153100   594.51201      17389.897     -997.0628       1204.5185      2242.3897      16205.315      204.38135      66.114836      0.64372755     55046.71     
    153200   590.31456      17297.628     -994.76201      1201.6393      2215.8215      16139.526      213.70386      57.610916      0.64484019     54951.73     
    153300   582.78542      17304.572     -964.73546      1196.0099      2264.6425      16062.155      227.50017      57.477565      0.64580611     54869.54     
    153400   573.80672      17370.679     -1062.8158      1203.8129      2212.6907      16103.285      386.24929      65.773787      0.64629656     54827.902    
    153500   576.15602      17351.881     -1015.4568      1200.4207      2184.7651      16123.597      326.03492      70.289548      0.64691291     54775.664    
    153600   579.33353      17337.363     -1015.7446      1198.0118      2262.4328      16093.251      276.22516      62.89932       0.64797812     54685.618    
    153700   591.05883      17261.273     -1029.5382      1193.8528      2262.6733      16112.973      200.2292       60.730281      0.64890791     54607.262    
    153800   597.7371       17229.383     -1036.095       1196.7501      2278.5786      16040.331      224.1007       63.008602      0.64979118     54533.033    
    153900   587.90737      17335.9       -988.3503       1206.4356      2311.8117      16088.332      195.80072      59.284271      0.65110317     54423.148    
    154000   591.03354      17326.303     -981.6874       1210.5157      2334.2176      16006.929      220.18245      74.327068      0.65240018     54314.952    
    154100   596.10032      17296.788     -1012.5435      1218.3342      2305.0281      15992.552      260.16433      71.288695      0.65321049     54247.573    
    154200   576.8179       17455.317     -1010.8733      1210.2327      2267.6782      16222.64       218.8968       84.318356      0.65419535     54165.907    
    154300   580.92727      17376.087     -1028.1271      1204.1246      2256.9874      16219.131      189.79452      71.455683      0.65532653     54072.409    
    154400   572.40468      17396.126     -1022.5114      1211.9633      2290.8829      16051.13       315.798        87.217514      0.65674758     53955.408    
    154500   577.26265      17297.469     -1045.4422      1203.5254      2343.9985      16169.411      119.40064      44.90066       0.65804852     53848.74     
    154600   578.47883      17246.337     -1056.3059      1199.2014      2280.044       16047.334      237.73044      75.390087      0.65934554     53742.813    
    154700   583.504        17186.43      -1020.059       1201.8509      2294.0006      15892.247      289.09488      65.795511      0.66082709     53622.324    
    154800   577.00917      17255.8       -1036.8521      1210.4431      2306.0084      16036.98       219.88846      55.651173      0.66233353     53500.363    
    154900   595.76481      17166.566     -1043.7781      1199.8035      2260.7152      16019.641      201.33142      64.68356       0.66431352     53340.905    
    155000   589.64213      17334.715     -1027.9434      1203.3358      2286.1103      15966.387      375.62268      69.65054       0.66656303     53160.891    
    155100   597.66925      17313.594     -1018.6375      1210.9284      2312.0078      16055.684      222.92735      69.092296      0.66879478     52983.494    
    155200   595.22916      17332.911     -1044.3295      1205.4919      2265.7969      16147.222      227.14045      69.602275      0.67093726     52814.304    
    155300   596.09017      17289.902     -1012.0873      1216.3827      2253.909       16108.006      188.99647      72.214121      0.67317258     52638.929    
    155400   598.87205      17209.576     -1033.3183      1219.049       2240.0591      16013.384      248.85692      61.807161      0.6756494      52445.964    
    155500   584.2361       17269.765     -1083.4811      1212.1491      2274.0118      16108.9        243.90171      53.759771      0.67791527     52270.668    
    155600   583.05624      17217.219     -1064.1648      1217.2416      2278.2021      16052.406      205.56433      66.314326      0.68026254     52090.306    
    155700   575.76282      17260.606     -1091.7026      1208.0898      2290.0681      16019.151      310.62703      64.263918      0.68275743     51899.961    
    155800   595.58113      17077.425     -1072.6731      1210.1014      2112.8945      16007.512      303.64848      56.141458      0.68525455     51710.833    
    155900   586.32986      17169.875     -1055.0294      1201.4805      2210.4306      16036.098      255.47121      63.469178      0.68742509     51547.557    
    156000   586.63631      17189.591     -1098.228       1209.3476      2284.2081      15949.987      290.56473      95.778168      0.68893007     51434.951    
    156100   576.3109       17308.459     -1101.9275      1205.5987      2291.2567      16148.841      240.34443      66.191803      0.69037619     51327.211    
    156200   584.10349      17272.333     -1063.647       1208.4416      2218.2073      16066.696      330.35877      53.50891       0.69160362     51236.117    
    156300   590.05995      17269.472     -1107.0912      1215.0553      2271.6324      16096.808      262.43244      70.984915      0.69252823     51167.711    
    156400   594.71705      17298.353     -1094.811       1209.4435      2323.8643      16110.748      226.17054      63.246994      0.69342129     51101.812    
    156500   593.15821      17401.255     -1059.4456      1209.981       2391.3805      16154.411      179.54116      66.140734      0.69464081     51012.097    
    156600   594.4918       17453.83      -1074.7407      1214.9791      2414.0904      16145.895      231.98888      62.637866      0.69568098     50935.824    
    156700   606.58431      17350.15      -1069.6601      1217.8828      2313.2246      16133.932      240.70055      54.035382      0.69660989     50867.902    
    156800   599.30919      17304.696     -1054.9004      1213.2368      2310.0298      16286.312      24.343924      63.756295      0.69748131     50804.349    
    156900   598.91432      17177.1       -1070.1374      1213.5112      2204.5661      16115.789      208.08369      43.192292      0.69789731     50774.066    
    157000   585.90821      17243.037     -1067.0703      1208.9934      2237.2599      16058.405      277.45446      64.887301      0.69801695     50765.364    
    157100   587.97144      17203.928     -1073.8667      1212.389       2262.5524      16122.441      164.22635      54.597239      0.69811353     50758.34     
    157200   573.20866      17318.834     -1024.9066      1210.4513      2324.4917      16067.697      225.38006      53.354186      0.69814963     50755.715    
    157300   577.78416      17279.807     -1086.5678      1216.9487      2321.4691      15976.807      327.17497      60.848495      0.69782772     50779.129    
    157400   576.72474      17305.966     -1080.7836      1225.7849      2267.6272      16144.691      218.80623      66.82584       0.69755691     50798.843    
    157500   582.83108      17283.168     -1062.6114      1223.64        2284.9918      16158.808      150.57331      63.448262      0.69764487     50792.439    
    157600   581.35868      17348.785     -1063.0492      1230.5731      2232.4809      16137.194      262.19368      84.894702      0.69749134     50803.619    
    157700   596.36622      17271.181     -1086.8662      1224.7489      2260.7835      16150.855      183.53429      73.361988      0.69717465     50826.696    
    157800   602.04007      17265.27      -1094.658       1220.629       2365.9456      16040.667      217.21306      53.316855      0.69702193     50837.832    
    157900   594.61365      17348.973     -1062.055       1225.7689      2306.3278      16052.814      282.89217      77.169179      0.69694292     50843.596    
    158000   599.3852       17268.01      -1094.0598      1202.9547      2247.7353      16088.01       290.40332      67.094826      0.69665206     50864.824    
    158100   596.14741      17171.643     -1096.0038      1198.7169      2238.1989      16066.957      222.52942      77.477018      0.69671839     50859.981    
    158200   585.35614      17168.504     -1092.2         1213.4735      2283.7099      16069.969      177.91374      52.599253      0.69717327     50826.796    
    158300   565.3805       17302.963     -1125.1639      1215.3061      2270.1946      16103.479      300.3904       76.282333      0.69770584     50788        
    158400   571.21512      17253.554     -1095.368       1222.13        2313.7448      16030.126      278.56264      42.97653       0.69880989     50707.759    
    158500   581.73683      17200.575     -1070.2954      1218.5172      2248.7699      16094.14       197.94717      49.967457      0.69966296     50645.934    
    158600   587.44725      17211.089     -1111.666       1227.7971      2254.2409      16046.45       272.73473      60.500888      0.70068217     50572.264    
    158700   584.24685      17307.535     -1093.8119      1210.1671      2346.2215      16019.798      293.2701       72.23524       0.7018047      50491.375    
    158800   576.19664      17426.304     -1098.8217      1230.1384      2369.3958      16067.951      328.81429      67.431186      0.70329525     50384.364    
    158900   585.62846      17356.889     -1106.047       1221.5846      2320.9288      16145.796      252.17934      64.056691      0.70449216     50298.763    
    159000   586.16915      17327.089     -1126.3351      1218.3047      2341.3321      16096.307      275.29266      65.003876      0.70571055     50211.923    
    159100   580.49377      17314.399     -1088.0535      1210.5995      2323.7541      16094.182      253.9159       63.35185       0.70762293     50076.224    
    159200   588.86211      17121.259     -1094.6993      1199.8443      2195.162       16103.917      186.41538      73.243079      0.70942503     49949.019    
    159300   584.67541      17047.974     -1106.7927      1193.9478      2221.2018      16018.691      208.49922      54.589418      0.7109074      49844.866    
    159400   570.40748      17156.367     -1062.0188      1197.6733      2316.0761      16001.258      205.28273      40.595602      0.71234816     49744.052    
    159500   576.59356      17127.877     -1109.7824      1202.0378      2293.7108      15986.288      242.32955      57.074081      0.71324917     49681.213    
    159600   585.7332       17099.045     -1138.9507      1205.6808      2318.9073      16003.144      207.99253      44.471761      0.71418739     49615.948    
    159700   580.72145      17207.952     -1109.3129      1204.9466      2380.5984      15966.219      236.03075      71.076211      0.71524076     49542.876    
    159800   586.12865      17224.618     -1137.8873      1215.3761      2325.5683      16038.699      277.91119      45.964793      0.71621925     49475.191    
    159900   566.89233      17446.087     -1140.4551      1212.8133      2410.1306      16150.615      269.08424      83.31993       0.71735117     49397.123    
    160000   584.24553      17319.947     -1153.8184      1219.853       2404.4849      16045.192      287.16058      56.84022       0.71853163     49315.969    
    160100   587.86596      17291.547     -1141.6318      1215.801       2275.9155      16172.306      247.04081      60.65782       0.72012907     49206.573    
    160200   594.11285      17206.639     -1104.7869      1209.2026      2273.7381      15968.642      329.74362      68.29294       0.72152521     49111.36     
    160300   585.36625      17218.836     -1144.713       1216.5152      2236.5208      16066.08       324.98255      60.083434      0.72247648     49046.696    
    160400   572.89566      17224.475     -1112.0835      1208.0166      2302.5423      16054.174      244.58124      66.773422      0.7232818      48992.086    
    160500   567.2622       17194.86      -1131.1696      1208.6961      2242.3741      16034.421      331.23568      49.278908      0.72378874     48957.772    
    160600   562.05456      17228.428     -1114.4746      1204.6074      2246.6023      15966.132      400.26632      66.144054      0.72447634     48911.306    
    160700   583.04126      17077.201     -1145.6884      1210.1419      2220.4399      16031.762      240.647        60.607672      0.72518158     48863.74     
    160800   580.61079      17164.947     -1151.3596      1206.1587      2249.2501      16057.093      268.40397      77.463065      0.72595285     48811.826    
    160900   580.00904      17231.29      -1155.7373      1205.9698      2280.7236      16035.505      348.59062      58.382734      0.72703008     48739.502    
    161000   581.59138      17250.528     -1132.3401      1209.0288      2319.9762      16058.579      273.92968      62.847176      0.7278795      48682.624    
    161100   580.04728      17278.433     -1187.6799      1210.3977      2372.2682      16059.544      305.845        58.100467      0.72842008     48646.495    
    161200   590.05366      17185.4       -1146.2102      1202.4693      2338.9382      15988.752      285.8082       54.940904      0.72910293     48600.935    
    161300   585.75209      17195.403     -1145.3256      1195.3601      2330.8165      16049.366      238.44132      67.529817      0.72982132     48553.095    
    161400   580.9276       17188.631     -1129.6841      1196.5226      2286.9491      16070.151      241.97965      64.095452      0.72997436     48542.916    
    161500   581.37834      17129.234     -1161.1756      1201.3958      2271.8862      16028.26       277.96476      49.7757        0.72953303     48572.282    
    161600   572.54431      17158.994     -1157.2304      1202.8973      2355.2052      15931.976      288.78861      75.019397      0.7284857      48642.114    
    161700   573.78319      17105.383     -1148.7208      1205.9016      2256.2919      16001.047      269.48142      58.358966      0.72738482     48715.732    
    161800   572.18119      17112.896     -1136.497       1207.2579      2247.0307      16030.98       255.2562       47.607294      0.72628298     48789.638    
    161900   573.9415       17157.949     -1111.975       1206.2543      2237.2751      16034.374      267.39846      65.558999      0.72507599     48870.856    
    162000   592.38997      17107.655     -1124.9877      1212.7486      2270.4751      15986.775      262.33105      43.758273      0.72370376     48963.521    
    162100   590.59905      17205.313     -1145.425       1210.3415      2433.1111      16060.505      126.51878      64.747577      0.72224332     49062.529    
    162200   596.09333      17188.305     -1132.8307      1216.2101      2322.3607      16095.362      158.11747      69.864077      0.72095949     49149.896    
    162300   584.7482       17294.859     -1122.3757      1215.1739      2350.8393      16096.928      235.41399      60.660397      0.7193332      49261.016    
    162400   587.66022      17258.398     -1125.7429      1207.4243      2322.1191      15977.809      359.61948      59.271723      0.7175715      49381.956    
    162500   585.49644      17242.58      -1125.0893      1200.9116      2317.0322      16028.608      296.87615      67.254171      0.71598588     49491.317    
    162600   583.18627      17199.054     -1114.9677      1202.0264      2342.0738      15997.801      257.38166      56.256865      0.71412475     49620.299    
    162700   584.75513      17103.531     -1120.6156      1201.5683      2330.3039      15956.671      207.15568      67.892279      0.71212332     49759.758    
    162800   579.24939      17080.169     -1132.4013      1210.1681      2291.3779      15988.175      201.4554       61.102695      0.71031137     49886.691    
    162900   571.66069      17117.656     -1119.2957      1202.1402      2271.0467      16084.194      151.87486      67.111831      0.70866844     50002.345    
    163000   571.77886      17144.765     -1124.8673      1194.4885      2277.2395      15980.612      290.94174      65.936724      0.70725248     50102.453    
    163100   567.67401      17279.366     -1101.2974      1199.2555      2233.5815      16111.963      295.93519      76.804549      0.70639385     50163.353    
    163200   581.44574      17286.201     -1092.1389      1194.5293      2345.0051      16102.688      201.62417      72.35724       0.70557156     50221.814    
    163300   581.55354      17323.314     -1093.3187      1203.745       2347.4157      16073.571      270.19963      59.732266      0.70509519     50255.745    
    163400   585.57704      17279.519     -1078.3228      1217.2706      2329.3755      16095.676      169.68182      83.963092      0.70447236     50300.177    
    163500   584.99645      17265.798     -1071.0046      1211.4323      2309.4896      16192.737      97.571585      63.895803      0.70373667     50352.76     
    163600   586.87388      17227.397     -1055.5014      1211.6166      2254.043       16113.526      179.18453      63.262642      0.70304884     50402.023    
    163700   585.52439      17245.24      -1095.7257      1208.1148      2295.019       16040.842      273.87189      61.257881      0.70197514     50479.115    
    163800   571.28853      17330.335     -1122.2554      1210.6616      2339.8703      16140.228      228.93186      72.030837      0.70122297     50533.262    
    163900   577.23413      17226.814     -1109.9733      1216.6237      2350.4449      16075.535      176.57413      56.172661      0.70113307     50539.741    
    164000   577.62183      17168.531     -1073.6921      1210.1794      2227.4639      16007.715      271.48834      63.190913      0.70130545     50527.319    
    164100   575.45008      17149.686     -1104.3498      1210.4678      2275.132       16071.309      172.07519      64.535569      0.70181893     50490.351    
    164200   578.16311      17113.061     -1095.0317      1208.1053      2332.9815      16099.098      43.494275      62.593113      0.70259226     50434.777    
    164300   579.75415      17142.155     -1097.0846      1211.9482      2253.4839      15995.849      254.76469      62.718351      0.70344028     50373.976    
    164400   599.07037      17080.171     -1094.634       1215.0826      2261.7074      15972.531      202.62935      60.744701      0.70421515     50318.549    
    164500   583.33334      17312.442     -1101.6979      1216.8874      2374.18        16096.487      210.52211      54.818879      0.70516217     50250.971    
    164600   586.15345      17323.586     -1063.3583      1218.2425      2326.1894      16118.657      184.82269      78.943594      0.70630058     50169.977    
    164700   589.29685      17296.12      -1098.2883      1216.1785      2287.9401      16076.052      270.54517      81.772825      0.70691144     50126.624    
    164800   587.20209      17280.433     -1053.0272      1222.2165      2313.1217      16088.128      180.88745      66.646066      0.70724954     50102.661    
    164900   584.17045      17241.338     -1085.8621      1216.1177      2280.9908      16063.696      240.48342      63.572546      0.70722837     50104.161    
    165000   577.77628      17220.372     -1123.739       1222.1487      2271.5206      16123.123      193.38648      72.018626      0.70750784     50084.37     
    165100   570.41931      17238.42      -1120.4077      1220.7603      2296.7007      16069.513      231.64407      79.547793      0.70812032     50041.05     
    165200   572.19131      17213.514     -1099.6087      1213.2982      2244.3813      16142.186      178.37487      72.856609      0.70885724     49989.028    
    165300   567.19725      17280.32      -1078.4704      1222.0882      2310.8865      16071.588      221.96401      69.412306      0.70944377     49947.699    
    165400   572.28486      17261.666     -1115.3765      1222.3085      2244.1335      16057.311      340.08961      51.577468      0.70975164     49926.033    
    165500   578.97247      17224.318     -1153.0109      1206.1981      2343.758       16110.5        176.83959      75.672384      0.7103063      49887.048    
    165600   584.97424      17182.665     -1133.1011      1215.671       2271.4233      16041.99       249.7005       72.535649      0.71125781     49820.309    
    165700   588.33642      17160.234     -1114.3766      1205.7146      2239.8912      16027.592      273.18613      67.255664      0.71260059     49726.431    
    165800   588.06192      17152.382     -1128.5727      1215.556       2270.9932      15975.07       283.94661      74.587584      0.71377295     49644.756    
    165900   586.70913      17135.095     -1110.1551      1211.5142      2201.0166      16010.365      283.37967      79.907712      0.71500472     49559.231    
    166000   586.81416      17075.34      -1139.4094      1218.0233      2381.412       15929.027      167.78613      60.846703      0.71613675     49480.89     
    166100   575.59121      17090.853     -1119.9499      1206.313       2187.7322      15975.875      304.31466      76.66503       0.7171135      49413.495    
    166200   573.31661      17049.924     -1130.3801      1210.6425      2206.4495      15971.908      283.53773      49.105875      0.71778948     49366.959    
    166300   565.11817      17112.704     -1145.4869      1203.7136      2221.7118      16054.014      242.28026      77.377631      0.71810688     49345.139    
    166400   572.54843      17090.205     -1148.1879      1199.0182      2248.4814      16123.929      134.99132      73.870664      0.71842407     49323.353    
    166500   584.02118      17098.657     -1150.3048      1191.2155      2249.4053      16046.708      235.26232      68.399806      0.71827235     49333.771    
    166600   586.01476      17168.074     -1129.9879      1198.3225      2260.6743      16111.955      211.4223       57.556806      0.71796955     49354.578    
    166700   588.73428      17174.564     -1174.1844      1201.928       2189.5816      16224.948      209.30242      66.263213      0.71743174     49391.576    
    166800   597.36212      17105.85      -1150.0916      1189.4158      2226.9043      16060.051      266.09662      57.932612      0.71678065     49436.441    
    166900   580.83386      17248.898     -1140.9052      1184.1158      2305.0027      16067.925      316.01789      60.958786      0.71629435     49470.004    
    167000   591.54178      17133.707     -1139.38        1190.8994      2304.629       16078.612      198.50164      44.112466      0.71534087     49535.942    
    167100   583.50673      17160.361     -1142.0304      1192.036       2209.3467      16147.599      244.89995      51.759056      0.7142474      49611.779    
    167200   588.12281      17045.412     -1143.3703      1196.3319      2244.3999      16007.778      213.3474       70.502825      0.71367775     49651.379    
    167300   582.35578      17018.424     -1137.636       1198.4916      2244.1905      16061.478      137.69755      58.051578      0.71334578     49674.485    
    167400   583.23688      16966.181     -1122.6284      1193.8324      2218.9193      16006.356      152.45832      60.905466      0.71293813     49702.888    
    167500   572.76172      17064.214     -1148.6565      1209.5912      2196.396       16072.391      212.17396      65.342315      0.7127763      49714.173    
    167600   576.57569      17126.247     -1118.0675      1212.6341      2235.3959      16050.185      232.32601      57.36633       0.7129773      49700.158    
    167700   590.80915      17152.309     -1146.3261      1212.3867      2269.0165      16051.481      261.26624      46.631364      0.71354368     49660.708    
    167800   601.85868      17095.738     -1126.8422      1212.6967      2192.8617      16007.919      293.01615      56.323177      0.71400663     49628.508    
    167900   585.63762      17243.897     -1124.1129      1213.5832      2413.332       16074.058      152.15415      56.364441      0.71437184     49603.137    
    168000   574.70618      17321.446     -1108.1842      1226.2888      2361.9217      16068.594      230.49087      81.446661      0.71487045     49568.539    
    168100   575.7729       17283.151     -1131.9009      1220.4489      2379.8183      16028.89       263.9612       63.289083      0.71562629     49516.186    
    168200   597.31313      17044.943     -1121.6131      1216.0255      2229.2023      15972.116      235.56122      54.246787      0.71627938     49471.037    
    168300   568.80446      17238.384     -1152.2532      1206.8569      2267.8256      16173.822      220.10709      62.291638      0.71711392     49413.465    
    168400   586.86676      17021.284     -1155.4601      1202.9733      2141.9731      16120.988      196.97378      54.577857      0.7180082      49351.921    
    168500   588.29271      16978.564     -1147.5725      1206.5439      2095.977       16165.406      132.69321      65.09734       0.71889955     49290.73     
    168600   584.46115      17025.605     -1129.6658      1207.7705      2223.8424      16039.359      168.464        56.234665      0.71984764     49225.811    
    168700   580.31499      17133.692     -1155.9647      1194.1133      2305.3         15984.72       286.46668      58.863923      0.72052415     49179.592    
    168800   589.16897      17175.695     -1153.6464      1204.476       2458.0222      16033.714      115.77068      56.289845      0.7213292      49124.705    
    168900   607.81433      17080.571     -1162.5073      1198.3732      2332.4642      16055.997      125.64699      69.103029      0.72246483     49047.486    
    169000   596.08665      17184.002     -1136.9719      1203.9555      2322.6633      16077.075      189.64175      64.192925      0.72390641     48949.814    
    169100   583.39546      17255.508     -1133.7327      1200.5983      2361.8485      16106.624      180.97078      77.139469      0.72518605     48863.439    
    169200   588.368        17152.479     -1142.8806      1211.1052      2259.2028      16033.667      260.60068      67.630073      0.72629995     48788.499    
    169300   588.62121      17089.87      -1141.9568      1204.9256      2210.569       16032.492      239.15537      81.510468      0.7271433      48731.913    
    169400   571.40987      17199.694     -1152.7044      1204.7044      2257.7511      16185.838      176.09422      65.539869      0.7278911      48681.848    
    169500   575.86726      17130.55      -1165.4118      1204.783       2318.8133      16037.663      223.48503      49.889115      0.72854934     48637.865    
    169600   586.55205      17022.329     -1159.1515      1212.6823      2219.9359      15942.482      277.37813      68.978163      0.72930191     48587.675    
    169700   579.84525      17089.363     -1185.3642      1220.99        2300.0079      15980.269      240.90794      73.424796      0.73064918     48498.082    
    169800   574.00502      17164.76      -1140.3667      1218.3901      2391.4902      16017.095      151.0678       69.004715      0.73199921     48408.637    
    169900   580.943        17172.139     -1112.1387      1216.9161      2281.8705      16037.71       235.46907      53.594525      0.73322021     48328.024    
    170000   589.92568      17216.469     -1145.397       1217.9823      2284.5905      16186.233      145.88463      68.22598       0.73477529     48225.743    
    170100   602.05016      17176.391     -1150.7962      1207.9904      2235.4252      16086.603      270.22907      69.256221      0.73574563     48162.14     
    170200   598.17579      17198.164     -1186.8612      1194.065       2403.1948      16063.974      200.53139      67.053236      0.73658509     48107.251    
    170300   598.00326      17141.221     -1162.4348      1191.4679      2370.9599      16091.383      139.24485      54.918211      0.73717757     48068.587    
    170400   586.36937      17166.905     -1133.4551      1192.9123      2301.1527      16081.393      195.33568      73.829477      0.73760066     48041.014    
    170500   589.55114      17069.603     -1151.5785      1191.3418      2296.8872      16096.496      135.89038      47.139548      0.73782965     48026.105    
    170600   585.44429      17047.926     -1163.2377      1189.0197      2309.5974      16100.361      85.106157      71.851499      0.73765479     48037.49     
    170700   581.90092      17040.429     -1170.5366      1198.0628      2287.5265      15966.888      237.96038      63.395442      0.73742268     48052.61     
    170800   579.10749      17045.426     -1169.9882      1199.6813      2183.5302      16158.105      164.51665      51.472441      0.73760596     48040.669    
    170900   572.9927       17099.287     -1144.0149      1193.1522      2295.3948      16082.411      138.33018      74.645214      0.73746558     48049.814    
    171000   576.97395      17103.389     -1201.161       1202.041       2270.7813      16154.729      161.7362       55.242003      0.73736378     48056.448    
    171100   579.62735      17170.623     -1158.6543      1190.521       2333.27        16069.381      227.83916      49.041069      0.73770113     48034.472    
    171200   596.23876      17135.079     -1134.453       1183.8498      2310.2257      16041.04       223.76764      52.961169      0.73809614     48008.765    
    171300   587.7209       17256.275     -1138.9164      1201.5906      2308.8064      16173.468      209.25182      41.322063      0.7386548      47972.455    
    171400   585.30576      17278.57      -1154.0379      1205.634       2348.7579      16191.844      146.26777      78.612028      0.73919443     47937.434    
    171500   600.05992      17115.492     -1147.646       1200.2503      2242.5622      16050.269      241.80407      64.323793      0.73935961     47926.724    
    171600   574.59052      17295.583     -1148.5076      1199.8928      2315.7635      16128.326      279.11564      57.163013      0.73973939     47902.119    
    171700   588.13441      17138.663     -1162.777       1207.9028      2242.0766      16058.534      269.64715      59.6474        0.74021701     47871.21     
    171800   591.16799      17075.151     -1162.3285      1196.2331      2293.7491      16035.618      195.35717      52.923451      0.74058571     47847.378    
    171900   577.18684      17170.513     -1147.0808      1204.8629      2353.2068      16027.92       214.29652      54.906065      0.7407061      47839.601    
    172000   575.78889      17163.843     -1158.7489      1203.1746      2285.1007      16106.044      207.21034      57.71864       0.74064448     47843.581    
    172100   580.77185      17116.655     -1146.3215      1200.2786      2282.0237      16099.058      167.48189      52.004204      0.74091025     47826.419    
    172200   580.39024      17125.012     -1118.1492      1203.8272      2240.6851      15981.396      318.724        34.915352      0.74130918     47800.682    
    172300   573.54249      17192.362     -1124.9068      1191.8134      2343.9239      16133.665      118.7144       67.782187      0.7413895      47795.503    
    172400   577.00003      17164.067     -1163.4287      1195.8571      2374.3896      16178.026      54.461553      63.835725      0.74116502     47809.979    
    172500   577.59795      17153.243     -1171.1764      1194.4125      2348.9596      16093.969      171.05363      55.093951      0.74101681     47819.541    
    172600   585.54612      17076.512     -1137.0905      1194.1289      2274.8163      16068.751      166.90202      46.222898      0.74105723     47816.933    
    172700   581.07377      17128.98      -1095.2199      1191.6081      2277.7373      16111.51       131.78145      47.576065      0.74091837     47825.895    
    172800   591.4917       17089.49      -1173.424       1187.5888      2356.5578      16008.117      206.11167      42.523233      0.74038522     47860.334    
    172900   593.21344      17180.501     -1131.5278      1192.1922      2311.4627      16183.612      101.01412      61.519084      0.73993271     47889.604    
    173000   602.27678      17173.681     -1128.7459      1195.7899      2309.8708      16089.386      191.24662      53.916096      0.7395896      47911.82     
    173100   600.14426      17197.175     -1122.026       1199.2653      2259.3278      16083.226      256.56948      59.070345      0.73857444     47977.674    
    173200   586.35042      17264.377     -1125.3578      1205.8175      2379.7818      16156.547      121.11383      66.567398      0.73757612     48042.613    
    173300   587.42035      17157.415     -1148.2604      1221.0761      2304.9019      16136.579      97.514203      85.014716      0.73661878     48105.051    
    173400   585.48035      17101.509     -1164.5983      1212.3419      2326.2482      15988.037      216.66907      61.281317      0.73574105     48162.44     
    173500   576.16489      17145.5       -1160.0188      1212.2295      2366.0642      15994.493      212.01698      57.632097      0.73500869     48210.429    
    173600   571.90219      17173.269     -1113.216       1200.4605      2312.0074      16057.38       175.89794      75.115785      0.73416685     48265.71     
    173700   577.43005      17133.597     -1131.0843      1198.1312      2276.5708      16084.99       181.89716      58.470048      0.7332392      48326.772    
    173800   581.4081       17132.867     -1139.3618      1191.9579      2332.4894      15968.237      262.48036      53.75132       0.73196896     48410.638    
    173900   581.13483      17189.231     -1125.5625      1186.2368      2302.8134      16090.969      207.54658      65.067022      0.7306528      48497.842    
    174000   591.18857      17167.745     -1160.9787      1203.1375      2305.9898      16044.75       248.01747      65.215885      0.72897642     48609.369    
    174100   592.70955      17218.204     -1191.9672      1205.0711      2286.6745      16104.004      288.7329       65.173806      0.72725062     48724.722    
    174200   594.28004      17253.777     -1191.6345      1209.8334      2311.2171      16127.869      252.72248      82.081483      0.72656708     48770.561    
    174300   595.45061      17258.998     -1135.4603      1204.849       2351.6015      16014.941      296.51866      65.257239      0.72640526     48781.426    
    174400   584.93978      17302.651     -1112.9393      1207.9625      2413.3204      15967.171      306.84604      57.501405      0.72602538     48806.95     
    174500   586.14477      17177.109     -1159.8448      1209.7171      2279.1797      16071.83       245.64414      67.885008      0.72547378     48844.059    
    174600   580.4161       17137.45      -1147.6765      1212.5842      2221.9519      16120.626      205.61594      61.702949      0.72470349     48895.976    
    174700   590.50445      16993.858     -1148.2814      1206.2         2225.1186      16046.209      160.1428       44.010436      0.72407817     48938.202    
    174800   577.59572      17088.461     -1141.7759      1205.2617      2342.4025      16072.151      72.405724      77.296503      0.72355736     48973.428    
    174900   574.56667      17118.406     -1164.7371      1209.3808      2241.6639      16151.967      152.3565       68.826861      0.72327567     48992.501    
    175000   583.11137      17062.483     -1163.5005      1202.6845      2258.995       16037.662      194.14503      77.77802       0.72355518     48973.575    
    175100   596.33908      16997.905     -1121.4061      1204.7981      2151.4007      15996.891      253.76239      57.429716      0.72414025     48934.007    
    175200   585.07225      17176.51      -1162.5352      1195.3709      2320.0489      16077.984      216.92133      74.097336      0.72471167     48895.424    
    175300   586.92414      17227.182     -1159.0234      1193.1484      2308.6479      16070.863      280.79611      78.17374       0.72556722     48837.769    
    175400   589.29722      17245.705     -1168.4631      1191.8092      2343.8376      16155.897      211.15448      56.709501      0.72629313     48788.957    
    175500   592.17811      17218.332     -1124.984       1191.2194      2233.2314      16074.756      313.20584      75.395118      0.72653634     48772.624    
    175600   587.93713      17176.794     -1161.4973      1192.087       2256.985       16113.747      228.63219      89.673739      0.7263971      48781.973    
    175700   580.8491       17083.234     -1162.2165      1194.2833      2292.922       16133.15       114.63344      53.184328      0.72641472     48780.79     
    175800   579.07274      17039.127     -1158.4946      1193.5405      2225.4999      16053.373      205.00831      61.614445      0.72623509     48792.856    
    175900   567.53432      17142.021     -1135.4655      1194.3492      2318.6406      16017.037      221.52245      67.615797      0.72559062     48836.194    
    176000   570.05855      17161.236     -1142.227       1194.842       2365.5894      16019.299      201.98893      63.735977      0.72472761     48894.348    
    176100   578.55963      17144.403     -1148.2192      1200.2018      2310.3718      16129.805      125.53283      68.697399      0.72376299     48959.514    
    176200   587.61666      17131.566     -1141.8324      1194.6646      2151.7369      16174.066      240.52325      56.129464      0.72283246     49022.541    
    176300   590.20821      17156.438     -1141.4427      1194.7053      2333.7895      16074.63       168.99128      68.495343      0.721991       49079.676    
    176400   590.45645      17173.232     -1143.0446      1203.4869      2280.9621      16112.726      199.11129      61.49111       0.72101697     49145.978    
    176500   570.71314      17344.778     -1110.2008      1208.9397      2268.9495      16174.979      267.97442      74.351996      0.71995696     49218.337    
    176600   592.51165      17111.84      -1153.2333      1218.2468      2286.0554      16061.804      167.52059      71.208465      0.71871149     49303.628    
    176700   577.62322      17154.116     -1147.93        1205.4847      2337.1336      15954.718      285.00428      58.987148      0.7169713      49423.295    
    176800   574.50725      17076.258     -1146.0168      1204.9559      2203.5399      16021.388      259.51874      71.598982      0.71549246     49525.448    
    176900   577.1826       17007.167     -1127.1119      1200.9875      2183.5582      15970.341      264.72746      53.800707      0.71434578     49604.946    
    177000   569.46283      17088.239     -1141.1863      1212.7864      2241.0095      16073.364      173.67747      68.641419      0.71308907     49692.368    
    177100   569.07106      17161.489     -1124.4938      1209.4124      2223.6305      16074.353      257.19356      64.295945      0.71177949     49783.795    
    177200   571.54971      17220.124     -1113.5468      1207.4879      2267.2816      16074.656      260.69435      64.910939      0.71133186     49815.123    
    177300   577.06819      17217.944     -1104.6311      1206.4835      2300.5049      16074.995      194.94477      85.756548      0.71127542     49819.076    
    177400   569.8493       17308.243     -1127.9815      1206.195       2284.0187      16181.365      235.50534      69.661895      0.71097347     49840.234    
    177500   578.98133      17250.143     -1130.7293      1209.0382      2324.8804      16100.097      212.94104      75.42246       0.71108602     49832.345    
    177600   579.55815      17266.228     -1106.4773      1203.5349      2302.9764      16167.966      181.08655      58.508162      0.7113645      49812.837    
    177700   584.18019      17237.304     -1116.963       1205.771       2380.731       16080.766      160.60668      66.674733      0.71176041     49785.129    
    177800   589.80003      17177.724     -1104.3426      1201.8123      2342.2835      16137.191      71.432652      70.834376      0.71220265     49754.215    
    177900   574.41127      17270.653     -1129.7691      1192.3264      2255.6196      16240.371      177.78878      74.294938      0.71336292     49673.291    
    178000   574.75686      17186.144     -1094.4089      1200.6386      2366.9018      16030.006      157.38622      64.913751      0.71464195     49584.389    
    178100   563.84011      17203.919     -1100.6237      1190.9098      2241.0108      16128.504      214.42242      69.287856      0.71584528     49501.037    
    178200   571.93445      17097.365     -1102.7271      1193.2052      2192.9688      15990.48       291.2727       72.561979      0.71732281     49399.076    
    178300   566.36666      17162.858     -1149.0793      1195.4488      2239.7755      16083.117      274.0509       58.065503      0.71908529     49277.999    
    178400   585.62046      17061.625     -1134.2306      1185.5362      2276.3387      16107.317      105.89078      58.776333      0.7211357      49137.886    
    178500   586.65597      17167.89      -1122.173       1191.9698      2254.2629      16018.706      309.6766       54.431898      0.72315019     49001.003    
    178600   592.68104      17176.894     -1154.8099      1187.25        2268.1482      16098.029      250.29675      66.765121      0.72511598     48868.161    
    178700   591.72897      17189.224     -1125.6991      1193.6095      2251.5564      16158.574      185.92001      63.40805       0.72730322     48721.198    
    178800   587.73551      17208.18      -1111.7881      1198.8181      2275.1445      16018.507      303.57877      63.726857      0.72908612     48602.056    
    178900   574.22081      17291.561     -1155.7003      1209.1139      2380.2403      16041.825      294.36665      60.995784      0.73043758     48512.131    
    179000   595.56726      17061.442     -1174.8377      1213.7784      2214.3269      16111.603      181.47468      54.707748      0.73186269     48417.667    
    179100   574.66435      17201.029     -1153.5922      1207.3261      2339.8112      16029.918      245.636        71.226986      0.73360456     48302.704    
    179200   577.36866      17137.617     -1159.551       1201.5687      2286.6511      15971.444      320.20235      57.306555      0.73468481     48231.682    
    179300   577.44285      17107.031     -1187.3066      1207.7377      2346.9811      16070.802      154.02153      56.234659      0.73585525     48154.965    
    179400   578.73693      17078.114     -1162.232       1209.9506      2243.6429      16034.907      214.78065      78.737548      0.73744381     48051.233    
    179500   582.48139      17038.311     -1156.5828      1196.3332      2294.5133      15976.312      221.23952      48.533494      0.73887863     47957.923    
    179600   578.92742      17085.695     -1161.8965      1202.2371      2285.9888      16029.769      208.59238      63.576305      0.74013483     47876.525    
    179700   583.6769       17092.28      -1205.4882      1197.4467      2314.3113      15992.448      269.42606      64.805342      0.74104795     47817.532    
    179800   584.96243      17133.233     -1172.2276      1191.0411      2368.0514      16006.407      233.49711      48.0051        0.74205209     47752.826    
    179900   590.7191       17127.386     -1176.1808      1189.8936      2243.8115      16095.953      236.95911      79.713847      0.7429243      47696.763    
    180000   591.66512      17142.018     -1172.9476      1199.3501      2352.0348      16035.238      201.50512      70.438761      0.74416434     47617.283    
    180100   584.62487      17207.742     -1156.8782      1202.5882      2323.3633      15925.546      378.06062      76.25645       0.74507763     47558.915    
    180200   577.44826      17249.75      -1189.4161      1208.8208      2313.4457      16120.579      269.15139      68.250322      0.74564705     47522.597    
    180300   588.70397      17095.389     -1195.168       1210.4398      2259.0389      16080.761      225.37649      56.090278      0.74608242     47494.865    
    180400   596.48847      16937.562     -1193.2155      1221.1542      2240.7747      15882.973      273.37305      53.513665      0.74624417     47484.57     
    180500   574.90473      17051.52      -1204.115       1206.5417      2172.4082      16041.629      296.33153      80.00563       0.74651334     47467.449    
    180600   574.00702      17025.691     -1188.9522      1206.937       2206.0699      16088.36       188.21162      65.023695      0.74698466     47437.499    
    180700   581.05947      16977.705     -1175.0126      1197.0504      2198.7463      15991.634      245.62374      61.439435      0.74725451     47420.368    
    180800   575.28153      17091.413     -1228.4474      1201.89        2236.4932      16093.799      264.63748      64.798362      0.74710951     47429.572    
    180900   588.00031      17050.428     -1196.7603      1199.4811      2270.0067      16134.853      116.8913       65.728493      0.74721139     47423.105    
    181000   579.7801       17166.593     -1181.2486      1211.1692      2238.4833      16027.784      339.02094      70.524007      0.74722977     47421.938    
    181100   576.21637      17210.056     -1178.0155      1203.8163      2367.5799      16121.318      163.77769      72.205558      0.7469983      47436.633    
    181200   588.3118       17094.83      -1205.7821      1215.6886      2147.6532      16161.013      250.77052      64.224414      0.74666407     47457.867    
    181300   583.87705      17119.675     -1178.8071      1211.5463      2221.0718      16112.996      231.75364      62.024843      0.74597694     47501.581    
    181400   578.82793      17143.279     -1209.4074      1204.7929      2292.293       16185.124      142.57846      68.196276      0.74509594     47557.747    
    181500   584.4928       17063.801     -1183.9942      1206.222       2206.0436      16100.833      206.84873      66.959577      0.74350065     47659.789    
    181600   575.91142      17118.341     -1187.5737      1194.9408      2331.1813      15987.043      271.31224      61.748015      0.74140322     47794.619    
    181700   573.21674      17112.255     -1145.3095      1207.4205      2173.1459      15984.858      377.23266      55.876296      0.73902284     47948.564    
    181800   577.16743      17062.604     -1194.3249      1201.3062      2278.7869      16167.626      84.175639      65.043651      0.73635761     48122.113    
    181900   575.54598      17087.316     -1186.8426      1190.6307      2285.3517      16061.986      213.18981      64.061808      0.73350747     48309.098    
    182000   571.38013      17166.132     -1170.8408      1192.8517      2380.5049      15969.165      270.36247      64.305718      0.7308519      48484.63     
    182100   577.87888      17198.46      -1153.4879      1199.915       2435.0852      16077.915      107.5561       73.900376      0.72815243     48664.377    
    182200   576.65392      17286.625     -1182.3736      1193.8792      2332.8633      16104.788      322.34525      58.079567      0.72506204     48871.796    
    182300   576.43325      17331.44      -1148.5961      1200.1656      2413.7454      16028.708      309.60252      68.966963      0.72215888     49068.266    
    182400   584.69318      17265.18      -1140.2426      1197.6485      2276.7337      16092.126      301.36454      80.097554      0.71929486     49263.641    
    182500   577.51936      17314.259     -1162.9677      1209.7379      2338.8358      16052.098      343.87175      73.253902      0.7167797      49436.506    
    182600   580.83469      17234.935     -1151.1428      1205.3887      2302.7996      15925.323      412.37276      80.552639      0.71426014     49610.894    
    182700   570.45557      17232.322     -1149.661       1211.8086      2314.4497      16130.348      182.80108      82.840387      0.71213495     49758.946    
    182800   582.38346      17037.988     -1149.5104      1205.7991      2165.6909      15990.91       300.16815      64.300157      0.71017596     49896.204    
    182900   567.69934      17140.059     -1130.2358      1196.0862      2249.9722      15956.664      341.36598      66.744501      0.7083814      50022.606    
    183000   568.66933      17152.68      -1123.3222      1190.5922      2319.0448      16107.733      123.83809      74.259683      0.70671879     50140.289    
    183100   567.16722      17206.89      -1167.2706      1197.9574      2307.2336      16133.388      190.9124       83.994676      0.70500529     50262.153    
    183200   574.17273      17180.727     -1158.7501      1207.2819      2309.1297      16110.056      189.9738       64.050271      0.70403026     50331.763    
    183300   570.51812      17236.803     -1104.8795      1199.6563      2265.9257      16091.383      267.08093      59.994885      0.70340497     50376.505    
    183400   569.50275      17267.769     -1117.4122      1201.39        2364.9818      16055.986      246.58191      58.843947      0.70295961     50408.421    
    183500   582.95818      17171.692     -1120.4165      1203.7433      2257.6388      16055.202      245.12465      72.830108      0.70226933     50457.969    
    183600   580.25376      17223.167     -1107.1279      1203.037       2355.1585      16112.804      130.06588      71.199051      0.70186065     50487.35     
    183700   592.76338      17146.001     -1127.0582      1212.7083      2342.5792      15955.443      238.65618      65.303631      0.70142959     50518.377    
    183800   590.31601      17196.662     -1135.6362      1210.5516      2353.6166      15973.471      263.95761      70.617331      0.70094147     50553.556    
    183900   593.62349      17173.281     -1116.5186      1196.2806      2345.2634      16105.781      113.97855      66.848131      0.70078639     50564.744    
    184000   584.08108      17220.352     -1157.6895      1190.4564      2312.2987      16146.141      211.69757      55.738942      0.70078958     50564.514    
    184100   576.32339      17186.862     -1120.3428      1197.2997      2310.1776      16015.007      248.69549      74.330625      0.70081051     50563.003    
    184200   571.21418      17151.827     -1108.9375      1185.6524      2265.826       16054.248      231.67417      62.02276       0.70065143     50574.484    
    184300   576.51923      17068.839     -1145.6212      1192.8042      2294.8272      15967.804      233.91923      66.349148      0.70030258     50599.676    
    184400   566.15969      17163.029     -1108.7703      1201.8798      2101.3386      15955.914      461.77148      91.608623      0.69962439     50648.726    
    184500   575.83539      17122.463     -1144.2595      1205.6712      2273.4887      15999.242      256.34407      72.40441       0.69838205     50738.824    
    184600   593.47083      17054.082     -1173.4177      1199.3252      2290.4378      16045.448      161.39609      71.262903      0.69700034     50839.407    
    184700   592.91377      17135.59      -1127.4667      1205.6663      2181.7009      15983.801      370.79221      62.250531      0.69596949     50914.709    
    184800   589.14552      17198.258     -1122.8405      1197.816       2292.4032      16033.163      260.29309      77.844147      0.69505473     50981.717    
    184900   582.07357      17251.618     -1126.302       1201.9731      2244.5702      16169.081      247.23164      56.169379      0.69413548     51049.233    
    185000   584.12025      17213.07      -1160.8704      1196.4579      2253.7199      16175.131      208.7376       80.978539      0.6932588      51113.789    
    185100   572.61774      17291.571     -1121.827       1193.0091      2277.0718      16236.477      178.86644      67.835175      0.69232169     51182.975    
    185200   580.99017      17241.831     -1122.9251      1192.1603      2282.118       16123.948      242.63035      63.315539      0.69142765     51249.157    
    185300   566.5973       17337.52      -1115.9094      1203.2127      2309.439       16190.566      217.5157       71.259165      0.69075059     51299.39     
    185400   578.91746      17171.934     -1090.6148      1192.1423      2217.8698      16101.746      226.42925      64.464019      0.69016774     51342.712    
    185500   574.74613      17113.797     -1094.945       1197.2354      2307.5576      16050.93       134.56326      58.021407      0.68943842     51397.025    
    185600   559.4003       17162.294     -1089.4732      1203.853       2222.4676      16120.65       184.4551       59.328246      0.68865011     51455.86     
    185700   571.10767      17043.169     -1113.6525      1194.0295      2251.6343      16073.27       121.28765      55.57084       0.68797931     51506.032    
    185800   568.45495      17121.86      -1076.8007      1200.3788      2143.7683      16035.099      305.86362      54.693891      0.68698768     51580.378    
    185900   576.21741      17172.74      -1078.8336      1203.2861      2244.5711      16051.346      242.16509      53.168306      0.68602687     51652.618    
    186000   574.39983      17257.757     -1101.6254      1202.8338      2294.1607      16196.788      161.0322       46.37013       0.685045       51726.652    
    186100   584.5655       17195.618     -1060.9406      1200.2805      2218.9936      16167.027      144.00528      69.258701      0.68398934     51806.486    
    186200   594.48289      17141.099     -1098.0173      1210.1045      2274.7399      16102.88       135.57917      58.955436      0.68278947     51897.526    
    186300   587.13621      17233.85      -1048.5149      1201.0947      2278.3294      16044.979      235.87458      64.645861      0.68168459     51981.642    
    186400   587.74471      17233.463     -1093.1694      1204.9583      2335.16        16092.752      173.2895       62.823702      0.6807609      52052.173    
    186500   582.01635      17264.59      -1090.9845      1213.4124      2273.3073      16102.018      258.09041      50.396772      0.67985245     52121.727    
    186600   587.15787      17168.916     -1068.0652      1218.0178      2261.674       16063.283      173.9095       59.904862      0.67935868     52159.61     
    186700   575.0764       17203.288     -1096.7239      1219.3434      2217.7008      16118.2        220.67045      61.938745      0.67897918     52188.764    
    186800   579.97699      17098.013     -1087.6163      1217.0105      2200.5727      16006.126      227.79411      72.433133      0.67887978     52196.405    
    186900   564.25665      17210.377     -1046.1576      1227.6517      2278.0306      16039.847      187.59003      61.606776      0.67898127     52188.603    
    187000   568.17902      17199.118     -1081.3523      1224.1833      2243.222       16056.32       233.66927      61.600072      0.67936332     52159.254    
    187100   566.18247      17328.779     -1103.9654      1231.8081      2323.8736      16068.77       240.22731      107.65227      0.68032468     52085.548    
    187200   585.5646       17287.181     -1096.0836      1232.1265      2200.306       16135.349      300.1205       55.018666      0.68186931     51967.56     
    187300   582.73222      17349.128     -1082.244       1221.3839      2343.2985      16113.295      243.51808      49.183056      0.68337963     51852.708    
    187400   578.401        17386.426     -1082.5174      1214.2792      2319.5556      16084.476      313.52836      76.789864      0.68505889     51725.603    
    187500   586.09603      17289.056     -1121.6488      1227.6475      2234.8348      16239.227      170.97754      77.026463      0.68709268     51572.496    
    187600   580.62194      17289.599     -1092.3379      1226.4014      2259.8237      16181.178      199.79131      54.072888      0.689531       51390.125    
    187700   578.46567      17254.459     -1113.8908      1215.9276      2331.0547      16139.18       156.20437      66.267549      0.69240846     51176.561    
    187800   576.38727      17212.523     -1129.9945      1215.4378      2284.2124      16145.434      177.32211      61.751353      0.69539749     50956.589    
    187900   573.86578      17190.437     -1095.5782      1215.7252      2233.6134      16093.061      221.54944      63.152373      0.69862135     50721.445    
    188000   571.45611      17192.25      -1091.265       1224.2183      2275.2069      16113.73       147.85214      61.960175      0.70201785     50476.044    
    188100   567.32897      17248.375     -1142.1852      1225.949       2264.3611      16080.245      297.15652      63.230406      0.70525193     50244.576    
    188200   583.75795      17197.38      -1134.6146      1226.1567      2340.9583      16073.155      157.21215      74.635481      0.70801903     50048.208    
    188300   583.23618      17322.861     -1146.9259      1229.6625      2342.1064      16107.093      276.96762      53.867658      0.71012224     49899.978    
    188400   596.7353       17257.896     -1123.0433      1225.8767      2281.7126      15957.59       371.86223      83.954724      0.71198865     49769.17     
    188500   591.67552      17293.973     -1116.0678      1231.6996      2289.6785      16119.937      264.55571      44.94305       0.71373561     49647.353    
    188600   595.5919       17196.281     -1123.5146      1230.533       2323.413       16146.812      89.886648      68.858161      0.71457399     49589.104    
    188700   584.00477      17217.29      -1144.4864      1231.6592      2280.5588      16088.752      239.62257      62.525591      0.71542764     49529.935    
    188800   580.97297      17184.309     -1129.7735      1217.8367      2230.4533      16016.023      313.52477      78.093302      0.71645095     49459.191    
    188900   588.82926      17081.243     -1093.0501      1209.3932      2224.9843      15984.368      237.0724       60.390563      0.71700934     49420.673    
    189000   567.67472      17251.021     -1129.3701      1214.2444      2325.5731      16058.132      252.8662       69.476058      0.71720742     49407.024    
    189100   567.43298      17246.612     -1162.3125      1205.7948      2285.3067      16139.336      253.07861      66.144105      0.71732543     49398.895    
    189200   571.328        17221.661     -1115.4128      1202.5244      2220.1835      16071.67       314.92652      70.346477      0.71739122     49394.366    
    189300   579.22431      17187.413     -1121.02        1198.2497      2291.4931      15993.105      284.38277      81.72578       0.71730272     49400.46     
    189400   585.88171      17213.594     -1140.215       1208.2103      2336.1541      16098.043      190.62927      61.633662      0.71706053     49417.145    
    189500   602.67907      17186.441     -1133.2536      1213.2741      2272.1256      16084.535      214.82913      76.129395      0.71719359     49407.977    
    189600   609.44493      17170.609     -1133.4294      1204.0606      2324.5699      16122.568      135.47212      59.062331      0.71755655     49382.985    
    189700   597.65451      17237.992     -1147.6908      1200.339       2331.697       16040.989      272.27924      82.116309      0.71806931     49347.721    
    189800   585.63543      17269.681     -1166.9869      1205.7991      2301.7362      16138.604      247.74798      83.134941      0.71906383     49279.47     
    189900   580.36728      17248.692     -1119.902       1199.9861      2391.3433      16067.279      193.44285      57.554427      0.72046732     49183.471    
    190000   583.96117      17175.508     -1106.2992      1199.1383      2237.1034      16004.989      322.57587      58.705127      0.72200147     49078.964    
    190100   585.38249      17130.341     -1142.0902      1192.6203      2201.8249      16118.635      225.39691      73.919484      0.72356857     48972.669    
    190200   581.58304      17124.747     -1138.9303      1201.4896      2282.5982      16046.655      195.82335      76.963286      0.72509467     48869.597    
    190300   576.40185      17133.482     -1119.8571      1200.4132      2310.7873      16026.382      195.82795      60.328602      0.72640525     48781.426    
    190400   579.89577      17074.64      -1137.9528      1207.5821      2291.1121      15917.604      276.16386      61.690535      0.7274379      48712.178    
    190500   573.43477      17120.713     -1163.3126      1208.9928      2354.0456      16065.556      144.21192      53.571031      0.72859644     48634.72     
    190600   569.59341      17160.178     -1131.6161      1197.7623      2291.5402      16081.825      192.54565      70.346686      0.72957437     48569.53     
    190700   579.16013      17132.496     -1155.9728      1191.9789      2262.2208      16129.02       176.54083      71.578291      0.73017269     48529.731    
    190800   577.00612      17246.067     -1199.6824      1186.1211      2325.6981      16097.542      296.80601      81.656344      0.7302637      48523.683    
    190900   595.21315      17159.467     -1152.7119      1194.0716      2335.4118      16009.176      248.45382      66.955377      0.73061148     48500.585    
    191000   596.96928      17157.86      -1157.0178      1187.9506      2308.3149      16020.079      257.61869      83.437301      0.73067058     48496.662    
    191100   590.22042      17173.873     -1197.6591      1199.1089      2230.2049      16071.685      338.35318      74.55275       0.7302761      48522.859    
    191200   583.40601      17152.573     -1172.8585      1190.8854      2181.2325      16208.981      220.22051      66.150763      0.73022163     48526.478    
    191300   576.85782      17148.426     -1143.3689      1186.3718      2212.8273      16071.984      285.59957      76.596211      0.73031778     48520.089    
    191400   566.46194      17215.615     -1159.958       1183.8412      2234.7015      16120.875      285.18448      91.961099      0.73007934     48535.936    
    191500   584.60887      17056.24      -1183.4509      1198.3306      2270.8544      15889.318      361.36166      61.457491      0.72954853     48571.25     
    191600   578.16921      17129.431     -1194.534       1199.6613      2367.0208      15995.767      218.39143      82.972067      0.72942057     48579.771    
    191700   585.43334      17078.169     -1155.2309      1205.5914      2413.9231      15904.699      185.21994      63.270901      0.72961105     48567.088    
    191800   580.53913      17136.353     -1133.9196      1204.9955      2258.7964      16024.972      255.90683      63.611829      0.72975075     48557.791    
    191900   574.729        17215.658     -1156.0792      1207.8905      2384.6563      16085.196      167.27574      64.608747      0.73001219     48540.4      
    192000   586.50555      17140.045     -1142.8893      1203.8487      2306.3538      15997.284      230.10969      85.153156      0.73063807     48498.82     
    192100   586.0172       17164.41      -1168.7136      1206.1763      2326.462       16006.425      278.31431      55.453436      0.73118054     48462.838    
    192200   583.86518      17208.263     -1163.301       1215.3143      2291.6376      16080.755      260.74255      62.719638      0.7319832      48409.696    
    192300   584.3403       17250.939     -1172.7519      1219.6076      2353.0599      16095.019      222.76681      73.322669      0.73288631     48350.042    
    192400   588.07197      17253.905     -1153.5218      1215.1978      2327.2052      16056.154      264.04194      86.65159       0.73385473     48286.238    
    192500   600.49936      17136.592     -1146.0048      1209.7985      2296.9683      16009.754      240.96974      66.170101      0.73480827     48223.578    
    192600   595.08638      17124.531     -1139.5943      1215.7564      2341.6039      15927.718      262.4061       59.880196      0.73571171     48164.36     
    192700   581.86833      17151.914     -1156.8502      1214.1363      2274.6749      15963.022      336.54092      64.308559      0.73636036     48121.933    
    192800   573.94752      17145.344     -1154.0074      1216.8991      2270.8761      16025.93       262.20347      67.458479      0.73681092     48092.507    
    192900   581.60648      17037.434     -1154.4745      1191.3488      2265.6479      16086.732      128.31385      65.483976      0.73735491     48057.026    
    193000   567.90605      17150.376     -1147.8259      1212.474       2349.3571      15982.514      236.12064      63.037966      0.73765569     48037.431    
    193100   569.13902      17151.037     -1135.5732      1204.9526      2280.5164      16071.408      204.86479      68.639191      0.73777243     48029.829    
    193200   578.34453      17106.395     -1190.7272      1193.226       2260.3699      16075.538      237.60642      74.940172      0.73782839     48026.187    
    193300   581.10274      17137.772     -1163.943       1194.9885      2292.2846      16093.022      216.35899      50.170195      0.73833438     47993.274    
    193400   592.79964      17102.091     -1171.2843      1202.1438      2302.175       16010.758      217.52569      85.506464      0.73900196     47949.919    
    193500   585.22532      17236.552     -1161.3771      1207.478       2358.593       16151.605      175.24275      48.076238      0.73968941     47905.356    
    193600   586.49346      17285.473     -1130.83        1205.3806      2366.1628      16142.515      180.6672       64.84638       0.7403477      47862.76     
    193700   594.04679      17256.309     -1137.008       1214.3164      2253.3834      16173.828      231.37845      63.210263      0.7407113      47839.265    
    193800   584.25978      17325.687     -1134.2662      1211.6273      2315.0553      16193.699      208.32996      73.979225      0.74082585     47831.867    
    193900   587.99051      17179.135     -1163.2265      1220.3061      2407.4502      16013.521      178.0456       64.621635      0.74099555     47820.913    
    194000   568.09665      17233.984     -1169.6539      1217.3962      2288.0904      16037.565      324.61879      77.789341      0.74140665     47794.397    
    194100   570.75377      17157.468     -1213.7476      1223.0706      2246.8103      16126.703      246.99694      69.363154      0.74264677     47714.587    
    194200   579.16265      17061.044     -1162.1086      1209.4799      2229.0015      15987.754      253.56368      85.680272      0.74425401     47611.546    
    194300   569.64245      17140.39      -1177.5648      1210.3331      2278.1737      15914.565      374.20219      83.819981      0.74564061     47523.007    
    194400   573.62451      17128.9       -1190.611       1202.0093      2233.9417      16069.694      281.28529      76.276343      0.74704303     47433.792    
    194500   587.07304      17067.399     -1197.0671      1195.236       2175.0948      16121.802      239.25844      77.292016      0.74900984     47309.237    
    194600   585.9461       17148.091     -1193.9447      1190.1027      2281.4118      16004.815      347.67496      63.092708      0.75122923     47169.469    
    194700   587.38947      17187.854     -1216.914       1196.0294      2303.853       16016.732      372.51722      61.560004      0.75338151     47034.714    
    194800   591.14665      17164.264     -1202.5074      1200.6144      2250.1129      16160.242      215.565        85.752195      0.75573818     46888.043    
    194900   591.61945      17113.253     -1195.2959      1202.454       2255.8903      16059.688      268.75321      67.443774      0.75832514     46728.089    
    195000   581.99222      17061.118     -1213.0561      1201.6695      2292.9857      15917.456      341.69973      64.627984      0.76116796     46553.568    
    195100   569.8033       17068.8       -1219.7511      1198.1177      2277.1222      16011.908      271.81928      74.352096      0.76359142     46405.817    
    195200   571.95918      17018.915     -1202.1349      1204.1482      2255.8572      15970.875      267.71155      67.797726      0.76577982     46273.202    
    195300   572.63766      17017.934     -1201.7276      1194.1477      2294.1153      15984.775      239.07985      51.746533      0.76784085     46148.996    
    195400   579.40259      16999.205     -1203.0124      1200.2846      2245.0732      16005.88       222.76788      72.09834       0.76963642     46041.33     
    195500   585.65364      16996.25      -1244.3857      1197.7844      2301.5022      16089.478      151.08391      44.214143      0.77129977     45942.039    
    195600   578.76638      17109.5       -1201.0804      1192.299       2350.6225      16097.33       154.15533      59.951395      0.77304932     45838.064    
    195700   594.23219      17016.884     -1236.5084      1182.7324      2158.0047      16146.818      239.14362      70.768273      0.7748063      45734.12     
    195800   580.31812      17153.185     -1196.5991      1184.3486      2367.4955      16086.719      195.31514      60.065376      0.77656381     45630.615    
    195900   579.68239      17143.522     -1211.8981      1189.1995      2257.1081      16091.277      301.16466      60.412135      0.77784863     45555.244    
    196000   576.94488      17085.313     -1255.175       1200.54        2301.4201      16003.181      293.91517      84.999975      0.77855461     45513.935    
    196100   570.50234      17025.887     -1260.8761      1203.3606      2256.1625      16033.67       275.37878      62.689523      0.77908297     45483.069    
    196200   570.18653      16975.929     -1220.166       1204.027       2276.2743      15973.671      228.9835       57.790737      0.77952825     45457.088    
    196300   575.51449      16933.459     -1226.3093      1199.6435      2144.5782      16129.037      166.05074      64.510883      0.77961083     45452.273    
    196400   575.1617       16990.504     -1260.3112      1184.766       2242.2587      16065.066      243.92304      60.388392      0.77947635     45460.114    
    196500   572.13892      17094.548     -1237.3864      1173.2279      2240.2189      16057.892      348.35565      55.675883      0.77953882     45456.471    
    196600   577.84184      17108.728     -1197.536       1175.4549      2216.1284      16009.907      396.77021      51.705523      0.77908725     45482.819    
    196700   586.47639      17067.055     -1235.5267      1176.9232      2299.6975      16087.165      224.68542      57.744559      0.77813607     45538.416    
    196800   582.57261      17109.22      -1252.9771      1193.4022      2319.9615      16026.439      308.14672      56.575366      0.77677561     45618.173    
    196900   578.98457      17137.139     -1204.0491      1196.7946      2369.0372      16169.906      72.548689      76.353044      0.77588119     45670.76     
    197000   583.39262      17082.671     -1208.4151      1198.3297      2283.2272      16124.704      177.98264      48.991635      0.77449285     45752.629    
    197100   582.36267      17077.763     -1228.0609      1188.0478      2369.1303      16004.643      234.40489      53.766823      0.77310766     45834.605    
    197200   577.37574      17114.274     -1204.6696      1184.6205      2395.0105      16012.876      221.8006       48.202793      0.77149095     45930.654    
    197300   583.06159      17054.327     -1203.4211      1191.1388      2357.0492      16053.13       137.08394      64.538815      0.77007728     46014.972    
    197400   581.49502      17050.816     -1244.4225      1191.8532      2242.2792      16177.877      168.05852      59.835174      0.7685222      46108.081    
    197500   579.5757       17052.406     -1243.2209      1181.1486      2293.9032      16099.092      214.251        49.75078       0.76771112     46156.794    
    197600   575.00426      17077.438     -1207.4528      1182.6831      2347.1332      16087.718      157.95594      52.430798      0.76710018     46193.555    
    197700   566.95561      17140.662     -1208.3789      1180.0144      2260.7833      16073.955      310.66443      67.233576      0.76606325     46256.082    
    197800   576.78462      17065.374     -1223.9651      1181.2563      2363.3501      16070.513      160.2994       56.750298      0.76513412     46312.252    
    197900   575.47157      17107.888     -1207.5842      1172.2844      2335.3376      16141.976      167.4298       40.23001       0.76410194     46374.812    
    198000   585.26804      17060.136     -1161.4621      1175.3892      2264.3896      16150.27       109.29193      63.691911      0.7635035      46411.161    
    198100   587.14183      17094.506     -1203.0425      1176.9646      2253.212       16096.018      269.85104      45.461909      0.7622918      46484.934    
    198200   586.03694      17151.297     -1188.8979      1183.8374      2342.8774      16184.176      108.62016      62.407714      0.76085262     46572.862    
    198300   592.74805      17129.223     -1232.3964      1187.7997      2351.3595      16167.64       144.99028      52.365355      0.75949543     46656.086    
    198400   592.84899      17121.982     -1177.1665      1193.0115      2249.2353      16076.287      263.24688      57.799028      0.7585625      46713.467    
    198500   581.69726      17139.899     -1222.8699      1191.7596      2278.0836      16209.145      169.74358      53.883073      0.75788745     46755.075    
    198600   578.44978      17043.874     -1252.3592      1186.2804      2265.0001      16217.565      104.3583       64.518106      0.75724727     46794.601    
    198700   583.56265      16936.47      -1216.8144      1194.2692      2257.8904      16039.759      142.85167      62.207553      0.7577333      46764.586    
    198800   579.01775      16961.659     -1189.323       1185.3503      2272.8185      16137.451      47.054781      53.305526      0.75829039     46730.23     
    198900   573.79788      17028.294     -1203.4857      1187.033       2379.4646      16090.905      55.882089      61.296846      0.75848915     46717.984    
    199000   574.9364       17070.501     -1211.1673      1183.635       2301.7206      16017.447      255.58632      66.281214      0.75872905     46703.212    
    199100   576.19627      17128.621     -1219.504       1194.7183      2367.6436      16058.381      216.10743      53.281233      0.75920016     46674.231    
    199200   593.03737      17030.649     -1197.4722      1188.407       2306.3372      16117.556      105.8938       53.568267      0.7600261      46623.51     
    199300   591.16826      17065.594     -1186.6929      1188.1483      2213.0715      16149.482      178.94403      66.322254      0.76038054     46601.776    
    199400   572.46244      17229.159     -1161.8713      1201.5719      2412.8158      16106.506      172.19746      43.057787      0.76056545     46590.447    
    199500   581.12168      17137.201     -1184.712       1200.0681      2277.437       16176.131      146.51927      65.092478      0.7606573      46584.821    
    199600   585.5574       17045.904     -1239.6609      1200.1806      2285.4595      16113.633      173.28386      56.136249      0.76045293     46597.341    
    199700   574.86838      16978.876     -1184.5396      1195.0494      2309.6399      15978.835      171.3995       50.852246      0.76032949     46604.906    
    199800   556.19568      17058.877     -1212.0308      1194.3065      2356.7741      16008.149      206.92425      45.021589      0.76004517     46622.34     
    199900   562.7693       17011.644     -1230.8116      1195.5273      2295.3192      16004.633      236.22138      52.721478      0.75962902     46647.881    
    200000   568.93834      17029.517     -1203.36        1200.2576      2311.5291      15924.231      289.65685      49.672505      0.75966669     46645.568    
    200100   573.99389      17075.571     -1192.0021      1195.058       2331.292       15985.89       246.86427      51.713949      0.7596216      46648.337    
    200200   573.72466      17151.677     -1219.7766      1176.7106      2322.5796      16057.169      296.40215      61.003282      0.75922758     46672.546    
    200300   578.25927      17167.357     -1224.5721      1189.8491      2321.3668      16170.512      191.61258      62.814337      0.75893302     46690.66     
    200400   592.01544      17080.642     -1214.3499      1177.2104      2319.3283      16085.302      186.46484      70.902325      0.75891085     46692.025    
    200500   582.48361      17166.005     -1178.8288      1188.7385      2362.8475      15983.898      289.30809      64.484068      0.7587454      46702.206    
    200600   574.99888      17196.234     -1196.5703      1183.938       2424.6857      16064.684      192.88801      68.718141      0.75850201     46717.192    
    200700   573.91742      17144.16      -1203.159       1183.3497      2390.0277      16179.28       89.092615      47.844652      0.75782981     46758.63     
    200800   577.65153      17023.004     -1193.3807      1173.1694      2327.123       16000.843      184.80957      71.543652      0.75724704     46794.616    
    200900   579.45621      16931.962     -1209.0902      1179.3409      2248.2072      16020.607      167.58994      66.677827      0.75698622     46810.738    
    201000   573.91059      16950.242     -1202.5991      1186.1969      2319.7693      16155.107     -17.461573      50.809752      0.75695469     46812.688    
    201100   571.4297       16990.66      -1178.294       1179.7907      2250.231       15976.523      255.45426      47.991258      0.75686914     46817.979    
    201200   569.36278      17049.974     -1198.1532      1183.7893      2321.2084      16033.77       197.54023      52.957875      0.75671019     46827.814    
    201300   574.78136      17040.237     -1206.9422      1175.3196      2363.5506      16083.174      97.284607      69.606008      0.75670685     46828.021    
    201400   573.20049      17085.309     -1219.5526      1184.2699      2258.9963      16101.723      242.31574      60.273531      0.75708029     46804.922    
    201500   579.02291      17065.806     -1203.9869      1186.2964      2269.705       16077.161      211.65743      67.102052      0.75765686     46769.304    
    201600   581.19672      17076.866     -1198.7343      1187.2948      2299.7704      16142.488      129.66759      58.088938      0.75822952     46733.981    
    201700   584.772        17062.533     -1198.9324      1185.1909      2347.6224      16002.989      197.3402       70.911233      0.75925764     46670.698    
    201800   581.44102      17080.243     -1170.1174      1192.5887      2322.4776      16014.001      206.96605      56.363347      0.76030159     46606.616    
    201900   579.1879       17054.549     -1187.4704      1199.1631      2296.9496      16140.444      85.566858      63.486868      0.76125929     46547.983    
    202000   580.95789      16954.531     -1209.1963      1203.195       2280.3276      16058.183      118.76862      49.209809      0.76243192     46476.391    
    202100   564.30685      17006.616     -1204.1351      1200.5855      2378.4199      15999.79       132.10593      46.403399      0.76392466     46385.574    
    202200   573.48427      16885.663     -1205.5775      1199.0684      2354.3836      15975.497      49.022496      59.836141      0.76586569     46268.013    
    202300   557.14776      17053.7       -1205.52        1198.4999      2261.1692      16124.334      163.90226      58.445841      0.76787332     46147.044    
    202400   580.7222       16914.886     -1243.3113      1193.9595      2274.7202      15948.83       228.85715      58.081712      0.76985906     46028.015    
    202500   583.62132      16962.916     -1215.4843      1195.0279      2202.4122      16074.084      208.39324      42.394161      0.77192502     45904.826    
    202600   579.18616      17047.169     -1235.8708      1208.7561      2272.27        16049.363      224.27972      70.673987      0.77381161     45792.908    
    202700   567.14612      17172.979     -1200.835       1200.0685      2375.0452      16044.051      235.49329      61.382392      0.77553172     45691.341    
    202800   585.79919      17025.586     -1260.8006      1204.1489      2268.7185      16165.825      138.55009      51.910512      0.77693476     45608.828    
    202900   590.52704      17000.851     -1248.6611      1188.4676      2279.4699      16033.555      225.60443      65.684302      0.7783555      45525.578    
    203000   580.69702      17095.951     -1233.3095      1185.563       2328.0723      16019.433      298.05562      41.008685      0.77975722     45443.74     
    203100   577.66677      17119.31      -1224.2443      1188.0865      2488.4188      15981.325      174.4825       53.931042      0.78064931     45391.808    
    203200   587.1843       17000.576     -1236.1873      1196.807       2302.3287      16006.502      219.25474      54.430492      0.78160624     45336.235    
    203300   574.34474      17033.526     -1235.1193      1190.0662      2266.4428      15977.106      314.01893      61.258315      0.78252585     45282.957    
    203400   569.86433      16988.594     -1222.4601      1185.7069      2336.3222      15983.59       188.25249      57.225897      0.78321581     45243.065    
    203500   568.02863      16964.977     -1250.0402      1197.3745      2239.4911      16016.527      245.0216       54.783275      0.78354714     45223.934    
    203600   557.13917      17070.146     -1247.7459      1191.3542      2290.2119      16062.098      256.36395      56.175312      0.7840446      45195.24     
    203700   577.43274      16947.574     -1257.0016      1187.2861      2314.3453      15972.872      202.99701      63.482671      0.78462794     45161.639    
    203800   591.69503      16913.464     -1251.8616      1185.7481      2255.6404      16045.851      164.2022       50.86579       0.78520172     45128.638    
    203900   580.25705      17089.216     -1267.4797      1190.7512      2355.3682      16034.719      248.99106      65.596435      0.78554377     45108.988    
    204000   585.78585      17066.101     -1216.4464      1193.9146      2439.1498      15963.996      152.26448      71.215082      0.78590965     45087.987    
    204100   584.24102      17078.074     -1238.9976      1197.233       2293.0944      16120.978      178.53191      63.490451      0.78612562     45075.6      
    204200   580.90243      17099.048     -1212.9408      1190.3364      2321.2455      16089.275      189.69686      59.674248      0.78599778     45082.932    
    204300   581.29378      17075.156     -1220.578       1191.7993      2353.0392      15990.734      233.62191      63.98914       0.78559457     45106.071    
    204400   570.04588      17149.468     -1236.8129      1200.878       2326.8792      16160.362      182.04641      55.299158      0.78501722     45139.244    
    204500   576.65821      17044.833     -1215.6732      1181.0243      2303.4928      16068.482      188.81129      57.38026       0.78420726     45185.866    
    204600   576.58592      16978.44      -1202.6559      1192.9924      2319.0994      15984.659      170.61455      51.616987      0.78321595     45243.057    
    204700   566.52845      16994.298     -1229.6938      1196.2942      2314.119       16090.274      118.10464      44.549902      0.78222672     45300.273    
    204800   561.51387      16983.463     -1231.0552      1189.8063      2187.4113      16030.994      270.30709      76.797183      0.78113262     45363.723    
    204900   565.59218      16940.182     -1232.4071      1181.3375      2242.5544      16114.57       122.92329      51.326941      0.7805321      45398.625    
    205000   563.63909      17034.27      -1224.2067      1177.934       2340.1663      16086.276      134.71037      60.633674      0.77973345     45445.125    
    205100   578.30969      17037.018     -1236.3797      1189.9036      2291.992       15982.949      285.19975      63.625655      0.77883957     45497.282    
    205200   588.23752      17013.462     -1227.51        1185.3899      2309.2561      16105.382      122.01853      58.883292      0.77834198     45526.369    
    205300   589.6445       17029.708     -1231.4787      1202.7477      2313.8865      16079.891      144.00011      60.892947      0.77806025     45542.853    
    205400   579.53073      17130.903     -1244.2614      1203.2934      2335.3759      16137.531      157.62167      80.979781      0.77828946     45529.441    
    205500   594.64038      16979.588     -1253.666       1204.0288      2267.2355      16094.082      147.4343       59.032323      0.77866215     45507.649    
    205600   589.89238      16979.84      -1261.3277      1201.4689      2201.7598      16163.597      152.37696      59.535804      0.77913946     45479.771    
    205700   574.37914      17046.118     -1226.5768      1200.4611      2266.471       16079.752      208.57937      54.599475      0.77963184     45451.048    
    205800   566.95393      17034.513     -1240.9694      1199.2712      2290.05        16124.538      136.21887      63.047024      0.78007421     45425.273    
    205900   565.38046      17001.187     -1238.3128      1193.8843      2297.6523      15985.699      248.41077      53.679307      0.78059442     45395        
    206000   573.58236      16918.9       -1238.8749      1190.9415      2178.9447      15949.758      312.56117      66.622299      0.78114889     45362.778    
    206100   580.88202      16886.694     -1230.2867      1179.3401      2219.0058      16055.595      148.93518      54.34686       0.7815764      45337.966    
    206200   571.36362      17101.253     -1240.0248      1189.3831      2283.1768      16157.887      200.8944       51.14549       0.78174313     45328.296    
    206300   586.10822      17094.911     -1210.0396      1192.3743      2324.4557      16034.376      216.08042      77.368078      0.78195599     45315.957    
    206400   578.86442      17178.667     -1264.1706      1201.234       2356.8571      16114.428      233.26877      75.284594      0.78223208     45299.963    
    206500   588.58551      17074.318     -1227.4185      1188.8271      2365.1459      16075.084      158.74739      53.353689      0.78218691     45302.578    
    206600   579.50201      17114.239     -1229.4357      1187.0453      2307.836       16113.03       210.3619       63.873532      0.78165611     45333.342    
    206700   573.95586      17107.232     -1204.79        1196.7781      2346.2392      15980.314      254.23041      73.395346      0.78060373     45394.459    
    206800   571.37842      17073.773     -1255.7091      1195.1941      2347.6855      15991.539      286.91943      48.006165      0.77928666     45471.18     
    206900   589.98698      16863.191     -1230.418       1188.9699      2229.1394      16009.98       148.88699      56.214542      0.77796457     45548.455    
    207000   572.24091      16990.421     -1240.8381      1184.7885      2267.433       16101.781      162.83422      54.614344      0.77657646     45629.871    
    207100   575.60625      16944.534     -1239.4625      1177.9024      2355.3922      16013.289      141.18149      36.206698      0.77515965     45713.272    
    207200   576.05393      16943.759     -1259.0555      1183.9983      2234.5472      16196.147      66.243433      61.857077      0.77402823     45780.092    
    207300   574.08312      17011.909     -1236.5724      1178.5975      2238.7698      16068.528      249.49672      51.443348      0.77304143     45838.532    
    207400   579.78667      17051.955     -1228.9966      1175.8309      2378.3223      16032.505      182.92991      50.649644      0.77195597     45902.986    
    207500   580.73797      17120.923     -1245.4497      1181.0294      2248.486       16128.058      278.65005      71.324047      0.77097658     45961.298    
    207600   578.84651      17173.333     -1246.1696      1170.2943      2386.3583      16044.695      281.25075      76.618829      0.77021377     46006.817    
    207700   581.56277      17138.976     -1214.1307      1190.2041      2385.6619      16002.685      258.38731      56.387759      0.76983163     46029.655    
    207800   577.89079      17132.52      -1200.493       1190.8513      2287.2262      16152.28       174.54399      68.018537      0.76913817     46071.155    
    207900   570.37828      17144.327     -1242.4207      1191.8525      2349.784       16052.473      260.63718      71.861201      0.76810012     46133.418    
    208000   564.42536      17118.469     -1214.3003      1185.9425      2340.6321      16006.003      275.62625      66.321922      0.76680013     46211.63     
    208100   559.1153       17098.221     -1213.4348      1198.3287      2294.8258      16109.549      191.18139      60.806328      0.76552029     46288.89     
    208200   564.82267      17025.572     -1217.3767      1183.3394      2203.2173      16116.44       193.20602      89.889701      0.76405577     46377.614    
    208300   580.90882      16896.06      -1257.3099      1191.8448      2220.4148      15972.095      256.91313      55.465014      0.76246315     46474.488    
    208400   579.5462       16988.163     -1224.1152      1192.119       2266.3736      15968.773      253.02229      74.083785      0.76102845     46562.102    
    208500   593.71366      17013.919     -1229.1773      1184.3874      2241.0181      16076.887      218.81078      65.85902       0.7599561      46627.804    
    208600   580.78542      17199.214     -1160.3961      1180.2233      2329.5722      16100.161      217.30045      75.361514      0.75884666     46695.974    
    208700   587.6861       17151.832     -1201.7672      1185.505       2310.2292      16097.503      249.24335      53.416907      0.75734794     46788.381    
    208800   593.30489      17072.7       -1211.8556      1181.1744      2312.6843      16073.636      183.47538      73.834058      0.75621272     46858.619    
    208900   578.63787      17134.132     -1164.8782      1179.1042      2266.9489      16019.954      291.94229      84.472532      0.75516375     46923.709    
    209000   576.24314      17080.59      -1173.1312      1184.1469      2322.3599      15953.548      266.0737       70.634671      0.75449306     46965.421    
    209100   569.04515      17098.006     -1199.0705      1184.8737      2273.3984      16120.508      188.40897      72.459814      0.75369523     47015.136    
    209200   575.48781      17026.877     -1187.0698      1190.1814      2247.9547      16105.878      134.67238      76.495291      0.75235602     47098.824    
    209300   571.28509      17075.129     -1192.5718      1178.3748      2243.8635      15999.53       324.28085      65.483031      0.75084455     47193.635    
    209400   584.06204      17000.962     -1184.2119      1180.6664      2237.3916      16002.16       242.20723      66.216156      0.74954015     47275.765    
    209500   588.90006      17037.086     -1214.871       1184.4231      2297.6656      16133.417      115.9653       63.931331      0.74840151     47347.692    
    209600   588.36241      17169.339     -1194.3654      1168.8193      2308.44        16075.215      290.47286      66.684743      0.74746322     47407.127    
    209700   602.89684      17101.075     -1165.6554      1177.5798      2233.9681      15971.403      360.509        65.858958      0.7466004      47461.914    
    209800   580.66986      17283.632     -1175.821       1168.7176      2357.7454      16171.843      228.9299       74.781781      0.74532843     47542.912    
    209900   590.41074      17147.825     -1167.8469      1175.9783      2279.2551      16045.543      297.11417      59.624385      0.74377331     47642.317    
    210000   581.35865      17176.09      -1173.7094      1179.2967      2316.6347      16021.742      302.76634      71.926256      0.74231888     47735.663    
    210100   582.31847      17115.068     -1172.1225      1173.4408      2367.8783      15998.206      224.4899       65.869068      0.74115645     47810.532    
    210200   583.48723      17058.051     -1161.9434      1180.4397      2308.609       16105.399      92.947925      74.924611      0.74006292     47881.177    
    210300   572.88816      17116.203     -1162.8583      1192.2632      2371.475       16031.961      170.8522       51.944117      0.73866081     47972.064    
    210400   569.86365      17116.242     -1170.4189      1178.4919      2306.1694      16035.391      231.52593      75.667708      0.73769834     48034.653    
    210500   574.50968      17058.292     -1166.4347      1185.7988      2323.9995      15943.661      241.88047      71.409364      0.73673211     48097.651    
    210600   565.89765      17126.262     -1150.9608      1181.4026      2270.3733      16189.288      111.5792       64.631417      0.73601106     48144.771    
    210700   577.53098      17036.592     -1186.7651      1194.8546      2278.1477      16037.862      205.27036      48.372493      0.73509048     48205.065    
    210800   578.74132      17085.769     -1141.9289      1189.1921      2324.1164      15993.699      200.31514      61.781865      0.73455568     48240.16     
    210900   580.81778      17155.417     -1187.5835      1196.9061      2273.6528      16130.849      217.86189      62.470451      0.73425764     48259.741    
    211000   587.74118      17163.894     -1179.2332      1186.9561      2390.1707      16222.589      30.57936       50.913938      0.73417105     48265.434    
    211100   582.75998      17239.739     -1171.6063      1190.2303      2361.1243      16079.065      276.83807      42.351588      0.73428726     48257.795    
    211200   588.90532      17173.593     -1141.815       1193.1739      2342.2365      16032.163      227.89299      59.945357      0.73446379     48246.196    
    211300   593.60869      17068.254     -1213.1026      1194.9684      2327.3131      16128.731      124.42288      46.336249      0.73471945     48229.408    
    211400   569.89156      17183.667     -1179.0076      1201.3372      2317.7789      16151.964      182.67804      49.715968      0.73536546     48187.039    
    211500   577.5249       17052.571     -1197.4674      1196.2072      2309.1223      16007.148      222.94826      56.394006      0.73616735     48134.55     
    211600   572.44346      17080.831     -1179.3538      1184.8467      2322.4174      16048.725      188.43455      57.147667      0.73695261     48083.26     
    211700   573.97416      17073.692     -1166.5075      1182.9639      2251.548       16132.895      165.8826       47.63782       0.73755833     48043.772    
    211800   577.80835      17057.359     -1177.7411      1185.0433      2358.7577      15931.371      234.40726      65.546143      0.7379279      48019.71     
    211900   573.61312      17125.159     -1202.0306      1189.8517      2383.8404      16007.86       217.49287      67.20507       0.73840921     47988.41     
    212000   579.65129      17111.585     -1163.8162      1193.8835      2385.1141      16077.146      108.81864      48.909139      0.73877228     47964.826    
    212100   589.6709       17067.191     -1188.9489      1183.3372      2264.2796      16123.484      165.28346      59.217386      0.73879366     47963.438    
    212200   593.31054      17080.632     -1195.757       1198.8062      2202.3647      16055.286      295.99801      62.513693      0.73907261     47945.335    
    212300   590.14958      17154.964     -1207.6399      1189.4977      2345.6028      16024.265      269.38488      72.106488      0.73958326     47912.231    
    212400   586.27542      17222.873     -1189.6793      1207.3992      2343.424       16143.183      171.53745      86.447567      0.74049175     47853.449    
    212500   590.31035      17179.85      -1169.2122      1193.6991      2315.887       16069.895      227.85291      79.75558       0.74143525     47792.554    
    212600   577.52884      17236.287     -1162.4759      1209.0041      2400.6716      16004.672      248.2671       72.15636       0.7423638      47732.775    
    212700   587.76464      17060.58      -1171.842       1199.2679      2236.5665      16098.542      184.29055      52.9021        0.74324967     47675.883    
    212800   574.45821      17100.658     -1211.0179      1189.2531      2297.1158      16069.453      235.82726      59.611448      0.74350431     47659.554    
    212900   576.92654      17026.914     -1237.3547      1200.3523      2338.5323      15958.945      251.11999      56.566247      0.74418792     47615.774    
    213000   574.71374      17027.553     -1197.6909      1187.5877      2251.7947      15985.931      273.54145      66.74045       0.74508038     47558.74     
    213100   569.22675      17093.418     -1229.737       1182.5166      2200.7712      16184.235      225.6077       72.642938      0.74583918     47510.355    
    213200   587.64154      16976.334     -1192.2908      1177.142       2257.1344      16046.113      157.20548      74.393793      0.74684039     47446.662    
    213300   580.80169      17118.01      -1192.9912      1172.5016      2286.5495      16038.316      284.51801      71.650959      0.7476842      47393.116    
    213400   593.01202      17097.206     -1189.6081      1179.5255      2303.4839      16051.817      213.44915      79.930806      0.74859056     47335.735    
    213500   586.09442      17202.005     -1166.1048      1188.7012      2290.5885      16144.172      221.16838      64.735426      0.74934487     47288.085    
    213600   592.27206      17151.683     -1173.2         1188.7555      2230.9279      16097.2        279.86377      69.831714      0.74958211     47273.119    
    213700   592.36424      17111.332     -1218.3948      1186.0852      2280.569       16086.49       249.93884      68.102856      0.75000858     47246.238    
    213800   587.49236      17091.697     -1197.0017      1189.1485      2302.5539      16002.097      269.53617      68.565143      0.75042145     47220.244    
    213900   581.956        17107.766     -1196.0749      1177.8265      2303.9607      16046.75       245.35541      72.316901      0.7507596      47198.976    
    214000   574.9514       17144.73      -1234.8033      1189.5542      2203.253       16162.895      283.60793      81.740923      0.75096859     47185.841    
    214100   572.95718      17131.073     -1179.334       1187.1907      2327.8387      16043.612      230.37205      63.346598      0.75104326     47181.149    
    214200   579.18322      17050.348     -1220.5403      1193.17        2279.0606      15989.176      297.76525      53.711327      0.75075508     47199.26     
    214300   581.39996      17013.548     -1232.9153      1197.6247      2226.1091      15955.082      326.65976      81.844331      0.74997953     47248.068    
    214400   573.9899       17074.725     -1209.6254      1208.9211      2271.1758      16146.447      129.63751      68.516193      0.74948023     47279.545    
    214500   573.79063      17085.05      -1192.9958      1202.3206      2328.6446      16028.427      199.72836      60.402221      0.74889886     47316.248    
    214600   566.13318      17181.808     -1185.1362      1205.4574      2330.441       16005.687      300.27298      65.757148      0.74816426     47362.706    
    214700   586.00435      17061         -1189.7404      1216.6457      2242.1392      16053.629      211.97093      68.053285      0.74709112     47430.739    
    214800   586.64801      17126.137     -1205.0797      1210.6237      2190.0115      16112.097      277.78364      82.457694      0.74571447     47518.3      
    214900   588.38352      17162.52      -1206.0122      1211.2615      2370.4961      16037.758      220.60708      67.462013      0.74438062     47603.448    
    215000   587.07912      17169.678     -1193.9345      1199.4613      2273.0951      16103.16       249.55899      77.274177      0.74277598     47706.287    
    215100   578.50572      17173.221     -1197.7549      1200.9052      2274.8532      16091.432      268.60609      75.725147      0.74089068     47827.683    
    215200   578.83421      17052.078     -1218.2669      1200.4251      2241.3252      16091.742      219.87299      57.240825      0.73908598     47944.468    
    215300   567.84986      17086.589     -1192.0733      1194.0409      2210.9105      15985.5        350.36563      76.943058      0.73703806     48077.686    
    215400   567.48003      17087.612     -1166.708       1200.6084      2256.7577      15954.313      321.49271      59.853927      0.73488608     48218.472    
    215500   570.77281      17082.501     -1204.0332      1193.459       2216.1953      16010.417      331.89963      75.326979      0.73257927     48370.307    
    215600   575.92107      17074.398     -1177.6629      1195.9278      2281.7643      16018.18       228.24514      68.47954       0.7309675      48476.963    
    215700   569.52766      17163.947     -1153.8728      1198.8063      2299.7892      16065.725      231.38565      63.346668      0.72938572     48582.092    
    215800   575.94464      17150.867     -1178.4994      1188.365       2266.2081      16097.755      250.70965      68.351469      0.72779893     48688.013    
    215900   583.09196      17146.881     -1155.609       1185.325       2252.3895      16077.52       260.01458      70.476847      0.72624874     48791.939    
    216000   594.38448      17120.228     -1167.1238      1194.3889      2240.9233      16119.212      206.51284      68.562432      0.72486874     48884.829    
    216100   597.32969      17172.18      -1176.4363      1198.5019      2308.3938      16077.065      241.30359      64.85716       0.72342404     48982.453    
    216200   592.35991      17283.856     -1144.1397      1209.2467      2309.34        16116.475      262.96773      71.496657      0.72190023     49085.847    
    216300   597.43187      17291.072     -1147.9783      1204.6412      2361.7476      16091.998      242.54667      77.141091      0.72041579     49186.99     
    216400   586.14602      17392.709     -1160.9258      1211.4156      2279.9667      16262.313      281.14671      59.655764      0.71912775     49275.089    
    216500   586.52216      17288.014     -1153.3264      1208.4537      2349.6205      16063.635      291.75339      68.229861      0.71787326     49361.198    
    216600   581.05053      17209.454     -1146.7416      1212.1623      2261.8057      16157.036      211.9526       54.209192      0.71697391     49423.115    
    216700   565.23821      17286.815     -1138.8292      1210.8732      2368.1766      16151.35       166.75718      68.739974      0.71622549     49474.76     
    216800   569.36834      17222.019     -1148.4322      1211.7892      2304.0196      16146.269      192.20508      56.405064      0.7152973      49538.96     
    216900   575.94714      17151.516     -1132.1979      1220.2256      2224.995       16056.095      247.77038      74.852378      0.7145465      49591.012    
    217000   584.34941      17082.426     -1168.953       1217.7824      2296.2171      16017.588      206.21127      53.043766      0.71409406     49622.432    
    217100   568.06285      17253.97      -1128.2923      1215.2673      2247.2347      16184.254      208.18766      65.894815      0.71382616     49641.056    
    217200   582.30607      17177.902     -1168.5174      1213.2707      2315.5187      16159.187      139.34302      56.638931      0.7135565      49659.816    
    217300   584.01456      17221.16      -1180.6488      1209.4128      2248.9889      16143.4        278.34141      58.829142      0.71358137     49658.085    
    217400   596.08163      17161.801     -1184.0122      1196.1192      2275.8658      16025.819      318.45104      65.17624       0.71432863     49606.137    
    217500   592.7577       17217.547     -1186.4928      1203.4149      2278.422       16152.862      244.60612      59.717752      0.7156322      49515.776    
    217600   578.27615      17321.185     -1143.0018      1195.2873      2324.7513      16112.314      294.4209       75.213108      0.71717019     49409.589    
    217700   577.45983      17239.536     -1149.9574      1198.3531      2345.9108      16060.79       256.43611      67.798007      0.71865684     49307.377    
    217800   590.60887      17009.945     -1185.9101      1181.6337      2120.6799      16152.783      193.2492       86.786457      0.71988497     49223.259    
    217900   580.55892      17034.626     -1200.4706      1185.207       2296.4204      16104.206      125.8961       65.08698       0.72129693     49126.903    
    218000   567.32989      17125.806     -1176.3538      1179.8666      2327.234       16017.64       261.44699      56.842679      0.72279311     49025.21     
    218100   569.23029      17106.601     -1145.4691      1190.8585      2271.3471      16008.706      258.20659      63.296888      0.72450318     48909.494    
    218200   577.67998      17055.48      -1154.7385      1199.7663      2266.9774      15960.157      257.45767      66.586057      0.72536448     48851.419    
    218300   574.06493      17140.809     -1173.5043      1188.1067      2304.5338      16089.598      209.47895      63.519921      0.72592141     48813.94     
    218400   584.45288      17125.506     -1151.5203      1197.1543      2260.0822      16103.742      199.66468      58.714407      0.72686485     48750.582    
    218500   593.64479      17108.912     -1146.9423      1192.1784      2261.5175      16095.489      175.93222      72.288664      0.7276978      48694.78     
    218600   586.87701      17219.363     -1165.7334      1189.1585      2276.3156      16125.596      264.59099      70.690479      0.72825409     48657.584    
    218700   595.26683      17156.132     -1166.048       1192.1182      2251.5931      16150.802      206.72362      62.254723      0.72897026     48609.78     
    218800   594.91136      17075.332     -1162.2523      1190.4069      2225.1934      16071.333      227.20711      65.633987      0.72976592     48556.781    
    218900   568.75958      17163.639     -1135.4307      1182.4309      2198.2433      16215.022      190.00811      57.749145      0.73052559     48506.287    
    219000   575.81599      17023.161     -1182.0291      1198.006       2201.3322      16073.215      212.95916      64.326925      0.7309152      48480.431    
    219100   565.79025      17071.418     -1218.5044      1187.7127      2303.6537      16181.329      103.68067      58.001555      0.73140328     48448.079    
    219200   559.62346      17120.041     -1179.4392      1196.6167      2274.3596      16107.805      208.67359      56.732129      0.7324046      48381.842    
    219300   574.65882      17031.653     -1163.4758      1197.0557      2286.1301      15983.143      225.79609      46.249845      0.7338193      48288.569    
    219400   577.18467      17093.186     -1180.2446      1200.9948      2285.9877      16062.677      214.16176      52.745368      0.73486591     48219.796    
    219500   584.76289      17095.615     -1203.4774      1206.1772      2193.0529      16179.943      198.52476      63.185169      0.73585606     48154.912    
    219600   577.33559      17204.497     -1126.4762      1194.2219      2264.0424      16182.306      179.2826       53.03449       0.73701659     48079.086    
    219700   592.79675      17080.798     -1192.7051      1200.0946      2204.489       16060.826      289.29118      60.598048      0.73771163     48033.788    
    219800   579.54074      17186.032     -1190.8471      1190.9365      2294.545       16159.847      200.89941      71.920077      0.73852625     47980.805    
    219900   580.40478      17132.696     -1223.2236      1202.4166      2267.8454      16078.168      300.1426       48.726337      0.73936707     47926.24     
    220000   575.27506      17075.934     -1202.3857      1203.03        2260.5232      16164.009      130.73423      62.934223      0.74031877     47864.63     
    220100   574.7109       16982.533     -1203.7171      1199.4376      2180.312       16000.474      290.37866      57.500793      0.74131746     47800.148    
    220200   568.38692      17011.966     -1207.1923      1205.4019      2310.7537      15996.973      189.76661      58.399807      0.74249187     47724.542    
    220300   574.36591      16973.543     -1225.1918      1202.3433      2169.5291      16194.886      106.26929      67.931267      0.74379043     47641.221    
    220400   567.32187      17066.967     -1245.3913      1197.9413      2189.87        16197.348      207.27878      60.670025      0.74552786     47530.195    
    220500   565.90524      17117.331     -1225.296       1196.0199      2300.5243      16079.804      246.10361      63.012027      0.74795324     47376.069    
    220600   574.39493      17091.265     -1221.0616      1203.4164      2215.0258      16202.793      169.03179      64.365529      0.75036072     47224.066    
    220700   581.83946      17067.949     -1191.1231      1201.6583      2205.1548      16077.633      248.75569      69.63638       0.75296391     47060.8      
    220800   584.77995      17063.707     -1198.4667      1189.6651      2218.5041      16029.682      300.00618      68.019624      0.75576211     46886.558    
    220900   592.59815      16999.642     -1188.9377      1185.0346      2255.1234      16120.407      115.86117      57.172751      0.75869449     46705.34     
    221000   586.04702      17022.235     -1221.37        1197.0632      2185.3129      16058.895      266.57567      80.778849      0.76144255     46536.779    
    221100   571.38481      17030.362     -1213.7986      1187.1114      2287.0334      15983.739      273.22365      58.352731      0.76411129     46374.245    
    221200   574.37008      16894.916     -1243.9525      1196.4825      2203.2027      16020.16       218.72027      43.824915      0.76635952     46238.199    
    221300   562.13127      16985.978     -1211.439       1196.0712      2282.9056      16082.191      123.7051       56.804793      0.76832194     46120.099    
    221400   575.99327      16892.908     -1220.3986      1192.1629      2250.6684      15933.653      206.56919      75.382053      0.76973081     46035.684    
    221500   573.32588      16963.388     -1219.0896      1173.7172      2231.7656      16114.065      156.32659      50.7784        0.77114402     45951.318    
    221600   582.40677      16936.517     -1209.2369      1172.5847      2270.9691      16106.85       87.756357      51.530963      0.77220713     45888.056    
    221700   579.91224      17011.93      -1215.3079      1186.0916      2198.4938      15943.188      371.47003      70.647683      0.77241899     45875.47     
    221800   581.65256      17027.349     -1241.7496      1193.6662      2233.1521      16055.127      276.39583      52.966355      0.77292251     45845.584    
    221900   583.31648      17029.518     -1239.4248      1191.9983      2274.8291      16104.736      180.33778      58.005248      0.77328378     45824.166    
    222000   580.8431       17050.929     -1240.9248      1186.5733      2289.7687      16053.792      254.19817      49.463148      0.77307055     45836.805    
    222100   586.55105      16969.731     -1259.8765      1192.9217      2228.228       16063.319      239.63545      49.469337      0.77290596     45846.566    
    222200   571.40036      16996.168     -1211.6878      1189.6611      2167.9879      16119.378      201.61757      72.616803      0.77250075     45870.614    
    222300   568.31223      16926.275     -1241.1112      1190.3979      2243.2773      15991.27       222.03853      62.591903      0.77142313     45934.692    
    222400   566.14293      16903.941     -1223.3552      1180.6322      2282.9464      15941.544      207.40114      55.015291      0.76998291     46020.611    
    222500   559.48952      16964.418     -1208.406       1177.3881      2239.8594      16019.838      213.53285      62.148681      0.76860939     46102.851    
    222600   562.4647       16999.853     -1184.4837      1183.325       2279.9694      15935.874      268.44903      56.377784      0.7671383      46191.259    
    222700   565.22269      17074.398     -1207.4241      1176.89        2329.2336      16085.742      167.74936      62.750657      0.76550362     46289.897    
    222800   580.76642      16999.609     -1198.4093      1175.252       2258.0886      16174.285      50.818893      81.871051      0.76396193     46383.311    
    222900   574.88634      17082.223     -1214.0342      1189.7613      2163.0628      16115.434      304.76997      66.073402      0.762784       46454.939    
    223000   584.12955      17017.285     -1194.5408      1188.7992      2214.6679      16036.634      266.67564      47.233976      0.76179522     46515.236    
    223100   570.42726      17152.586     -1204.7547      1179.2638      2314.6935      16036.264      298.80183      71.706415      0.7600614      46621.344    
    223200   575.50286      17105.906     -1246.0629      1182.7107      2246.6065      16127.136      273.47041      66.068269      0.75828088     46730.816    
    223300   579.40309      17041.184     -1200.603       1184.7675      2244.1786      15994.993      286.6161       73.06291       0.7569617      46812.255    
    223400   563.46231      17101.506     -1177.0986      1185.6064      2260.954       16081.429      243.73411      49.478946      0.75609267     46866.06     
    223500   561.82034      17019.587     -1171.461       1184.2203      2206.8391      16082.973      217.9708       42.13619       0.75502839     46932.122    
    223600   565.90695      16945.982     -1173.7431      1176.9593      2288.8038      15932.336      205.4069       60.596705      0.7535201      47026.063    
    223700   575.73832      16884.44      -1191.1424      1181.7388      2200.8812      15994.816      183.50174      59.275988      0.75215851     47111.192    
    223800   571.05967      17008.251     -1208.6487      1182.3732      2230.5421      15995.793      300.08671      53.124308      0.75089012     47190.771    
    223900   574.18341      17072.475     -1215.3945      1177.9851      2262.4269      16113.873      216.93212      60.651946      0.75000843     47246.248    
    224000   577.75004      17070.932     -1195.8982      1180.6738      2225.205       16136.3        220.68439      47.882595      0.74919356     47297.636    
    224100   574.53689      17108.289     -1141.025       1185.7957      2392.4728      15995.211      170.98645      49.555815      0.74840905     47347.215    
    224200   578.1847       17084.478     -1171.31        1191.3973      2255.5344      16037.149      247.36918      68.60252       0.74697325     47438.224    
    224300   574.41718      17127.321     -1197.0003      1190.5844      2338.5728      16167.558      117.03542      58.067081      0.74583412     47510.677    
    224400   583.60233      17049.83      -1162.785       1201.8713      2307.6175      16007.247      189.67812      52.862816      0.74480056     47576.608    
    224500   573.88587      17123.824     -1188.6095      1200.4027      2278.4837      16087.089      230.11462      61.763687      0.74356522     47655.65     
    224600   574.80227      17075.655     -1215.0152      1192.6532      2275.0148      16154.108      154.08973      60.13058       0.74266637     47713.328    
    224700   574.83695      17012.416     -1175.3272      1193.7092      2178.8247      16049.528      257.3888       53.394093      0.74238871     47731.173    
    224800   567.87651      17004.496     -1140.1232      1188.1678      2341.4418      15900.982      205.69277      52.38053       0.74258165     47718.771    
    224900   559.9693       17030.202     -1156.1148      1186.5454      2236.7334      16060.239      195.06537      51.893579      0.74244112     47727.804    
    225000   566.18693      16990.652     -1147.4228      1198.2501      2307.9514      16054.065      70.577129      49.546865      0.74223966     47740.758    
    225100   568.51227      17063.454     -1166.2832      1201.7305      2278.8195      16000.055      234.23988      56.936305      0.74214535     47746.825    
    225200   590.7515       16974.11      -1155.7732      1195.5387      2276.2498      15975.554      163.38819      61.437468      0.74230719     47736.415    
    225300   583.11906      17086.907     -1160.5558      1210.3572      2259.1081      16061.798      208.41267      47.402698      0.74235057     47733.626    
    225400   580.23021      17129.882     -1140.6556      1204.7455      2344.8286      15933.867      270.50081      57.034554      0.74263474     47715.36     
    225500   580.39346      17137.204     -1140.2618      1202.7867      2349.725       16042.064      178.6105       46.522749      0.74289227     47698.819    
    225600   589.79433      17050.358     -1173.7357      1207.2348      2134.8524      16094.222      278.8737       50.012536      0.74280894     47704.17     
    225700   580.76398      17105.013     -1185.4315      1204.874       2234.476       16068.64       269.82839      54.89681       0.74303357     47689.748    
    225800   579.14274      17069.266     -1186.5081      1210.1632      2184.537       15994.629      368.76864      38.920667      0.74352502     47658.227    
    225900   575.90315      17024.038     -1167.1578      1205.9196      2259.8701      15986.496      206.96083      74.381594      0.74419577     47615.272    
    226000   568.59854      17012.169     -1184.4975      1207.005       2237.1229      16010.048      221.38184      61.923931      0.74453334     47593.684    
    226100   566.33328      16994.698     -1172.2072      1198.9574      2290.2839      16005.798      153.563        58.556872      0.74526989     47546.647    
    226200   564.29671      17026.576     -1206.1057      1199.5837      2268.3348      16075.352      167.99912      63.002163      0.74588857     47507.209    
    226300   569.10206      17078.234     -1194.7015      1199.0873      2283.5665      16071.819      191.53342      66.726825      0.74663987     47459.405    
    226400   583.25154      17090.817     -1176.5531      1191.8124      2397.3308      16028.032      137.36659      51.758982      0.74778465     47386.75     
    226500   581.81212      17153.108     -1161.8735      1196.3923      2354.339       16012.481      236.86562      56.167255      0.74812973     47364.892    
    226600   572.56123      17234.361     -1179.8275      1204.2275      2403.3356      16015.37       268.60133      64.383393      0.74780493     47385.465    
    226700   578.80896      17151.344     -1191.4991      1202.0673      2267.5811      16037.437      316.96918      62.314324      0.74702284     47435.074    
    226800   572.97534      17156.646     -1199.723       1198.4865      2298.5615      16065.995      256.68667      78.935078      0.74630304     47480.825    
    226900   578.00801      17046.934     -1167.1384      1196.8353      2276.0353      15947.285      294.81494      42.761187      0.74541644     47537.299    
    227000   568.22048      17068.125     -1188.7371      1200.193       2332.4617      16016.313      178.12923      71.126475      0.74464637     47586.459    
    227100   572.12347      16999.225     -1159.5658      1199.5777      2272.0579      15988.395      182.58956      59.115714      0.7436467      47650.429    
    227200   571.39728      17022.413     -1134.6733      1198.5151      2184.4793      16036.314      205.52321      74.300694      0.74240562     47730.086    
    227300   575.74876      17054.627     -1110.0675      1202.0692      2257.5422      15944.971      246.06483      56.512467      0.74075004     47836.763    
    227400   576.67298      17137.724     -1136.2114      1201.6546      2240.1322      16081.899      212.0912       79.738069      0.73861861     47974.805    
    227500   589.14464      17066.153     -1176.7074      1204.7657      2251.9434      16068.963      179.02498      79.952036      0.73606847     48141.016    
    227600   573.77982      17207.444     -1182.4134      1210.1741      2397.6175      15959.178      267.63715      95.31761       0.73363548     48300.668    
    227700   579.03638      17143.477     -1167.6704      1197.8433      2373.8657      15944.625      277.59027      58.19732       0.73159961     48435.078    
    227800   569.00162      17190.999     -1155.4234      1198.3289      2351.4867      16070.044      199.16771      66.603296      0.72934171     48585.023    
    227900   577.42795      17070.922     -1168.6765      1209.2758      2287.3288      15968.76       243.93299      68.062576      0.7273426      48718.56     
    228000   571.92819      17084.479     -1173.6863      1219.8349      2289.4646      15942.478      285.49486      61.839402      0.7261641      48797.626    
    228100   576.55377      17018.745     -1158.428       1219.7793      2263.2228      15998.104      180.59653      56.071652      0.72521319     48861.61     
    228200   567.39072      17098.785     -1182.9802      1212.9082      2293.0642      15987.227      270.66849      58.490672      0.72473678     48893.73     
    228300   576.83697      17066.92      -1179.5916      1208.2956      2244.1746      16015.178      247.73689      73.194821      0.72482544     48887.749    
    228400   576.16393      17174.13      -1205.4863      1210.9678      2310.5503      16044.376      280.15135      74.097196      0.72535043     48852.365    
    228500   576.80137      17246.759     -1150.0679      1200.4391      2349.2669      16010.305      309.94303      69.781735      0.72663716     48765.858    
    228600   586.24108      17188.458     -1104.0823      1200.6324      2227.6456      15960.269      363.58872      84.127797      0.72757986     48702.673    
    228700   590.33332      17139.443     -1119.1019      1195.0934      2251.0913      16101.405      196.34524      58.136329      0.72813415     48665.599    
    228800   585.0835       17133.597     -1128.8352      1184.6295      2348.2359      16093.016      119.46088      59.011672      0.72891935     48613.175    
    228900   582.1888       17074.646     -1140.575       1182.6069      2313.5077      15955.825      240.44434      62.945404      0.72947871     48575.899    
    229000   571.37382      17096.317     -1151.386       1178.179       2301.4165      16032.972      210.74093      65.723468      0.7298479      48551.327    
    229100   568.17801      17098.044     -1146.3081      1180.0732      2286.5487      16135.668      142.73394      41.038746      0.73005866     48537.311    
    229200   570.43261      17071.674     -1161.8197      1174.2853      2298.5154      16047.504      176.04734      79.003669      0.73030503     48520.937    
    229300   569.8454       17079.48      -1177.9737      1181.4007      2308.9         15977.04       270.42729      61.091103      0.7303199      48519.949    
    229400   566.11744      17124.186     -1123.3307      1182.9402      2260.2967      16075.511      196.38567      71.896878      0.73044593     48511.577    
    229500   584.50697      16998.671     -1192.5883      1196.2412      2196.8565      16016.536      250.29682      72.166077      0.73009515     48534.885    
    229600   582.60911      17074.641     -1171.1657      1195.5346      2329.2283      15927.505      257.77227      75.537829      0.72998306     48542.337    
    229700   589.96771      17076.322     -1145.8408      1196.8531      2222.5236      16061.966      237.5351       43.9209        0.72992497     48546.201    
    229800   585.47964      17173.678     -1136.1893      1200.5251      2285.0548      16052.832      249.82202      60.616929      0.72950434     48574.192    
    229900   587.84845      17172.152     -1143.1325      1199.7683      2280.594       15995.654      319.27147      59.195122      0.72931297     48586.938    
    230000   586.10957      17152.435     -1128.3373      1204.482       2288.6711      16062.118      205.93926      58.746853      0.72907759     48602.624    
    230100   577.72065      17088.158     -1155.8044      1211.2471      2187.8879      15991.627      320.02577      72.282836      0.72838619     48648.759    
    230200   562.38744      17122.241     -1151.9829      1201.369       2195.3343      16075.415      264.22865      77.104835      0.72765903     48697.374    
    230300   565.14181      17081.006     -1151.1998      1211.9829      2246.7481      16049.48       208.62062      53.935955      0.72679677     48755.148    
    230400   574.48164      17024.685     -1177.8566      1213.7645      2124.5795      16071.159      274.76041      55.246011      0.72583495     48819.755    
    230500   569.16464      17133.696     -1186.5633      1213.5547      2272.4605      16089.221      198.86471      85.600703      0.72540822     48848.473    
    230600   581.56601      17099.055     -1150.8833      1218.683       2226.5549      15953.696      343.52362      46.179928      0.72536427     48851.433    
    230700   581.3538       17164.842     -1115.0176      1212.0721      2298.8721      16049.559      180.50083      79.696273      0.7253967      48849.249    
    230800   588.42401      17134.501     -1173.3708      1221.6878      2240.9443      16120.22       189.59878      75.506145      0.72528346     48856.876    
    230900   582.16558      17188.444     -1183.5937      1208.7171      2269.3267      16111.826      253.21574      68.209423      0.72530467     48855.447    
    231000   576.72774      17212.342     -1133.2608      1217.2799      2300.5659      16070.057      232.54005      66.439005      0.72596717     48810.863    
    231100   580.51267      17138.708     -1117.8676      1216.9443      2266.5217      16037.966      212.85954      64.590633      0.7265961      48768.613    
    231200   583.84148      17063.117     -1176.3093      1212.4229      2264.9938      16049.792      183.72003      70.062526      0.72663335     48766.113    
    231300   570.25809      17129.024     -1163.903       1215.5147      2219.5199      16101.183      216.90879      81.23086       0.72718752     48728.95     
    231400   557.55966      17142.44      -1107.9098      1219.2481      2279.6735      16094.631      135.48058      63.818089      0.72815797     48664.006    
    231500   552.89083      17064.915     -1146.7299      1229.6407      2208.4341      16047.836      187.33653      79.986376      0.72888278     48615.614    
    231600   560.87548      16965.209     -1191.7455      1222.7112      2176.2048      15995.862      244.28777      60.894309      0.72967125     48563.081    
    231700   560.11928      17025.667     -1175.6891      1221.4855      2171.8444      16048.904      243.04197      60.195109      0.73044089     48511.912    
    231800   572.19319      17008.661     -1168.5685      1215.8063      2232.6499      16004.923      199.43602      68.019455      0.73108079     48469.45     
    231900   576.18982      17031.768     -1186.1357      1209.2978      2225.3314      16052.53       210.89543      62.255373      0.7318049      48421.491    
    232000   578.49084      17052.214     -1180.1029      1211.4659      2230.1413      16000.205      262.11661      71.556712      0.73256666     48371.139    
    232100   571.33443      17147.518     -1164.2243      1208.6407      2229.2101      16099.132      250.52533      65.548779      0.73347399     48311.303    
    232200   572.12831      17175.236     -1115.4476      1194.3469      2289.8638      16132.027      141.44901      75.13451       0.73412331     48268.572    
    232300   578.60391      17142.307     -1154.8887      1191.3755      2233.8901      16211.948      122.6037       78.34687       0.73425395     48259.984    
    232400   570.67669      17227.38      -1144.2755      1204.1504      2242.6587      16120.523      285.0006       60.663731      0.73445593     48246.712    
    232500   581.14797      17133.862     -1108.7056      1189.2176      2256.5343      16042.422      227.45849      67.199076      0.73494792     48214.415    
    232600   578.83918      17119.934     -1162.908       1207.7151      2211.2956      16097.29       241.38478      64.769388      0.7348963      48217.802    
    232700   566.91995      17144.328     -1151.7607      1199.0083      2317.675       16103.875      152.57494      64.394373      0.7347633      48226.53     
    232800   568.35272      17061.625     -1128.4698      1183.4523      2234.1691      16067.425      191.46714      57.388563      0.73471609     48229.628    
    232900   558.1984       17134.307     -1134.5277      1189.0558      2270.9721      16093.863      191.35851      67.323975      0.73440994     48249.734    
    233000   577.06421      16995.777     -1195.7188      1194.3458      2190.6496      16009.762      257.08741      83.034886      0.73404193     48273.923    
    233100   571.51694      17112.99      -1196.2455      1191.5184      2314.0701      16070.221      224.10495      52.202982      0.73391234     48282.447    
    233200   583.06832      17104.648     -1176.9871      1198.1384      2266.7628      16114.313      191.16897      53.085561      0.73381493     48288.857    
    233300   573.86538      17260.039     -1166.4985      1200.6572      2265.1563      16110.562      325.25615      65.861806      0.73375729     48292.65     
    233400   579.94118      17228.926     -1178.9497      1191.9257      2326.8808      16128.299      226.53616      75.959911      0.73374187     48293.665    
    233500   591.68416      17107.746     -1209.8997      1190.4983      2257.5232      16022.347      335.22744      53.329163      0.73378232     48291.003    
    233600   579.95831      17175.734     -1180.622       1196.2631      2269.5541      16083.225      284.50612      63.087006      0.73426335     48259.366    
    233700   574.94742      17182.53      -1211.5273      1189.8588      2246.1443      16080.613      364.09884      53.790423      0.73478746     48224.944    
    233800   572.945        17167.994     -1207.4606      1190.7871      2403.8159      15908.983      357.05359      54.62905       0.73526728     48193.473    
    233900   579.36045      17089.847     -1188.7634      1195.8155      2267.8339      15963.157      316.67389      74.874397      0.73585479     48154.996    
    234000   587.17346      17005.535     -1183.9689      1199.911       2149.8428      16036.704      276.72871      66.976876      0.73617884     48133.798    
    234100   578.21736      17065.188     -1200.2095      1191.0504      2340.7127      15987.762      225.32852      64.055147      0.7363687      48121.388    
    234200   572.3015       17073.556     -1188.5779      1184.7879      2207.4749      16006.969      351.02377      54.531863      0.73706933     48075.646    
    234300   558.0529       17139.993     -1155.2339      1193.5512      2286.9746      15984.858      306.49733      67.671893      0.73790615     48021.126    
    234400   573.77712      16933.862     -1195.1271      1193.1588      2238.4524      15871.848      313.08861      56.685251      0.73836383     47991.359    
    234500   561.30267      16997.237     -1185.5978      1194.3372      2295.7227      15958.519      227.17187      50.440031      0.73873323     47967.362    
    234600   562.5395       16988.476     -1224.2081      1194.1827      2275.7061      15918.455      313.49086      53.641967      0.73898778     47950.839    
    234700   568.09731      17020.264     -1221.3453      1195.4948      2266.6562      16039.59       214.22714      67.222131      0.73940967     47923.48     
    234800   578.11762      17044.366     -1193.7054      1181.3362      2326.4079      15949.513      280.64418      40.819879      0.74002636     47883.543    
    234900   583.53981      17055.137     -1186.0659      1165.4892      2160.1809      16028.587      365.1692       60.546497      0.74079143     47834.09     
    235000   586.17358      17045.004     -1185.8099      1170.0705      2292.4983      16092.917      143.67686      72.510007      0.74128018     47802.551    
    235100   571.49552      17155.699     -1178.8361      1175.2077      2268.5218      16186.745      184.12769      59.701208      0.7413652      47797.069    
    235200   574.99011      17088.634     -1213.3131      1189.9828      2209.8318      16156.993      217.66132      68.87987       0.74126783     47803.348    
    235300   572.38941      17074.149     -1160.5622      1184.2518      2277.1523      16064.732      189.76312      59.878481      0.74127878     47802.642    
    235400   566.83833      17088.814     -1183.202       1184.4615      2316.2027      16051.842      212.11467      50.274265      0.7408269      47831.8      
    235500   564.91861      17074.414     -1165.6947      1191.5269      2354.3684      16011.572      153.26944      70.823256      0.74003645     47882.89     
    235600   572.88469      16982.005     -1180.8908      1197.0351      2136.1621      16094.042      232.22147      46.502116      0.73891394     47955.631    
    235700   576.83135      16939.525     -1184.3972      1193.1578      2303.8337      16074.739      47.621735      45.948233      0.73756639     48043.247    
    235800   574.59104      16980.461     -1166.0542      1191.2835      2211.0757      16001.499      239.81464      44.330053      0.73620575     48132.039    
    235900   583.53962      16957.846     -1187.5514      1191.2209      2203.4362      16054.982      163.53094      72.949276      0.73478648     48225.009    
    236000   575.1151       17113.902     -1182.608       1181.7014      2265.9858      16233.741      95.876222      60.522301      0.73339728     48316.356    
    236100   574.17802      17193.045     -1151.4492      1189.6132      2318.7485      16114.319      215.98519      45.782836      0.7321094      48401.351    
    236200   584.74857      17143.56      -1164.0448      1191.7252      2350.217       15968.909      262.72588      72.381594      0.73071869     48493.469    
    236300   592.72107      17076.702     -1182.2536      1189.8153      2258.0807      16055.63       221.29628      71.238502      0.72956773     48569.972    
    236400   589.38477      17067.14      -1151.7316      1200.4129      2287.0556      16036.525      182.55793      48.679357      0.7287102      48627.128    
    236500   579.45581      17081.233     -1125.5532      1199.8728      2207.1608      15961.725      312.8612       61.326752      0.72779566     48688.232    
    236600   565.56234      17129.25      -1153.5706      1189.2995      2328.4226      16140.115      102.66651      60.350788      0.72634747     48785.306    
    236700   567.88346      17065.444     -1127.1354      1176.518       2354.1851      16003.429      129.91897      67.636423      0.72460616     48902.543    
    236800   565.92529      17066.689     -1136.6618      1186.2134      2281.537       16000.216      202.11521      69.701597      0.72320512     48997.28     
    236900   563.63398      17100.986     -1125.7147      1181.1823      2295.6327      16067.67       151.89608      67.834531      0.72200561     49078.682    
    237000   577.55593      17002.29      -1145.5325      1173.6927      2268.4532      16123.061      70.29597       50.359924      0.7209268      49152.125    
    237100   563.03265      17154.549     -1165.066       1182.9922      2225.6996      16068.891      324.79118      55.419801      0.720007       49214.916    
    237200   575.82568      17070.639     -1139.5156      1183.1226      2195.7588      16060.079      250.03492      59.668542      0.71959056     49243.398    
    237300   567.43062      17185.295     -1127.3913      1171.8519      2329.5601      16116.26       166.55577      67.370853      0.71951168     49248.796    
    237400   587.78654      17052.141     -1161.1376      1186.2516      2206.8374      16022.391      276.39974      61.22568       0.71918826     49270.943    
    237500   583.15817      17144.519     -1114.0704      1197.8996      2197.5374      16088.237      264.0038       53.487924      0.71926739     49265.523    
    237600   577.77119      17240.145     -1141.0542      1187.6402      2373.5245      16110.387      170.27344      80.002258      0.71910291     49276.792    
    237700   588.26281      17161.961     -1152.3269      1191.2711      2313.913       16031.459      252.85832      64.488969      0.71905502     49280.073    
    237800   573.94175      17261.746     -1132.0797      1197.7305      2392.17        16090.674      201.96311      51.842294      0.719424       49254.798    
    237900   575.35101      17158.93      -1146.4907      1201.2409      2295.6181      16079.552      211.58864      57.116434      0.71980669     49228.612    
    238000   568.13247      17113.127     -1177.0012      1198.5506      2308.6289      16152.165      97.290543      73.276148      0.7198164      49227.948    
    238100   563.90792      17103.039     -1209.2779      1206.6945      2207.8093      16037.09       331.61619      67.956108      0.72008224     49209.773    
    238200   563.43939      17107.22      -1158.2005      1191.9861      2225.4303      16095.756      241.30545      50.228838      0.72088006     49155.311    
    238300   569.8943       17073.831     -1143.574       1187.1919      2241.8071      16100.471      179.81785      48.396237      0.72165245     49102.701    
    238400   568.95319      17121.824     -1170.7207      1198.0619      2287.5005      16171.306      117.18668      57.718961      0.72205872     49075.073    
    238500   566.85761      17196.339     -1143.0046      1193.5174      2346.9575      16182.88       107.0156       48.222187      0.72255309     49041.496    
    238600   580.58252      17122.166     -1126.9176      1198.6997      2256.0725      16082.406      201.04297      50.13647       0.72286003     49020.671    
    238700   589.8477       17064.277     -1149.7466      1204.1001      2180.3763      15993.781      319.51168      56.432711      0.72251058     49044.381    
    238800   585.5854       17105.739     -1185.4747      1213.2621      2270.5743      16074.149      202.90962      71.22634       0.72260554     49037.936    
    238900   580.22102      17150.538     -1166.9322      1214.3868      2310.357       16146.963      121.09621      65.090329      0.72312213     49002.904    
    239000   581.62617      17127.942     -1178.8624      1219.976       2297.1071      16032.855      234.50786      63.226748      0.72363346     48968.278    
    239100   575.1652       17158.796     -1171.7529      1218.6816      2391.5824      16055.456      151.30781      55.16075       0.72388081     48951.545    
    239200   575.01582      17127.351     -1178.0285      1216.7798      2323.4078      16023.493      222.61751      63.970808      0.72429802     48923.348    
    239300   572.15637      17118.56      -1187.7411      1220.0784      2312.0494      16109.485      152.42787      58.396371      0.72477048     48891.456    
    239400   568.1013       17116.29      -1179.257       1219.8068      2262.5445      16126.013      181.10398      52.012822      0.72536632     48851.295    
    239500   571.68797      17033.472     -1170.6874      1236.1302      2225.887       16067.442      164.04424      56.524076      0.7263406      48785.768    
    239600   569.4095       16970.394     -1181.4259      1225.6071      2231.4406      16054.406      120.9794       64.865684      0.72767097     48696.575    
    239700   558.88712      16997.082     -1175.5243      1212.3492      2229.2575      16073.959      147.47227      55.095463      0.72916106     48597.06     
    239800   557.68792      17009.188     -1199.7572      1214.0205      2167.8452      16104.552      218.7687       50.372534      0.73044625     48511.556    
    239900   569.38268      16977.123     -1142.0779      1208.4684      2204.5763      16113.716      91.151041      47.433437      0.7319693      48410.615    
    240000   578.58499      16995.354     -1163.9903      1209.8308      2270.719       16093.161      73.983921      56.243629      0.73328968     48323.446    
    240100   579.59004      17047.876     -1215.1267      1200.3125      2270.8427      16081.549      188.71471      65.348936      0.73447866     48245.219    
    240200   589.79995      16982.162     -1207.691       1187.6593      2236.8628      16133.845      110.42809      62.864426      0.73573343     48162.938    
    240300   593.97779      16942.659     -1191.4205      1186.1485      2188.3493      16037.489      210.35218      51.5534        0.73702031     48078.843    
    240400   569.97185      17130.301     -1191.5538      1191.7311      2247.9805      16161.887      186.25695      74.310302      0.73810098     48008.45     
    240500   571.95772      17067.736     -1200.4066      1184.4612      2278.5191      16115.163      165.05521      65.76134       0.73915314     47940.111    
    240600   572.06925      17003.389     -1178.0688      1195.4907      2281.5548      16008.963      183.16018      52.775394      0.74051894     47851.692    
    240700   566.20207      16992.026     -1182.0421      1188.9917      2198.2699      16015.662      260.80895      51.310708      0.74166922     47777.477    
    240800   560.01051      16993.775     -1196.9375      1191.6418      2318.4531      16035.362      126.69984      60.055072      0.74281411     47703.838    
    240900   560.47213      16947.357     -1224.0334      1190.436       2275.8044      16040.212      153.04785      53.819711      0.74379084     47641.194    
    241000   567.65297      16871.727     -1217.8612      1187.7628      2169.4411      15998.129      221.53487      54.408224      0.74466615     47585.195    
    241100   570.40818      16908.694     -1198.0675      1189.0871      2195.5208      15946.697      249.14315      67.188573      0.74543147     47536.341    
    241200   568.69953      17039.191     -1188.1914      1185.8295      2263.4481      16076.882      191.6504       51.046069      0.7463193      47479.791    
    241300   572.00939      17099.032     -1177.1855      1187.6558      2278.0038      16039.954      257.88277      54.56478       0.74699518     47436.831    
    241400   583.70388      17042.607     -1190.8816      1190.7758      2324.4481      16017.542      194.6163       47.151561      0.7472877      47418.262    
    241500   571.21096      17183.339     -1187.7648      1198.8588      2307.8263      16133.083      217.64576      55.560235      0.74710468     47429.878    
    241600   577.86317      17137.005     -1201.4231      1194.0869      2281.8343      16102.581      227.84008      75.332175      0.74671028     47454.93     
    241700   582.9958       17070.742     -1216.7024      1177.5237      2263.4984      16110.549      228.33881      51.39858       0.74643784     47472.251    
    241800   573.05883      17094.782     -1188.6515      1176.021       2314.2831      16171.248      105.28715      61.82181       0.74649857     47468.388    
    241900   577.09478      16970.27      -1201.4821      1185.9493      2226.5637      15988.069      250.9868       63.2037        0.74659714     47462.121    
    242000   575.46535      16915.81      -1199.3272      1191.5654      2191.2468      16001.376      218.01975      56.126095      0.74698755     47437.315    
    242100   570.70689      16925.452     -1238.7418      1191.3577      2202.1589      15973.856      273.12286      65.996096      0.74717718     47425.276    
    242200   573.97316      16903.255     -1185.8428      1190.2755      2197.2271      15955.868      220.51214      65.814375      0.74770492     47391.803    
    242300   567.17956      17004.826     -1204.5029      1201.034       2215.2328      15990.733      280.6398       60.490192      0.74862451     47333.588    
    242400   576.313        16972.86      -1221.196       1203.8236      2184.3375      16013.221      276.33224      51.84345       0.74986655     47255.187    
    242500   557.50018      17182.29      -1198.0567      1198.7825      2389.4035      16102.385      162.34667      65.669978      0.75163213     47144.185    
    242600   581.46744      17002.265     -1182.4085      1199.5825      2188.4491      16078.661      200.59098      58.177506      0.75318658     47046.887    
    242700   575.99251      17073.453     -1190.0211      1199.3141      2346.938       16056.724      128.16794      74.643694      0.75469776     46952.682    
    242800   572.65729      17116.072     -1195.1281      1205.9679      2255.8026      16149.769      195.67968      44.849179      0.75633454     46851.072    
    242900   579.21213      17062.674     -1215.3595      1212.5738      2286.3684      16088.047      183.75899      48.218654      0.75818798     46736.542    
    243000   585.23221      17000.876     -1199.8305      1220.0366      2336.2818      16013.177      106.39851      62.927531      0.76054721     46591.564    
    243100   570.39254      17092.535     -1213.3874      1216.8004      2196.1834      16081.284      294.22145      54.971934      0.76271673     46459.036    
    243200   566.04888      17061.34      -1214.4748      1205.3181      2349.6664      16079.536      133.61926      43.641677      0.76471053     46337.905    
    243300   571.88654      16939.189     -1220.2213      1210.0778      2174.1813      16078.675      179.01215      52.183717      0.76658088     46224.847    
    243400   573.5084       16886.585     -1207.4813      1205.0705      2199.1058      15975.132      177.50328      73.200146      0.76837297     46117.036    
    243500   572.72019      16885.356     -1239.3243      1200.3025      2224.8497      15984.342      195.81888      56.097968      0.76996835     46021.482    
    243600   570.29888      16931.909     -1231.9054      1200.5566      2284.6291      15947.192      208.08839      62.358658      0.77193407     45904.288    
    243700   575.34769      16973.534     -1229.6916      1190.7951      2129.2382      16105.806      259.65021      57.820252      0.77350322     45811.166    
    243800   583.95731      17001.91      -1205.8345      1193.6244      2258.2542      15993.349      234.2812       68.269663      0.77495217     45725.511    
    243900   579.51489      17085.719     -1238.6893      1200.9016      2357.0619      15994.829      240.74049      69.167128      0.77590424     45669.404    
    244000   575.67108      17127.108     -1226.6029      1194.6649      2307.9931      16053.157      275.91837      61.943301      0.77672677     45621.041    
    244100   575.83538      17111.472     -1247.7095      1195.0344      2360.3724      16048.578      243.40177      52.620165      0.77717065     45594.985    
    244200   582.33819      17013.153     -1227.4708      1210.4449      2369.0704      15932.642      194.1947       76.67228       0.77787056     45553.96     
    244300   571.39205      17056.419     -1246.7022      1218.2568      2334.2152      16061.831      171.99963      58.363499      0.77882455     45498.16     
    244400   566.51408      17048.903     -1265.5489      1208.0611      2312.5051      16018.24       257.09001      60.742506      0.77976289     45443.409    
    244500   570.24347      16992.373     -1262.1246      1200.7711      2242.775       16034.775      262.3865       56.137053      0.78103073     45369.641    
    244600   571.19143      16983.648     -1243.1143      1199.6954      2209.5615      16052.601      245.8314       63.771449      0.78221502     45300.951    
    244700   564.76006      17057.025     -1249.3569      1194.7664      2314.6801      16115.69       166.35941      58.081348      0.78290494     45261.03     
    244800   563.19862      17096.148     -1265.4353      1197.2882      2341.717       16074.463      228.04238      63.024534      0.7836803      45216.25     
    244900   580.66418      16961.069     -1256.451       1201.056       2234.1316      15993.418      276.29043      55.01768       0.78438487     45175.634    
    245000   582.61055      16957.647     -1257.6022      1197.5719      2266.9965      15991.099      235.81583      64.942052      0.78498915     45140.858    
    245100   579.72056      16998.665     -1290.919       1196.3946      2261.2161      16026.036      283.39362      65.208751      0.7857342      45098.055    
    245200   577.44146      17031.898     -1257.2819      1197.8232      2269.9239      16041.397      274.93118      47.849773      0.78700872     45025.021    
    245300   584.89402      16968.14      -1263.4082      1198.0374      2268.8656      16053.384      196.39369      58.235802      0.78807701     44963.987    
    245400   577.21549      17028.999     -1231.6573      1207.212       2241.0767      16005.848      291.89073      58.165769      0.78856808     44935.986    
    245500   575.64084      17021.025     -1245.9899      1212.7745      2229.0071      16005.388      317.58578      45.118512      0.78873011     44926.755    
    245600   575.92122      16998.905     -1231.7564      1206.5766      2218.9674      16064.76       211.09095      73.675308      0.78853585     44937.822    
    245700   576.10799      16976.979     -1283.4962      1209.1376      2225.5516      16100.845      213.20472      56.781393      0.78773064     44983.757    
    245800   574.4208       16974.133     -1259.1818      1206.4877      2285.2632      16035.981      187.98823      61.152774      0.7865546      45051.016    
    245900   578.00339      16943.342     -1271.993       1217.3221      2245.2993      16001.542      239.66666      53.181485      0.78544188     45114.839    
    246000   580.29306      16936.567     -1291.9981      1222.8293      2267.577       16056.818      162.06282      60.857553      0.78455273     45165.969    
    246100   572.36088      17034.061     -1273.097       1219.7769      2273.9937      16015.338      275.2939       63.208498      0.78399888     45197.876    
    246200   576.53905      17037.157     -1263.1028      1213.0049      2335.2494      16103.92       132.48699      57.097039      0.78355796     45223.309    
    246300   587.19719      16992.832     -1269.8941      1206.9072      2261.4434      16108.34       164.23061      62.796003      0.78305799     45252.184    
    246400   588.39473      17025.196     -1259.0965      1210.5475      2197.1851      16046.45       297.68344      73.379706      0.78249804     45284.566    
    246500   576.14678      17157.201     -1231.1173      1208.7726      2295.5242      16163.121      188.94295      70.677389      0.78191086     45318.573    
    246600   584.18091      17082.608     -1248.122       1218.3702      2271.4452      16022.257      296.84353      60.290899      0.7812534      45356.71     
    246700   579.86984      17066.963     -1228.1892      1212.4764      2230.092       16078.648      257.94754      56.422589      0.78093786     45375.037    
    246800   579.61643      16958.832     -1261.1328      1204.4109      2294.3339      16085.911      139.10869      40.241337      0.78059162     45395.163    
    246900   576.39434      16906.159     -1270.3002      1205.0221      2271.7643      15990.699      204.67085      47.045867      0.77991456     45434.572    
    247000   568.70358      16949.232     -1223.6973      1206.2361      2272.8726      15954.397      220.98506      59.625347      0.77937397     45466.086    
    247100   566.24799      16993.626     -1245.2034      1203.545       2294.5815      16057.406      178.8007       45.886146      0.77834752     45526.045    
    247200   573.63557      16973.089     -1213.0519      1191.0567      2207.691       16071.124      197.63793      61.699155      0.7773014      45587.315    
    247300   581.46965      16957.293     -1240.4489      1201.3711      2225.4369      15994.697      254.04972      65.456992      0.77638603     45641.063    
    247400   586.08305      16966.229     -1265.407       1200.7324      2296.2236      16030.905      179.21857      67.56338       0.7756146      45686.458    
    247500   583.61585      17016.543     -1248.0073      1190.1253      2247.0509      16078.542      231.79645      60.206361      0.77518848     45711.572    
    247600   577.23322      17089.497     -1223.187       1197.0886      2259.4427      16030.775      285.63443      82.456586      0.77471448     45739.54     
    247700   589.98092      16972.004     -1259.1746      1191.163       2225.1494      16079.994      215.0404       62.406917      0.77400172     45781.661    
    247800   574.82641      17047.148     -1217.962       1201.0656      2194.4103      16049.477      279.78346      81.426015      0.77376573     45795.624    
    247900   579.08062      16924.247     -1209.6073      1197.286       2194.8673      16035.047      193.37051      56.307952      0.77338293     45818.291    
    248000   570.21259      16950.199     -1237.3429      1209.5085      2192.11        16038.942      215.0862       73.741563      0.77272462     45857.325    
    248100   565.61417      16975.126     -1276.6851      1220.8987      2105.051       16042.398      358.17807      65.944272      0.77232201     45881.23     
    248200   568.39068      16979.785     -1219.5057      1210.4368      2279.8412      15962.654      206.3308       78.100488      0.77231315     45881.757    
    248300   575.4575       16982.748     -1228.2787      1202.4305      2198.2816      16020.077      266.61975      61.453783      0.7719634      45902.544    
    248400   576.0928       17067.796     -1217.6835      1191.1374      2256.8486      16092.593      201.33335      81.740931      0.77144836     45933.19     
    248500   587.99042      17018.666     -1245.0877      1191.8441      2197.0085      16056.505      301.13687      57.850266      0.77083289     45969.865    
    248600   581.44937      17085.366     -1208.9041      1195.0945      2185.9725      16056.325      303.87116      91.935224      0.7701899      46008.243    
    248700   587.72895      17001.384     -1252.9023      1186.5129      2206.0239      16071.668      242.76272      89.15518       0.76948854     46050.178    
    248800   584.8945       16977.878     -1232.7109      1191.3406      2320.8763      15883.227      294.12586      63.264737      0.76882025     46090.206    
    248900   574.24971      17020.948     -1225.3024      1205.3621      2255.6703      15980.913      286.75309      59.350553      0.76799965     46139.453    
    249000   566.55721      17057.933     -1221.2658      1202.6481      2274.5607      16099.67       173.92248      69.558282      0.76689827     46205.717    
    249100   583.61214      16900.549     -1228.8853      1198.1469      2239.0079      15929.976      244.3877       60.37086       0.76584475     46269.279    
    249200   564.94717      17078.931     -1205.4918      1208.1864      2269.1954      15981.908      295.82007      71.150622      0.76422464     46367.366    
    249300   569.3834       17053.549     -1222.5749      1200.4217      2297.6607      15970.129      269.85831      80.180551      0.7621857      46491.405    
    249400   564.26512      17111.51      -1253.9508      1204.8909      2189.959       16095.459      356.07928      61.726103      0.75954734     46652.897    
    249500   578.7631       17004.545     -1198.6975      1195.4743      2160.2054      16009.066      303.79449      77.069251      0.75674188     46825.853    
    249600   575.20676      17065.967     -1211.9762      1197.102       2234.9494      16081.624      219.62491      85.926267      0.75363397     47018.958    
    249700   576.50869      17076.841     -1166.268       1196.2178      2205.1981      16029.785      267.59433      85.694345      0.74991164     47252.346    
    249800   578.99724      17088.781     -1184.5215      1210.4527      2278.9202      15946.327      310.20048      69.182388      0.74603398     47497.949    
    249900   585.60546      17098.128     -1168.0834      1208.4182      2232.3422      16052.91       210.38493      103.18498      0.74171791     47774.341    
    250000   591.84204      17153.944     -1207.3487      1211.4134      2282.8294      16119.238      211.09578      78.400835      0.73738452     48055.096    
    250100   588.87514      17237.73      -1141.3087      1216.0005      2315.3221      16083.679      246.16167      60.949406      0.73338597     48317.101    
    250200   584.85744      17267.478     -1158.8003      1213.8597      2322.9901      16025.366      325.51391      79.7636        0.72943837     48578.585    
    250300   577.91986      17260.975     -1183.2414      1207.7143      2369.5175      16107.701      223.8874       76.048612      0.72581425     48821.147    
    250400   573.51587      17207.666     -1150.8087      1203.4119      2270.0325      16037.028      308.43428      80.126299      0.7228165      49023.624    
    250500   577.09244      17120.502     -1140.6089      1217.5039      2372.863       15892.612      246.00601      73.692263      0.72048852     49182.025    
    250600   565.77516      17200.696     -1147.4409      1211.7966      2273.7969      16070.355      259.46387      74.645623      0.71849404     49318.55     
    250700   574.0783       17114.674     -1124.7514      1206.0341      2297.6676      15979.074      228.14609      69.811723      0.71704579     49418.16     
    250800   569.4306       17159.9       -1122.6824      1207.5331      2248.9116      16006.474      293.83154      67.147057      0.71581348     49503.237    
    250900   567.47129      17187.907     -1136.9778      1215.4199      2262.2603      16111.109      210.8327       67.35915       0.71484801     49570.095    
    251000   565.50718      17223.848     -1148.0029      1210.78        2315.171       16066.234      241.75893      80.847441      0.71452996     49592.16     
    251100   586.60637      17061.061     -1153.7821      1201.7191      2258.43        15939.968      289.84429      66.474413      0.71448693     49595.147    
    251200   572.03339      17226.987     -1117.9158      1190.6574      2276.6681      16047.214      302.97526      70.281961      0.71473413     49577.994    
    251300   585.45314      17152.686     -1133.2725      1183.3822      2253.0693      16011.602      315.80138      65.507669      0.71498308     49560.731    
    251400   578.34691      17243.302     -1115.3854      1198.7341      2334.016       16103.218      205.00208      60.588154      0.71535        49535.31     
    251500   585.72678      17180.001     -1104.127       1199.7956      2327.8485      16018.643      210.21677      70.87815       0.71606337     49485.961    
    251600   576.23281      17226.176     -1138.6009      1207.2932      2291.8705      16125.976      210.7483       71.75909       0.71680582     49434.705    
    251700   576.6884       17141.514     -1119.5994      1199.0238      2220.9488      16042.506      262.75875      78.162803      0.71758315     49381.154    
    251800   571.57391      17107.085     -1162.8032      1200.5973      2298.0613      16023.305      243.28436      46.891633      0.71864397     49308.261    
    251900   573.88992      17034.148     -1109.9058      1207.9102      2229.2281      15941.143      239.98834      66.675381      0.71970492     49235.573    
    252000   565.34861      17086.715     -1126.0724      1194.2645      2284.2202      15980.853      237.54512      57.725264      0.72074709     49164.38     
    252100   569.20346      17056.247     -1139.713       1201.7865      2321.3279      15941.462      218.08983      53.668066      0.72203085     49076.967    
    252200   568.15293      17097.088     -1165.9214      1205.8859      2393.2902      16043.068      92.212269      68.754174      0.72336416     48986.508    
    252300   583.77971      17030.249     -1166.1264      1206.7648      2240.006       15961.907      258.74262      70.014386      0.72466026     48898.892    
    252400   589.52078      17069.213     -1120.0094      1199.558       2284.8113      15943.511      243.15324      59.478059      0.72634295     48785.61     
    252500   587.69014      17159.421     -1137.8545      1195.197       2321.5055      16078.665      184.32716      60.260319      0.72789067     48681.877    
    252600   599.1023       17123.253     -1141.4503      1194.9342      2269.1135      16103.503      177.37567      63.363995      0.72968614     48562.09     
    252700   588.94262      17295.445     -1137.4494      1177.1143      2429.779       16065.282      235.08776      69.938442      0.73122713     48459.75     
    252800   598.12612      17238.784     -1140.7291      1175.5908      2369.3195      16067.694      246.38726      65.900788      0.73244809     48378.97     
    252900   588.2025       17236.419     -1152.9982      1181.8321      2367.1235      16073.641      233.96321      76.545307      0.73349179     48310.13     
    253000   592.61668      17066.057     -1168.141       1193.7261      2289.4155      16016.043      216.83695      60.483457      0.73467445     48232.362    
    253100   578.83261      17100.269     -1161.0859      1197.9959      2277.2895      16067.204      210.63311      48.60369       0.73562209     48170.228    
    253200   570.67653      17104.096     -1215.7474      1204.2298      2296.5093      15998.602      301.84326      57.551505      0.73667343     48101.482    
    253300   572.70857      17021.648     -1188.1787      1197.9471      2229.1359      16040.329      202.59689      79.475486      0.73831419     47994.586    
    253400   567.66761      17033.122     -1169.9916      1196.4482      2227.6621      16117.924      135.31984      64.326423      0.7402076      47871.819    
    253500   556.98893      17128.869     -1203.4572      1197.753       2275.0093      16062.516      274.61666      62.009542      0.74196802     47758.236    
    253600   575.1465       17005.486     -1197.951       1193.8138      2280.7578      15963.417      248.11238      58.419367      0.74369816     47647.131    
    253700   583.27319      17003.427     -1174.3039      1188.7606      2178.1795      16034.561      253.79229      63.947584      0.74554091     47529.362    
    253800   586.21729      17050.428     -1182.7738      1187.5528      2210.3702      15993.984      297.34772      85.65076       0.74702714     47434.801    
    253900   585.37635      17098.076     -1211.5959      1186.7006      2306.8498      16111.152      175.99149      70.460577      0.74829495     47354.434    
    254000   595.19881      17011.709     -1223.6784      1184.8179      2251.6299      16074.34       214.01414      53.790348      0.74927417     47292.547    
    254100   574.56214      17146.427     -1213.0731      1190.4091      2326.8733      16105.185      219.53282      61.517824      0.75032525     47226.298    
    254200   566.13225      17120.85      -1233.2986      1192.3931      2373.1886      16050.954      215.63433      66.470201      0.75131002     47164.397    
    254300   578.03144      16935.336     -1204.0403      1195.9259      2282.1086      15933.491      214.10656      58.739585      0.75235118     47099.128    
    254400   571.38731      16978.975     -1180.9123      1198.4671      2272.5796      15972.983      189.83479      70.614708      0.75342009     47032.306    
    254500   568.46595      17010.55      -1224.5781      1199.051       2307.7803      16035.144      176.93727      59.215423      0.75415607     46986.407    
    254600   561.81538      17082.232     -1220.3877      1192.4539      2362.8875      16068.963      169.72287      51.237068      0.75484126     46943.756    
    254700   570.18341      17035.098     -1225.8182      1186.4894      2245.354       16056.47       253.10863      61.309739      0.7556381      46894.253    
    254800   562.28809      17148.538     -1201.8645      1187.8351      2289.8799      16148.1        195.25961      68.814235      0.75642968     46845.18     
    254900   575.3716       17082.35      -1232.3316      1188.4423      2261.7444      16100.523      227.71325      75.566428      0.75705141     46806.708    
    255000   581.26012      17077.419     -1236.6221      1180.0116      2275.5376      16049.161      276.85679      71.607981      0.7576762      46768.11     
    255100   585.10588      17057.902     -1182.49        1187.9056      2266.0754      16008.276      268.30228      47.938974      0.75847195     46719.043    
    255200   579.12039      17085.129     -1200.3212      1182.1278      2263.2513      16104.169      214.91205      61.062107      0.75871453     46704.106    
    255300   584.37795      16936.978     -1230.7357      1186.1408      2275.8841      15956.761      219.12909      68.546548      0.75840085     46723.424    
    255400   571.99698      16931.233     -1216.8171      1185.606       2222.8565      15978.739      230.89782      69.419779      0.75814292     46739.319    
    255500   566.9458       16935.788     -1208.7668      1187.0032      2279.9369      15979.901      195.17242      41.850139      0.75804211     46745.535    
    255600   559.02396      17007.484     -1225.0939      1181.5         2236.7657      16113.117      181.01299      61.799263      0.7577043      46766.376    
    255700   567.15791      16965.766     -1227.0165      1185.3375      2239.5515      16056.21       182.32275      72.254585      0.75708907     46804.379    
    255800   571.56794      16982.488     -1244.5424      1191.0231      2304.5868      16002.191      208.94415      63.553415      0.75650349     46840.609    
    255900   578.89551      16982.891     -1229.648       1188.5997      2191.1866      16065.928      246.88202      64.28563       0.75630748     46852.749    
    256000   580.76191      17028.008     -1195.5922      1192.2007      2162.9932      16094.464      237.23193      81.207029      0.75621172     46858.681    
    256100   592.61735      16956.088     -1196.3055      1184.283       2173.8186      16024.025      258.55871      56.368716      0.75620087     46859.353    
    256200   573.0891       17126.524     -1183.4567      1186.2639      2344.0197      16021.927      226.56924      74.03651       0.75620555     46859.064    
    256300   568.94653      17136.811     -1195.4802      1180.486       2325.8239      16133.851      173.56694      60.151285      0.7559414      46875.438    
    256400   577.22923      17039.153     -1192.6161      1176.907       2217.0423      16097.377      209.14162      74.346759      0.75535121     46912.063    
    256500   579.83197      16996.598     -1205.5585      1195.6738      2290.6073      15957.121      244.12109      57.280513      0.7548048      46946.024    
    256600   574.59102      17030.619     -1218.6153      1180.1535      2305.4413      16039.481      188.36287      76.042125      0.75434991     46974.333    
    256700   565.01197      17101.21      -1184.9566      1195.1806      2296.9542      16183.147      80.309307      69.03101       0.75414212     46987.276    
    256800   572.95151      17026.215     -1186.4632      1189.6713      2257.4634      15953.115      307.36047      47.333928      0.75399289     46996.576    
    256900   573.32401      17007.225     -1188.5151      1194.0983      2224.3301      16025.777      233.0463       57.832053      0.7542865      46978.282    
    257000   571.74635      16995.206     -1174.433       1192.0366      2243.7041      16019.52       191.88554      63.602413      0.75463652     46956.493    
    257100   569.19441      16982.406     -1212.6147      1184.9017      2248.7596      15997.428      245.51179      62.450111      0.75487853     46941.439    
    257200   576.52591      16871.042     -1199.4886      1184.8023      2145.0129      16027.145      208.97661      46.881622      0.75589093     46878.568    
    257300   557.78721      16983.261     -1197.0518      1207.3758      2268.5347      15955.418      214.24154      76.301435      0.75744241     46782.546    
    257400   557.55642      16948.814     -1201.3513      1196.2861      2300.498       16034.375      113.16161      47.088389      0.75924771     46671.309    
    257500   567.28056      16870.668     -1212.9319      1206.5052      2242.7667      15943.001      181.4475       51.617026      0.76140299     46539.197    
    257600   575.86462      16872.084     -1226.8309      1200.8501      2086.5364      16039.41       251.36714      62.326275      0.76372438     46397.738    
    257700   572.61726      17005.028     -1255.684       1203.2626      2229.651       16062.214      229.70755      77.993293      0.76595501     46262.618    
    257800   587.49563      16924.265     -1278.7506      1197.2348      2292.3966      16046.783      164.70365      44.498786      0.76871103     46096.755    
    257900   584.72023      16962.255     -1193.9247      1200.6377      2245.9681      16003.767      184.48074      64.744014      0.77170508     45917.909    
    258000   584.97532      16951.781     -1244.6828      1196.1776      2274.3791      16099.344      111.14095      60.258906      0.77417727     45771.279    
    258100   575.89832      16995.017     -1232.5456      1181.3888      2332.2553      15978.097      228.86281      53.361104      0.77617465     45653.493    
    258200   572.04578      16963.244     -1240.1792      1184.862       2271.0976      16060.47       168.13868      63.423925      0.77803454     45544.359    
    258300   568.34457      16927.333     -1228.5035      1186.6485      2164.7442      16110.488      180.42581      59.320953      0.779531       45456.928    
    258400   564.88187      16918.766     -1253.3341      1187.1964      2282.3273      16068.372      111.53969      67.192069      0.78076923     45384.837    
    258500   570.08659      16869.69      -1245.1355      1197.8816      2252.6682      16016.056      154.84213      38.017204      0.7820335      45311.466    
    258600   567.78469      16902.616     -1254.5122      1185.0571      2235.1732      16022.403      216.7718       43.805819      0.78310509     45249.462    
    258700   574.06331      16860.161     -1264.3081      1185.6127      2265.4753      15995.843      157.95171      65.116389      0.78396506     45199.826    
    258800   571.06781      16911.06      -1249.5396      1185.4611      2252.758       16062.788      147.09918      55.619865      0.784383       45175.742    
    258900   573.86402      16926.633     -1271.3756      1200.3625      2237.3219      15916.478      336.08536      51.393293      0.78440833     45174.283    
    259000   573.07276      16982.936     -1264.3343      1192.6364      2215.665       16086.766      240.64916      54.312037      0.78392253     45202.278    
    259100   568.48669      17078.498     -1265.4538      1196.7287      2340.545       16069.85       222.76942      55.768995      0.78325724     45240.672    
    259200   574.43895      17072.074     -1223.794       1200.8344      2356.3837      15915.299      298.75386      65.500874      0.78206337     45309.735    
    259300   575.31495      17090.963     -1245.5561      1188.7937      2234.3583      16036.62       357.52247      61.744261      0.78037631     45407.688    
    259400   594.8378       16918.621     -1243.8105      1207.016       2250.2874      16102.537      76.936994      68.269674      0.77876531     45501.621    
    259500   582.46689      16961.933     -1229.851       1210.5599      2221.0697      16034.524      192.57637      74.641075      0.77706855     45600.976    
    259600   578.09115      16842.339     -1226.1717      1211.095       2117.5068      15973.789      250.34024      58.851948      0.77508598     45717.617    
    259700   558.72087      16945.735     -1240.9289      1196.0518      2194.2142      16191.853      82.680329      64.641277      0.77313607     45832.921    
    259800   564.53947      16890.138     -1181.2148      1191.8448      2129.8794      16073.874      158.44798      58.67017       0.77158112     45925.287    
    259900   558.53867      16988.581     -1247.9079      1192.353       2225.9009      15978.415      313.82259      67.176313      0.7701904      46008.213    
    260000   567.69153      16989.659     -1203.8462      1201.989       2275.7596      15947.327      253.01557      58.992231      0.76898093     46080.576    
    260100   571.31043      17035.473     -1206.1161      1219.254       2255.9381      15995.944      233.9466       80.786112      0.76778124     46152.579    
    260200   578.94658      17020.822     -1250.5233      1206.6208      2184.6564      16024.982      320.77548      79.581001      0.76657642     46225.116    
    260300   588.75005      16956.164     -1238.3791      1216.8615      2282.6697      16041.823      133.82632      64.52031       0.76580819     46271.487    
    260400   575.87431      17062.349     -1203.0503      1211.2566      2246.5487      16101.282      195.06374      55.376202      0.76535174     46299.083    
    260500   574.51057      17043.55      -1228.8105      1208.3627      2193.3105      16050.422      293.8396       70.676887      0.76491384     46325.589    
    260600   579.73681      16935.399     -1208.9625      1197.5913      2222.1606      16066.032      135.88888      66.703879      0.76507591     46315.776    
    260700   562.90338      16999.164     -1227.8545      1191.9343      2194.0138      16143.453      170.27618      71.272449      0.76490906     46325.879    
    260800   573.37766      16815.709     -1226.6938      1177.6375      2180.2458      15929.301      228.35735      72.348354      0.76468865     46339.231    
    260900   554.95513      16942.065     -1199.9112      1188.8388      2178.2339      15995.696      254.31321      71.792701      0.7647419      46336.004    
    261000   550.95434      17016.348     -1206.5011      1196.2878      2179.4314      15998.625      338.62894      56.890194      0.76456826     46346.527    
    261100   561.86394      17031.725     -1206.5386      1194.6235      2295.226       16015.51       198.57296      81.267585      0.76469143     46339.063    
    261200   580.494        16933.599     -1218.8304      1187.9663      2184.1897      16003.307      268.74992      54.494952      0.76493684     46324.196    
    261300   574.50835      17012.096     -1188.9536      1193.0296      2219.0643      15979.168      296.57608      57.338576      0.76522075     46307.009    
    261400   571.33403      17066.766     -1229.3223      1189.8062      2199.4237      16147.752      235.77255      67.359286      0.76521884     46307.124    
    261500   573.96151      17076.029     -1217.8119      1192.4615      2227.8605      16162.008      177.12336      79.260973      0.76488734     46327.194    
    261600   574.91343      17088.864     -1234.1216      1206.6555      2275.5916      16130.313      195.21818      58.769361      0.76448684     46351.464    
    261700   581.72454      17026.114     -1205.2136      1221.8484      2215.6219      16033.822      242.26485      60.718262      0.76430697     46362.372    
    261800   572.46311      17084.113     -1216.0882      1214.2012      2272.1826      16002.22       293.21051      60.059745      0.76390579     46386.72     
    261900   573.91986      17014.573     -1207.8759      1201.9459      2242.4799      15996.172      258.07199      65.899577      0.7635243      46409.897    
    262000   574.19193      16930.114     -1209.6064      1195.7115      2259.3204      16028.601      129.79212      67.215766      0.76311165     46434.993    
    262100   565.09945      16950.768     -1199.2802      1196.6039      2143.1354      16091.556      187.04926      74.032249      0.76247917     46473.511    
    262200   570.24456      16891.939     -1207.0872      1194.4804      2180.535       16031.651      168.01186      65.817107      0.76129962     46545.517    
    262300   583.96868      16792.206     -1225.8881      1189.6814      2199.0231      15973.311      139.29666      59.199211      0.75986457     46633.42     
    262400   571.88498      16949.452     -1204.0986      1191.9121      2168.5772      16084.984      196.26197      54.209978      0.75831762     46728.551    
    262500   565.13388      17115.805     -1199.1596      1201.5232      2237.9001      16148.62       195.66389      73.486687      0.75648658     46841.656    
    262600   580.79195      17092.378     -1201.4185      1206.288       2318.2754      16129.913      120.39114      60.046494      0.75514108     46925.118    
    262700   584.59937      17084.702     -1167.2767      1195.2734      2302.3058      16122.135      117.03473      57.692029      0.75391275     47001.572    
    262800   568.47034      17208.125     -1169.9942      1185.9539      2221.9131      16177.005      263.34198      71.149513      0.75240239     47095.922    
    262900   580.07633      17065.378     -1161.7303      1185.4151      2278.7271      16074.133      166.31631      64.848476      0.75102646     47182.205    
    263000   569.50229      17112.093     -1182.3642      1194.039       2233.2535      16043.97       289.52433      75.632452      0.74940518     47284.28     
    263100   567.10713      17086.257     -1217.9308      1201.2326      2277.4622      16059.824      247.28934      59.624236      0.74757983     47399.733    
    263200   569.22877      17029.243     -1189.9593      1196.3423      2294.5828      16054.154      148.50705      67.937262      0.74603566     47497.842    
    263300   568.87653      17005.248     -1170.0799      1197.5347      2238.8998      16019.64       205.2759       54.936894      0.74482305     47575.171    
    263400   576.98569      16918.678     -1176.2131      1191.5785      2183.866       15923.625      278.2444       60.372111      0.74359875     47653.502    
    263500   577.56722      16927.364     -1196.3482      1189.8405      2206.4935      16072.107      129.7881       68.700802      0.74254175     47721.335    
    263600   569.59306      17065.9       -1241.2622      1186.4037      2291.4846      16071.608      231.22809      67.257158      0.74210536     47749.398    
    263700   578.90275      17080.84      -1199.4951      1189.8974      2268.9639      15984.475      304.69004      73.114965      0.74202584     47754.515    
    263800   589.82769      17037.691     -1210.2935      1199.5802      2246.1121      15968.962      315.94167      60.023314      0.74183519     47766.788    
    263900   584.41217      17093.531     -1226.2986      1206.181       2265.987       16040.219      282.96283      66.542565      0.74187944     47763.939    
    264000   574.10292      17153.816     -1206.7232      1208.8863      2245.9266      16025.897      347.47707      73.867737      0.74238245     47731.576    
    264100   580.63719      17026.2       -1177.9835      1199.1274      2260.1634      15938.118      281.45279      66.086308      0.74305208     47688.56     
    264200   576.11417      16981.469     -1220.5781      1185.3886      2230.4987      16031.742      231.19913      65.333201      0.7434049      47665.928    
    264300   571.56835      16961.345     -1247.585       1183.7772      2201.4451      16006.608      275.87326      82.955677      0.74337817     47667.641    
    264400   568.22888      16978.41      -1214.304       1183.3821      2224.3867      16015.899      232.7211       77.296096      0.7435257      47658.183    
    264500   576.86998      16912.142     -1190.197       1184.0156      2180.832       15931.925      291.38319      55.117118      0.74349052     47660.438    
    264600   564.8923       17039.897     -1177.064       1199.9584      2186.0263      16047.67       257.78545      65.928886      0.74327555     47674.223    
    264700   565.14858      17070.671     -1183.0802      1209.0052      2257.8681      16062.764      195.56284      69.242741      0.74297178     47693.715    
    264800   567.7153       17083.185     -1193.4103      1213.4672      2259.8673      16055.25       227.88626      62.768549      0.74265312     47714.179    
    264900   577.47797      17023.841     -1190.282       1204.7627      2203.9434      16133.168      155.41892      60.794486      0.74225461     47739.797    
    265000   572.04329      17090.621     -1183.9927      1212.6236      2288.7121      16068.648      170.32056      78.33876       0.7416884      47776.241    
    265100   578.08818      17050.979     -1138.2524      1201.9187      2207.1939      16078.838      186.80302      58.97523       0.74097105     47822.495    
    265200   582.22398      17022.435     -1179.6771      1210.6165      2277.5154      16020.754      167.02118      69.470865      0.74024059     47869.685    
    265300   569.45851      17122.847     -1149.2892      1194.152       2285.8088      16057.878      193.24949      82.623042      0.7395608      47913.686    
    265400   569.61506      17050.321     -1200.6877      1212.8915      2216.9242      16057.886      233.43422      70.239463      0.73904917     47946.856    
    265500   564.17419      17000.855     -1191.9626      1210.6667      2144.1714      16102.049      193.46621      80.371483      0.73879818     47963.145    
    265600   563.37035      16962.963     -1175.2716      1209.7258      2080.5504      16014.809      297.43125      72.862893      0.73908709     47944.396    
    265700   558.6654       17010.067     -1204.0953      1219.2253      2197.7107      16017.938      252.86892      63.688177      0.7392802      47931.872    
    265800   569.9563       16973.315     -1169.9083      1222.2127      2207.2422      16085.465      105.47867      59.565535      0.73987735     47893.187    
    265900   578.51492      16994.98      -1198.6684      1218.5884      2196.8833      16050.657      211.01801      53.709338      0.74073765     47837.563    
    266000   568.58859      17151.829     -1144.8188      1209.8921      2268.5746      16081.19       200.75609      74.06861       0.74184722     47766.013    
    266100   585.45933      17036.874     -1169.713       1207.1437      2263.2628      15969.118      237.53896      67.136867      0.74252867     47722.176    
    266200   570.17881      17183.085     -1160.6266      1209.7016      2287.6212      16079.028      226.01224      80.48086       0.7433275      47670.891    
    266300   582.886        17061.336     -1172.0833      1214.6592      2207.7312      16011.921      276.70938      64.474347      0.74406407     47623.7      
    266400   566.21493      17174.838     -1173.8049      1199.6488      2354.0843      15960.156      290.33896      85.554732      0.74466402     47585.331    
    266500   575.75569      17015.336     -1210.0241      1202.708       2239.3647      16053.114      197.58257      74.793023      0.74525754     47547.435    
    266600   559.74707      17050.441     -1167.2138      1207.4338      2254.6927      16001.894      238.58107      56.591724      0.74620406     47487.123    
    266700   555.60284      17031.91      -1167.1303      1199.2229      2252.8654      16058.827      154.98427      74.57556       0.74728365     47418.519    
    266800   561.32765      16990.753     -1201.0436      1207.1922      2317.62        15991.539      151.74073      65.573681      0.74824075     47357.865    
    266900   572.24174      16927.91      -1228.5703      1217.4796      2295.4703      15972.942      167.77568      42.547581      0.74930006     47290.913    
    267000   562.0236       17060.761     -1221.9374      1207.9462      2266.0282      16059.808      220.23278      68.98707       0.75039872     47221.675    
    267100   576.26791      16975.641     -1214.7723      1202.2299      2209.8229      16112.708      153.23571      52.497326      0.75200147     47121.031    
    267200   575.69356      17016.305     -1184.8598      1199.3596      2285.6044      16005.233      177.36692      75.946643      0.75341414     47032.677    
    267300   568.55465      17100.736     -1220.4651      1207.9868      2291.3806      16015.138      280.06668      69.381668      0.75441803     46970.092    
    267400   578.13373      17031.468     -1214.7479      1204.8949      2334.2099      15934.484      241.82863      73.201086      0.75566558     46892.548    
    267500   581.32411      17008.329     -1231.2633      1200.5713      2302.68        15995.149      222.92508      59.364838      0.7570551      46806.479    
    267600   582.746        16974.436     -1215.9086      1201.0507      2206.6402      16099.839      170.57844      53.074405      0.7578515      46757.292    
    267700   569.12947      17030.932     -1229.6303      1195.1198      2255.8939      16086.949      201.78293      58.745455      0.75889622     46692.925    
    267800   560.94814      17019.412     -1224.5867      1196.5721      2258.5286      16009.326      237.71478      79.329415      0.7596151      46648.736    
    267900   568.73517      16905.155     -1233.7584      1206.2389      2268.6858      16048.312      95.392111      58.40661       0.75956117     46652.048    
    268000   578.45275      16811.624     -1220.5931      1208.4034      2145.4726      15939.689      226.1184       49.390942      0.759145       46677.623    
    268100   564.26688      16979.295     -1209.5612      1195.268       2246.3453      16028.685      196.18556      60.631885      0.75840215     46723.343    
    268200   578.73819      16933.449     -1200.8599      1205.6731      2286.2867      15990.864      144.16501      47.285618      0.75751643     46777.974    
    268300   575.42631      17047.687     -1245.1785      1219.6791      2278.9835      16041.233      229.34452      62.932289      0.75612638     46863.97     
    268400   564.01231      17194.659     -1255.3776      1223.0805      2287.1108      16183.16       234.06156      62.459085      0.7548707      46941.925    
    268500   583.56184      17023.597     -1216.0296      1210.5011      2286.091       16141.392      92.364086      49.568871      0.75386709     47004.418    
    268600   572.02025      17105.551     -1240.8199      1197.7522      2269.0363      16155.463      208.69158      54.439348      0.75246587     47091.949    
    268700   577.15985      17023.822     -1243.2629      1192.8932      2277.4145      16063.707      215.20669      55.7178        0.75131169     47164.292    
    268800   571.61963      17046.697     -1169.8347      1189.809       2292.365       16023.789      199.2856       49.674058      0.7499377      47250.704    
    268900   574.81388      16998.871     -1178.2119      1182.6201      2258.09        16041.982      168.21116      65.289481      0.74771611     47391.093    
    269000   568.58963      17048.556     -1198.5045      1194.1371      2236.4932      16142.218      166.01413      48.081576      0.74501271     47563.06     
    269100   573.74097      17013.605     -1189.4522      1196.2203      2246.7992      16014.357      232.20039      53.343126      0.74211113     47749.026    
    269200   567.14843      17089.509     -1199.9816      1196.5334      2291.0483      16044.708      250.69596      46.23138       0.73910204     47943.426    
    269300   567.22813      17110.043     -1181.9502      1200.8109      2237.7048      16040.145      288.30566      62.855743      0.73608433     48139.979    
    269400   577.781        17029.302     -1164.8342      1199.3013      2207.6511      16021.444      247.33099      57.02321       0.7331069      48335.494    
    269500   564.04406      17155.232     -1169.2354      1200.4679      2313.1773      16081.856      199.94279      67.666415      0.73019144     48528.485    
    269600   564.93787      17146.379     -1151.9691      1207.2845      2175.8672      16181.164      201.03651      72.304502      0.72757646     48702.901    
    269700   571.22077      17090.047     -1196.3728      1206.2966      2266.6169      16126.729      177.5433       49.203718      0.72532519     48854.065    
    269800   561.53183      17173.735     -1155.2289      1205.6661      2285.045       16137.103      200.01736      41.341196      0.72378082     48958.307    
    269900   585.07707      16968.683     -1146.3167      1183.6316      2154.8231      16052.541      191.29459      75.100714      0.7223534      49055.053    
    270000   578.38656      17053.994     -1138.9777      1187.7674      2194.363       16021.382      276.23037      55.161537      0.72112426     49138.666    
    270100   565.89705      17206.884     -1126.5563      1192.8905      2247.391       16097.372      281.02913      54.953484      0.72039479     49188.424    
    270200   593.05235      17023.366     -1161.7958      1182.0823      2240.1812      16031.723      207.24284      63.398132      0.71991813     49220.992    
    270300   577.12688      17214.097     -1143.4174      1192.1461      2270.1662      16056.093      299.65074      79.335034      0.71971684     49234.758    
    270400   572.16533      17287.049     -1116.4207      1189.6388      2304.535       16137.05       240.33651      68.908408      0.71992712     49220.376    
    270500   577.46708      17242.418     -1158.479       1203.5981      2276.2639      16008.978      380.34962      72.145996      0.71990482     49221.902    
    270600   585.97243      17114.644     -1131.4807      1217.0175      2228.8491      16009.004      265.26255      65.332737      0.71983534     49226.652    
    270700   569.47461      17153.862     -1134.0327      1211.4062      2266.0901      16085.699      199.69404      63.797069      0.72000021     49215.38     
    270800   563.76737      17117.275     -1172.9171      1214.2452      2261.328       16080.659      199.3123       75.94291       0.72055456     49177.517    
    270900   574.02721      16992.747     -1183.0497      1215.1705      2178.9435      16097.362      169.58202      56.456891      0.72151569     49112.008    
    271000   569.77018      17039.646     -1122.2862      1202.0789      2183.0928      16005.45       251.14025      61.657773      0.72280793     49024.205    
    271100   574.19953      17041.665     -1155.5559      1206.0784      2267.9595      16025.354      180.26287      58.948296      0.7243888      48917.217    
    271200   570.92301      17120.641     -1155.6864      1205.1925      2280.7414      16088.061      176.81787      66.418201      0.72626374     48790.931    
    271300   567.45934      17198.707     -1165.3481      1206.22        2300.1519      16086.923      236.46985      75.65921       0.72850113     48641.083    
    271400   570.61981      17206.137     -1179.25        1198.8057      2262.3391      16192.581      200.48329      71.849504      0.73106198     48470.698    
    271500   576.66801      17169.378     -1120.2044      1193.1195      2266.3454      16040.908      271.96789      58.179399      0.73340656     48315.745    
    271600   576.65019      17168.996     -1180.7069      1198.576       2309.335       16120.62       188.30785      72.795457      0.73571416     48164.2      
    271700   582.80815      17067.83      -1178.7962      1194.9072      2321.4907      15950.621      268.14727      51.378615      0.73786144     48024.036    
    271800   584.91531      16947.711     -1168.7834      1202.3699      2202.383       16007.621      197.16844      45.882696      0.73983341     47896.031    
    271900   572.7027       16981.454     -1204.8907      1208.4572      2218.1937      15978.797      267.0177       53.228987      0.74185545     47765.483    
    272000   571.92404      16952.323     -1164.8576      1193.029       2245.048       15972.278      194.19763      53.393137      0.74404621     47624.843    
    272100   565.31615      17010.575     -1180.8379      1197.1315      2188.8705      16049.632      242.772        53.712947      0.74567997     47520.499    
    272200   566.28291      17045.48      -1184.1339      1193.4388      2256.2938      15958.127      298.54519      65.250062      0.74729273     47417.943    
    272300   573.97481      17041.837     -1203.1101      1192.4892      2244.1759      16084.758      225.94031      40.873578      0.74878561     47323.404    
    272400   573.76805      17114.214     -1207.6213      1196.469       2282.2854      16197.79       129.88799      57.844545      0.7503455      47225.024    
    272500   587.74999      17042.951     -1180.7007      1195.5357      2220.0122      16053.433      253.85369      45.10545       0.75170859     47139.389    
    272600   580.83153      17112.67      -1193.0181      1193.6661      2292.4511      16120.997      162.39734      80.917033      0.75297495     47060.11     
    272700   590.53738      16984.429     -1220.7273      1189.9729      2320.4743      15999.165      191.94843      48.550742      0.75413068     46987.989    
    272800   565.63178      17134.426     -1153.4776      1187.6645      2260.1039      16043.21       273.24823      68.587409      0.75517007     46923.316    
    272900   570.2933       17037.491     -1210.1517      1180.6976      2275.8952      16090.087      198.09498      48.803465      0.75540632     46908.641    
    273000   567.42883      17046.596     -1193.8686      1182.5907      2319.8435      16084.456      129.57211      69.394613      0.7556432      46893.936    
    273100   560.66357      17106.036     -1192.4877      1174.9886      2284.1501      16025.654      297.08929      62.102056      0.75578838     46884.928    
    273200   574.5066       16984.575     -1228.623       1173.3685      2232.1963      16088.914      195.63073      68.511317      0.7556622      46892.757    
    273300   570.32168      17031.582     -1223.772       1164.5612      2189.3327      16131.964      240.98799      71.614145      0.75569758     46890.562    
    273400   566.23509      17083.074     -1218.1848      1159.2026      2249.2394      16091.545      274.18803      67.626785      0.75556517     46898.779    
    273500   580.03171      16982.543     -1210.9982      1156.3919      2234.1677      15997.091      277.15757      68.646154      0.75541321     46908.213    
    273600   578.0465       17021.656     -1227.9305      1167.2746      2311.0857      15988.575      266.58153      55.761781      0.75515058     46924.527    
    273700   567.3772       17135.671     -1213.7961      1186.9396      2338.1316      16006.783      296.23478      62.506727      0.75480112     46946.252    
    273800   578.31176      17056.466     -1194.3235      1177.7873      2313.1576      15986.425      249.59921      65.561414      0.75462382     46957.282    
    273900   575.65507      17094.519     -1199.0404      1177.8923      2263.6189      16176.244      170.18327      46.407978      0.75434793     46974.457    
    274000   581.80474      17032.459     -1178.7705      1188.0605      2197.8666      15961.621      334.95879      70.701393      0.75373365     47012.74     
    274100   572.01526      17077.38      -1196.2696      1194.4954      2240.3124      16071.746      239.21226      71.70475       0.75325604     47042.549    
    274200   579.41047      16944.65      -1198.1252      1189.7366      2242.0615      15996.925      194.84754      62.719579      0.75239371     47096.465    
    274300   566.11232      16990.093     -1199.9759      1198.3988      2312.1652      15973.917      182.44348      65.099297      0.75189685     47127.587    
    274400   561.12425      16987.157     -1203.6178      1203.1791      2290.1126      15986.879      204.70019      49.332827      0.75149588     47152.732    
    274500   574.53442      16856.252     -1215.4103      1201.2548      2208.3064      16016.754      127.11466      60.362528      0.7515987      47146.282    
    274600   561.85448      17002.464     -1205.948       1189.7546      2342.0379      15951.668      198.32313      69.417352      0.75198711     47121.93     
    274700   568.84626      17021.056     -1211.3183      1192.7344      2284.7801      15991.237      255.23972      50.953273      0.75255308     47086.491    
    274800   576.59159      17067.641     -1207.7931      1199.6295      2257.2416      16069.898      237.10492      54.605261      0.75335369     47036.451    
    274900   577.35139      17117.326     -1223.2521      1199.0435      2258.319       16110.601      246.22959      66.637704      0.7542623      46979.79     
    275000   582.78058      17066.731     -1213.1292      1202.7188      2340.3356      15976.929      226.02563      71.051888      0.7557424      46887.781    
    275100   585.94129      17015.673     -1230.6553      1207.626       2322.1986      15989.939      200.08165      62.805354      0.75722253     46796.13     
    275200   566.81472      17136.148     -1236.01        1209.5234      2367.0108      16057.153      193.38659      79.955051      0.75868937     46705.655    
    275300   582.21401      16928.309     -1218.4383      1207.574       2284.1457      15945.766      192.07435      54.003494      0.76056906     46590.225    
    275400   559.82663      17074.219     -1229.5323      1208.0405      2298.184       16002.365      274.1619       59.870329      0.76246909     46474.125    
    275500   565.0418       17001.832     -1219.5214      1198.0524      2295.6769      15994.187      223.99044      48.510096      0.76430604     46362.429    
    275600   574.65859      16912.06      -1254.5719      1205.2018      2146.8696      16034.282      260.69652      61.125022      0.76614418     46251.195    
    275700   572.17655      16945.228     -1236.2578      1199.0653      2265.192       16068.375      134.92226      55.560052      0.76783386     46149.416    
    275800   568.16298      17008.458     -1233.5651      1182.252       2262.5334      16089.133      189.29301      63.153193      0.76936995     46057.276    
    275900   571.5453       17054.122     -1238.6942      1185.6956      2294.2915      16130.265      160.39115      66.111963      0.77084781     45968.975    
    276000   583.5281       17067.381     -1215.2722      1178.9057      2316.7377      16057.54       202.01914      70.966278      0.77192504     45904.825    
    276100   593.01284      17035.077     -1221.3029      1184.7664      2230.711       16080.935      251.86993      51.580774      0.77251907     45869.527    
    276200   579.40877      17132.878     -1215.4261      1189.2953      2321.1079      16173.103      138.03439      68.328656      0.77291835     45845.831    
    276300   581.45744      17034.405     -1239.8054      1198.7591      2180.214       16166.684      207.45702      64.129468      0.77303024     45839.195    
    276400   581.28576      16948.598     -1238.957       1193.4394      2339.299       16003.434      126.64159      67.61509       0.77297051     45842.738    
    276500   569.46621      16991.873     -1266.2303      1208.008       2279.2123      15984.64       270.94932      59.58855       0.77260657     45864.332    
    276600   564.02043      17000.447     -1232.6136      1191.2125      2287.231       16074.983      171.23876      53.428819      0.77278833     45853.545    
    276700   570.23891      16919.531     -1255.3611      1196.1085      2257.4307      16024.877      171.75684      69.545518      0.7726914      45859.297    
    276800   570.98153      16895.994     -1216.0387      1200.3562      2311.8584      15921.804      165.29556      57.149286      0.77264335     45862.148    
    276900   577.98991      16822.64      -1229.6139      1202.1914      2290.5155      15874.447      169.99907      59.170317      0.77261749     45863.684    
    277000   553.71734      17034.14      -1245.7536      1190.1848      2299.7203      16026.193      231.95088      75.252622      0.77226427     45884.661    
    277100   569.43462      16912.487     -1262.1298      1191.7823      2297.1226      16010.948      146.56039      71.801931      0.77173125     45916.352    
    277200   580.05371      16868.2       -1237.4681      1195.9419      2152.6213      15922.82       315.88272      60.553307      0.77102155     45958.617    
    277300   575.20252      16994.321     -1228.6873      1187.2507      2210.065       16134.008      168.78478      65.170063      0.77042981     45993.916    
    277400   583.07748      16991.314     -1256.5229      1188.947       2195.0768      16121.539      215.08871      67.901308      0.76937886     46056.743    
    277500   573.89587      17102.031     -1262.1859      1178.0069      2307.0344      16106.045      240.31086      73.964021      0.76842627     46113.837    
    277600   586.33577      16971.864     -1221.5528      1171.9888      2256.1852      16072.857      162.62724      70.773437      0.76767602     46158.904    
    277700   584.01312      16922.189     -1239.1375      1178.2458      2191.2255      16056.966      220.61199      56.038662      0.76643712     46233.518    
    277800   570.69614      16935.467     -1240.5048      1186.2043      2278.8147      16010.591      162.58007      77.316992      0.76527084     46303.978    
    277900   562.66348      16940.745     -1265.2273      1178.2203      2253.435       15987.963      267.87419      57.874934      0.76415125     46371.82     
    278000   566.26838      16899.85      -1215.2342      1186.7686      2224.7745      15935.157      250.68477      56.503749      0.76323268     46427.629    
    278100   557.44325      17005.841     -1205.3718      1186.5611      2274.0805      15955.732      267.10303      66.33895       0.76204821     46499.793    
    278200   559.82858      17035.835     -1241.8231      1188.9715      2231.3651      15973.066      348.80308      73.976104      0.76036677     46602.621    
    278300   565.04132      17049.884     -1250.4229      1193.5155      2280.0393      16083.167      211.98272      71.75894       0.7589959      46686.793    
    278400   571.89721      17037.541     -1215.663       1187.9615      2215.9274      16034.467      274.3176       82.795917      0.75807623     46743.431    
    278500   569.62431      17089.069     -1230.0513      1198.8132      2254.7487      16054.994      287.86284      64.93576       0.75694862     46813.064    
    278600   572.57514      17081.826     -1238.5079      1204.206       2286.9627      16050.653      251.4543       68.316689      0.75587182     46879.753    
    278700   565.46346      17153.573     -1199.6666      1204.1875      2318.128       15952.091      346.58666      75.551714      0.75473074     46950.63     
    278800   577.01841      17038.337     -1213.5944      1203.5165      2326.29        16042.661      179.21688      42.523276      0.75351878     47026.146    
    278900   571.94722      17038.293     -1201.5313      1203.3498      2297.7108      15969.872      254.30584      55.915111      0.75224365     47105.86     
    279000   563.42502      17008.728     -1212.9465      1211.0469      2251.7853      15932.073      291.71245      75.146653      0.75136076     47161.212    
    279100   550.23964      17041.829     -1198.7872      1195.5439      2300.4693      16061.489      158.68032      65.027715      0.75062135     47207.669    
    279200   562.74961      16913.669     -1212.4736      1202.1039      2140.4581      16038.098      239.53043      47.517236      0.7501422      47237.822    
    279300   566.073        16927.66      -1208.1538      1199.5881      2202.6303      15944.899      272.54584      57.5435        0.75003344     47244.672    
    279400   554.11167      17119.086     -1192.4867      1194.0503      2293.4211      16123.352      183.99928      58.171512      0.74994        47250.559    
    279500   563.76152      17114.678     -1204.2965      1194.3651      2328.6145      16091.546      183.77037      63.127168      0.75018185     47235.326    
    279600   569.38879      17104.95      -1213.2879      1206.5046      2240.4609      16065.827      275.64334      73.541076      0.75059106     47209.574    
    279700   577.67326      17051.384     -1193.4866      1196.3146      2283.1716      16037.295      213.52363      57.441213      0.75106434     47179.825    
    279800   570.65435      17117.798     -1221.0628      1199.2029      2317.1457      16067.459      247.76474      50.964729      0.75152679     47150.793    
    279900   566.73233      17134.323     -1219.2456      1199.7906      2294.2007      16085.171      262.12554      55.173119      0.7523937      47096.466    
    280000   574.04379      17036.691     -1223.4017      1212.8629      2223.7203      16128.433      178.92784      59.222392      0.75356966     47022.97     
    280100   574.07128      16995.043     -1194.4946      1218.186       2146.7232      16061.263      254.67038      51.028876      0.75445191     46967.982    
    280200   559.8795       17056.35      -1198.6545      1216.9569      2275.0531      16040.782      202.56085      64.369212      0.75532991     46913.386    
    280300   555.18014      17020.895     -1212.9454      1211.9251      2276.516       16095.2        134.03781      62.250927      0.75620147     46859.317    
    280400   566.17671      16869.442     -1228.0006      1210.2672      2171.8419      16068.85       128.53605      61.521737      0.75707097     46805.499    
    280500   567.22952      16847.968     -1241.1965      1208.1992      2174.964       16066.34       111.50692      69.320388      0.75813346     46739.902    
    280600   561.49842      16949.743     -1204.3457      1206.5052      2162.0589      16125.734      160.62163      40.501346      0.75969294     46643.956    
    280700   570.64245      16994.378     -1229.7126      1208.1026      2220.6471      16187.926      75.973851      73.501563      0.7611693      46553.486    
    280800   569.62804      17088.41      -1244.8749      1210.2459      2296.2771      16096.315      212.6888       60.026279      0.76322907     46427.849    
    280900   577.54136      17039.141     -1209.3722      1212.4118      2350.7471      16043.586      116.56146      66.465454      0.76605385     46256.649    
    281000   579.10863      17011.5       -1199.1945      1196.6927      2225.7461      16068.368      199.79691      60.985071      0.76842994     46113.617    
    281100   583.00848      16936.737     -1207.4158      1184.2237      2217.9155      16054.209      161.27151      69.775715      0.77075191     45974.695    
    281200   579.76969      16911.518     -1236.495       1177.7723      2167.4636      16031.78       262.04324      52.13818       0.7727901      45853.439    
    281300   569.47231      16942.677     -1231.479       1181.3391      2221.6834      16074.164      187.41131      54.851693      0.77459508     45746.591    
    281400   565.41834      16927.554     -1215.953       1181.4232      2217.2454      15887.32       335.87588      65.421413      0.77582288     45674.193    
    281500   567.79816      16868.979     -1241.2741      1191.9536      2199.3872      15981.727      214.01187      65.97497       0.77662449     45627.049    
    281600   563.46415      16891.243     -1235.5529      1180.6679      2244.9228      15947.796      247.20863      47.387107      0.77716323     45595.42     
    281700   566.89732      16871.003     -1237.4346      1187.3234      2146.2887      15946.27       317.23338      50.879668      0.77739364     45581.906    
    281800   579.14083      16869.424     -1226.3922      1191.7868      2237.8802      15983.748      167.30636      53.864563      0.77720952     45592.705    
    281900   583.94229      16964.861     -1273.0792      1187.0081      2263.346       16077.843      196.09154      50.727736      0.77673832     45620.363    
    282000   579.82306      17042.052     -1237.5799      1191.738       2286.2126      16014.668      251.42611      73.875831      0.77650637     45633.99     
    282100   586.8089       16960.578     -1195.5436      1186.5491      2343.28        15949.002      163.71838      52.411586      0.77603623     45661.636    
    282200   566.37016      17080.335     -1243.0981      1195.5919      2278.9092      16069.564      246.5607       74.418841      0.77498237     45723.729    
    282300   556.62698      17094.723     -1214.1369      1200.7477      2319.6485      15987.746      277.96722      66.353684      0.77397199     45783.419    
    282400   554.94392      17049.629     -1219.0384      1201.0432      2288.5371      16053.094      203.56525      65.626529      0.77288828     45847.615    
    282500   566.7812       16910.717     -1236.1752      1206.7485      2311.1468      15999.685      145.42095      29.466603      0.77150522     45929.805    
    282600   559.9521       16961.655     -1213.8956      1212.6369      2235.2         16022.81       199.29368      51.862397      0.76987117     46027.291    
    282700   566.42428      16934.092     -1208.069       1214.1755      2230.3268      16072.749      118.6305       50.994467      0.76788008     46146.638    
    282800   571.96711      16963.754     -1228.0552      1203.2396      2247.1378      16092.647      142.84457      50.233029      0.76550244     46289.969    
    282900   578.61562      17012.422     -1181.2911      1205.1619      2310.6528      15935.364      218.48943      68.92981       0.76296765     46443.757    
    283000   578.41387      17069.287     -1182.8256      1194.7335      2234.0395      16116.824      197.64623      53.557761      0.75991513     46630.318    
    283100   582.11864      17039.687     -1197.2328      1179.4898      2231.6132      16136.746      179.06682      54.778545      0.75665752     46831.074    
    283200   572.48431      17110.288     -1183.0337      1186.2769      2312.8128      16015.613      264.73076      57.0616        0.7534715      47029.097    
    283300   571.82928      17085.223     -1187.357       1191.301       2243.9724      16044.72       267.82203      65.70005       0.75002162     47245.416    
    283400   577.06287      17003.373     -1203.3483      1203.5791      2266.2752      16092.905      124.48751      60.146846      0.74664193     47459.274    
    283500   571.81736      17017.633     -1199.3057      1209.4488      2170.9619      16013.295      293.58585      67.186271      0.74388855     47634.936    
    283600   564.0881       17058.732     -1158.7187      1211.3727      2303.535       16023.427      167.92013      49.448916      0.74167823     47776.896    
    283700   568.01698      17005.07      -1131.7046      1202.8533      2264.565       15987.862      158.50818      60.664875      0.73961982     47909.862    
    283800   563.73166      17038.74      -1152.9558      1201.0498      2257.4327      16043.815      163.16563      63.809081      0.73785379     48024.534    
    283900   575.41541      16959.59      -1170.2468      1202.5372      2195.0374      15974.554      242.56679      54.906953      0.73605643     48141.804    
    284000   571.34857      17076.636     -1186.1177      1203.8822      2241.7263      16055.557      240.22641      60.55004       0.73458322     48238.352    
    284100   576.84068      17114.824     -1187.5601      1212.4472      2312.7785      16008.935      249.11611      58.721552      0.73326314     48325.195    
    284200   581.01417      17123.157     -1187.7366      1212.5238      2236.395       16133.528      204.11337      63.144975      0.73208379     48403.044    
    284300   584.56173      17102.044     -1152.4689      1208.6099      2284.8657      16072.223      178.59502      49.84773       0.73115669     48464.419    
    284400   580.00443      17109.849     -1148.9773      1191.6429      2290.0308      16004.332      254.65688      59.062831      0.73008136     48535.802    
    284500   566.45856      17147.018     -1159.2798      1198.5147      2238.4559      16163.061      180.66614      66.306189      0.72907575     48602.747    
    284600   559.30697      17125.754     -1138.3684      1192.5368      2344.5417      16055.12       150.85888      61.038675      0.728181       48662.467    
    284700   573.39366      16954.081     -1142.0108      1189.9809      2239.972       15940.475      200.58025      65.971274      0.72730067     48721.369    
    284800   568.94546      16979.816     -1180.7269      1196.8384      2203.6328      16069.474      174.86955      57.482015      0.72620653     48794.775    
    284900   561.63497      17050.995     -1131.2906      1188.5244      2223.0732      16078.948      161.8904       70.265899      0.72510452     48868.933    
    285000   570.54647      16996.203     -1158.9269      1195.3782      2325.9646      15973.931      158.31903      42.030486      0.72398659     48944.393    
    285100   566.67176      17064.773     -1149.5989      1189.3546      2270.9629      16035.906      209.39592      48.494328      0.72295705     49014.093    
    285200   563.7026       17127.81      -1128.4312      1193.3039      2284.2723      16063.463      197.92296      58.291886      0.72206986     49074.315    
    285300   582.39125      17002.085     -1155.1553      1200.9858      2257.0377      15985.536      210.34603      45.806494      0.72114003     49137.591    
    285400   583.60727      17026.193     -1151.5956      1192.1674      2308.1797      16083.934      82.461995      54.150991      0.7202118      49200.921    
    285500   581.37284      17153.873     -1127.8339      1196.3536      2319.1935      16066.772      185.59202      56.672005      0.71938972     49257.146    
    285600   580.30978      17189.358     -1138.3793      1192.6958      2305.9565      16036.42       282.46807      52.64801       0.71846601     49320.474    
    285700   585.33695      17130.067     -1112.755       1197.858       2345.5619      15968.62       214.87087      56.645371      0.71728281     49401.831    
    285800   568.71249      17204.929     -1119.7669      1185.6777      2254.4985      16143.427      220.08954      62.380348      0.71608906     49484.186    
    285900   579.94539      17013.855     -1116.1684      1196.8384      2244.6772      16052.464      114.07081      61.687573      0.71502347     49557.931    
    286000   571.61478      17008.996     -1129.0009      1199.893       2204.7052      16003.67       218.52883      51.844543      0.71391453     49634.911    
    286100   562.36778      17046.695     -1140.5137      1212.3721      2241.4061      16030.652      193.46936      50.709823      0.71298984     49699.283    
    286200   567.3025       16994.973     -1142.7767      1206.7823      2179.7555      16030.131      195.46634      67.88201       0.71208571     49762.386    
    286300   570.13858      17000.611     -1124.9367      1195.6803      2260.5677      15956.61       213.1626       41.305679      0.71121588     49823.247    
    286400   556.96396      17184.334     -1127.5372      1211.0892      2215.6746      16089.368      286.21549      51.752541      0.71048048     49874.817    
    286500   573.28204      17124.633     -1088.6289      1206.6362      2170.3227      16159.181      139.56918      79.751915      0.70964595     49933.469    
    286600   579.73113      17130.756     -1130.5424      1203.938       2188.5865      16099.809      263.84037      48.097081      0.7085901      50007.873    
    286700   580.88713      17139.983     -1119.4161      1210.6252      2258.914       16042.44       228.00302      62.40021       0.70733334     50096.726    
    286800   572.76721      17197.263     -1101.9278      1213.1159      2295.9567      16056.345      218.89532      58.574434      0.70658431     50149.832    
    286900   569.93199      17185.031     -1102.9208      1215.2709      2281.1482      16028.924      252.37666      52.653764      0.70603964     50188.519    
    287000   576.03777      17088.631     -1132.3232      1214.3716      2220.0597      16119.181      142.07748      68.318408      0.70579137     50206.174    
    287100   574.9801       17063.589     -1086.4532      1195.3258      2180.183       16123.356      125.74036      68.464387      0.70583897     50202.788    
    287200   567.10357      17111.43      -1111.2263      1198.4938      2176.0657      16174.115      159.10011      56.757774      0.70588609     50199.436    
    287300   568.2224       17092.688     -1104.2813      1192.4819      2240.4849      16063.522      177.3718       65.028398      0.70618079     50178.488    
    287400   567.4036       17107.009     -1110.5086      1201.736       2305.4545      16006.165      169.96382      76.78224       0.70693262     50125.122    
    287500   567.04073      17121.144     -1126.0295      1193.2907      2161.8759      16107.606      260.47955      67.811281      0.70782214     50062.13     
    287600   577.53803      17036.7       -1090.516       1187.3745      2202.5893      15980.534      242.61257      56.021822      0.70857115     50009.211    
    287700   579.14508      17034.844     -1144.0392      1180.6512      2268.5624      15920.141      309.12797      42.610224      0.70919496     49965.223    
    287800   571.80388      17103.767     -1123.1088      1183.6191      2265.2047      16097.728      142.50137      78.316107      0.70988859     49916.402    
    287900   579.36934      17020.292     -1128.1685      1187.8922      2197.8594      16074.389      184.43557      41.972852      0.71062428     49864.724    
    288000   561.54617      17131.606     -1094.0581      1194.4176      2243.6911      16134.858      138.32558      54.128453      0.71145608     49806.425    
    288100   555.78913      17102.399     -1122.7454      1197.9318      2276.7041      16044.56       174.83038      70.011464      0.71184615     49779.133    
    288200   551.56843      17074.809     -1136.3463      1199.817       2169.1536      16124.863      193.21072      62.854279      0.71249177     49734.026    
    288300   563.18813      16961.503     -1077.643       1200.1762      2141.629       15980.383      210.07469      45.792926      0.71337484     49672.461    
    288400   550.90584      17133.388     -1126.0606      1203.911       2238.3737      16129.703      161.80189      63.80645       0.71396876     49631.141    
    288500   573.79995      17032.494     -1096.8662      1198.2272      2187.7509      16065.094      151.88309      63.733862      0.71397542     49630.678    
    288600   572.93359      17104.712     -1129.119       1188.0337      2257.9608      16081.319      195.82523      50.185822      0.71368739     49650.708    
    288700   579.62243      17068.313     -1134.4698      1200.6536      2209.6568      16056.548      208.5667       64.270152      0.71373718     49647.244    
    288800   566.54921      17194.868     -1108.3471      1202.9639      2349.9862      16043.924      196.94715      46.869663      0.71407584     49623.698    
    288900   580.40846      17070.871     -1126.7258      1208.8011      2297.6883      15978.402      194.5155       56.671904      0.71432753     49606.214    
    289000   575.17318      17096.999     -1169.1975      1215.3147      2232.0934      16115.412      189.54769      51.594928      0.71466365     49582.883    
    289100   561.96483      17174.797     -1139.5953      1204.5528      2256.3707      16169.75       173.52775      49.757615      0.7154136      49530.906    
    289200   579.08706      16965.444     -1097.7617      1205.9559      2145.6943      15974.617      224.97118      51.527754      0.71633175     49467.421    
    289300   564.41747      17019.7       -1129.5633      1202.5847      2243.8952      16025.983      145.29249      71.016448      0.71712183     49412.921    
    289400   559.29566      16990.296     -1141.4733      1207.052       2227.2741      15997.331      176.71544      62.639175      0.71815925     49341.541    
    289500   553.47831      16988.79      -1137.5584      1198.4694      2296.4334      15929.019      197.17801      44.994104      0.71971182     49235.101    
    289600   562.17173      16907.702     -1141.9085      1208.9934      2164.4165      16024.339      137.80394      54.875516      0.72168689     49100.357    
    289700   568.3589       16935.843     -1156.0934      1213.2156      2199.3707      16004.381      172.87076      42.977438      0.7238707      48952.229    
    289800   571.39127      17057.12      -1122.696       1214.6001      2215.9697      16122.09       113.05593      55.164166      0.72655583     48771.316    
    289900   570.11967      17129.263     -1133.9601      1220.9299      2284.3386      16099.318      136.75211      61.761095      0.72926529     48590.115    
    290000   564.50374      17208.194     -1139.9676      1211.3256      2420.4113      16063.091      149.99254      45.719363      0.73179744     48421.984    
    290100   568.36517      17186.27      -1141.533       1225.5345      2294.2988      16104.701      188.16237      55.413236      0.7340906      48270.723    
    290200   572.18775      17136.493     -1113.8965      1222.1389      2264.7141      16056.33       173.73171      75.861949      0.73626339     48128.271    
    290300   569.54713      17112.689     -1143.7913      1223.6861      2218.7477      16191.889      117.78167      45.481333      0.73789459     48021.878    
    290400   586.47536      16906.574     -1195.4836      1201.6819      2245.0776      16015.64       125.42412      56.42547       0.73917524     47938.678    
    290500   572.84717      16959.139     -1156.2607      1211.2122      2220.7535      15955.582      215.40941      53.210507      0.74036193     47861.84     
    290600   575.42997      16870.684     -1171.8383      1204.5547      2190.899       15991.19       156.26781      39.830529      0.74115144     47810.855    
    290700   559.45155      16980.562     -1185.294       1207.0548      2255.3562      16059.835      130.76904      54.021436      0.74229987     47736.886    
    290800   567.11919      16916.045     -1169.1358      1204.4846      2235.7758      16004.323      121.06772      61.340027      0.7438833      47635.273    
    290900   564.4488       16974.958     -1169.2678      1202.1912      2303.2514      16039.616      75.871875      65.579053      0.74502795     47562.087    
    291000   572.06336      17001.678     -1174.6077      1207.171       2265.6824      16005.091      184.4381       56.239488      0.74582272     47511.403    
    291100   586.60221      17011.062     -1149.0508      1207.7048      2278.9678      15972.382      179.42577      62.502196      0.74664182     47459.281    
    291200   576.11422      17152.054     -1127.2264      1203.6371      2272.9716      16063.255      229.45963      48.892792      0.74703756     47434.14     
    291300   570.98782      17185.317     -1167.9036      1210.4252      2291.2273      16107.286      221.19479      62.383313      0.74694249     47440.177    
    291400   581.12015      17056.688     -1166.5244      1204.035       2337.2544      15974.339      208.12112      38.576255      0.74645908     47470.9      
    291500   570.82816      17094.497     -1174.3125      1199.9576      2225.8556      16076.193      241.56197      66.389378      0.74568248     47520.339    
    291600   567.61363      17058.532     -1156.5471      1198.7918      2259.3339      16074.301      169.59988      54.707778      0.74452202     47594.407    
    291700   570.47986      16976.842     -1173.996       1207.0677      2288.1292      16032.04       108.10046      59.33781       0.74340409     47665.979    
    291800   565.22069      16988.24      -1160.2843      1208.1688      2181.8645      16190.106      60.217218      52.733561      0.74221477     47742.359    
    291900   557.87731      17048.74      -1179.5746      1204.3193      2226.3674      16072.955      195.58389      72.207777      0.74111001     47813.528    
    292000   566.84714      17004.976     -1151.086       1203.4365      2269.237       16041.109      137.73586      47.309151      0.74038166     47860.565    
    292100   572.45073      17052.787     -1171.4939      1208.3988      2251.5759      16158.321      87.668347      60.54459       0.73958124     47912.362    
    292200   565.24543      17234.633     -1155.2323      1212.7001      2296.9649      16130.782      227.04839      65.763938      0.73884375     47960.186    
    292300   581.67489      17126.377     -1160.4893      1204.494       2283.2954      16025.913      273.43853      44.499443      0.73814759     48005.418    
    292400   584.81557      17087.724     -1160.9142      1211.5647      2182.6338      16185.672      162.15722      50.843123      0.73769834     48034.653    
    292500   583.03904      17061.098     -1163.6966      1217.4256      2264.1328      16097.516      143.62267      47.217478      0.73751059     48046.881    
    292600   564.74352      17173.842     -1170.6903      1225.5206      2323.0467      16122.595      157.99919      59.846554      0.73743449     48051.84     
    292700   574.35356      17041.754     -1173.6088      1225.3826      2247.3362      16010.894      225.35347      50.163926      0.73763588     48038.721    
    292800   572.18722      17019.44      -1182.7365      1227.8849      2273.7674      15963.093      222.28543      56.809404      0.73789254     48022.012    
    292900   563.72723      17063.56      -1189.4767      1211.5317      2274.0991      16059.634      175.74386      75.925054      0.73815389     48005.009    
    293000   563.63137      17046.335     -1169.7495      1210.9407      2235.5334      16056.324      204.6573       51.673645      0.73869305     47969.971    
    293100   570.00285      16985.354     -1176.1758      1214.9524      2128.2164      16210.552      85.09854       66.222848      0.73943098     47922.098    
    293200   564.84865      17067.789     -1187.2076      1211.5886      2260.2212      16064.145      192.69143      70.857256      0.739907       47891.267    
    293300   584.63092      16974.822     -1190.4573      1205.0575      2182.9691      15977.736      289.19435      55.243584      0.74060998     47845.81     
    293400   588.14645      17013.853     -1186.1412      1194.5252      2134.4414      16149.55       217.85692      46.567672      0.74104328     47817.833    
    293500   580.61681      17111.482     -1212.9164      1190.9939      2297.7974      16128.337      187.32074      61.06107       0.74145691     47791.157    
    293600   582.32255      17070.635     -1190.2912      1201.1683      2283.0199      16071.566      178.21386      65.428476      0.74235248     47733.503    
    293700   576.28302      17047.856     -1170.4469      1201.1415      2200.7432      16026.725      269.30142      58.416356      0.74333178     47670.617    
    293800   562.31626      17090.094     -1223.0236      1197.2198      2285.6243      16111.142      202.9719       54.993622      0.74416097     47617.499    
    293900   570.56888      16967.67      -1239.384       1197.4165      2214.4066      16049.988      224.25783      59.809016      0.74499999     47563.872    
    294000   563.01076      17023.726     -1195.458       1182.5998      2240.0207      16005.005      272.68407      58.994767      0.74621841     47486.21     
    294100   561.34165      17047.45      -1204.5806      1194.1803      2192.1292      16133.67       223.85611      48.085997      0.74692214     47441.47     
    294200   558.08973      17094.4       -1188.2776      1201.1961      2279.5465      16107.608      159.12844      74.657257      0.74734031     47414.924    
    294300   576.08221      16956.36      -1182.8193      1194.9473      2177.8469      16064.348      196.84267      43.355842      0.74753821     47402.371    
    294400   570.04874      17028.033     -1190.8124      1194.7886      2257.43        16069.479      167.17529      66.734457      0.74743789     47408.734    
    294500   571.85518      17021.924     -1241.2898      1185.3349      2212.1457      16121.808      213.10976      68.90412       0.74715431     47426.728    
    294600   574.75636      17011.353     -1194.6128      1188.0392      2239.3787      16119.799      140.29205      60.420267      0.74676284     47451.59     
    294700   582.42819      16963.932     -1185.8574      1190.0556      2278.1015      15942.428      218.35134      63.46578       0.74611533     47492.77     
    294800   570.07409      17081.861     -1174.3894      1193.519       2208.7614      15990.561      351.53422      54.282797      0.74514015     47554.925    
    294900   569.2497       17077.067     -1194.9852      1194.5132      2265.1665      16048.587      246.189        60.071785      0.74399578     47628.071    
    295000   566.36519      17067.698     -1176.786       1210.8128      2323.3511      15997.068      185.8847       69.168566      0.74285985     47700.901    
    295100   557.0568       17107.117     -1136.8689      1208.4702      2186.7164      16050.787      275.64818   