LAMMPS (22 Dec 2022)
WARNING: Using I/O redirection is unreliable with parallel runs. Better to use the -in switch to read input files. (../lammps.cpp:531)
# PREREQUISITES:
#
#     You must use moltemplate.sh to create 3 files:
#        system.data  system.in.init  system.in.settings
#     (Follow the instructions in README_setup.sh,
#      or run the file as a script using ./README_setup.sh)

# ------------------------------- Initialization Section --------------------

units real
atom_style full
pair_style lj/class2/coul/cut 10.0
bond_style class2
angle_style class2
dihedral_style class2
improper_style class2


# ------------------------------- Atom Definition Section -------------------

read_data       "pre_mol.data" extra/bond/per/atom 1 extra/angle/per/atom 12 extra/dihedral/per/atom 12 extra/improper/per/atom 12 extra/special/per/atom 12
Reading data file ...
  orthogonal box = (0 0 0) to (20.176428 20.176428 20.176428)
  1 by 2 by 3 MPI processor grid
  reading atoms ...
  74 atoms
  scanning bonds ...
  5 = max bonds/atom
  scanning angles ...
  18 = max angles/atom
  scanning dihedrals ...
  30 = max dihedrals/atom
  scanning impropers ...
  16 = max impropers/atom
  reading bonds ...
  85 bonds
  reading angles ...
  186 angles
  reading dihedrals ...
  345 dihedrals
  reading impropers ...
  120 impropers
Finding 1-2 1-3 1-4 neighbors ...
  special bond factors lj:    0        0        0       
  special bond factors coul:  0        0        0       
     4 = max # of 1-2 neighbors
     9 = max # of 1-3 neighbors
    25 = max # of 1-4 neighbors
    36 = max # of special neighbors
  special bonds CPU = 0.001 seconds
  read_data CPU = 0.018 seconds

include calc.pram

# Masses

mass		1    12.01115  # c
mass		2    12.01115  # c1
mass		3    12.01115  # c3h
mass		4     1.00797  # h
mass		5     1.00797  # hc
mass		6    15.99940  # o3e
mass		7    15.99940  # oc
mass		8    15.99940  # oh

# Potentials

pair_coeff	 1  1    0.05400    4.01000  # c,c
pair_coeff	 2  2    0.05400    4.01000  # c1,c1
pair_coeff	 3  3    0.05400    4.01000  # c3h,c3h
pair_coeff	 4  4    0.02000    2.99500  # h,h
pair_coeff	 5  5    0.02000    2.99500  # hc,hc
pair_coeff	 6  6    0.24000    3.53500  # o3e,o3e
pair_coeff	 7  7    0.24000    3.53500  # oc,oc
pair_coeff	 8  8    0.24000    3.53500  # oh,oh

# Bond Coeffs

bond_coeff	 1    1.53000  299.67000 -501.77000  679.81000  # c,c
bond_coeff	 2    1.53000  299.67000 -501.77000  679.81000  # c,c1
bond_coeff	 3    1.53000  299.67000 -501.77000  679.81000  # c,c3h
bond_coeff	 4    1.10100  345.00000 -691.89000  844.60000  # c,hc
bond_coeff	 5    1.53000  299.67000 -501.77000  679.81000  # c1,c1
bond_coeff	 6    1.53000  299.67000 -501.77000  679.81000  # c1,c3h
bond_coeff	 7    1.10100  345.00000 -691.89000  844.60000  # c1,hc
bond_coeff	 8    1.42000  400.39540 -835.19510 1313.01420  # c1,o3e
bond_coeff	 9    1.42000  400.39540 -835.19510 1313.01420  # c1,oc
bond_coeff	10    1.42000  400.39540 -835.19510 1313.01420  # c1,oh
bond_coeff	11    1.53000  299.67000 -501.77000  679.81000  # c3h,c3h
bond_coeff	12    1.10100  345.00000 -691.89000  844.60000  # c3h,hc
bond_coeff	13    1.42000  400.39540 -835.19510 1313.01420  # c3h,o3e
bond_coeff	14    0.96000  493.84800    0.00000    0.00000  # h,oh

# Angle Coeffs

angle_coeff	 1  112.67000   39.51600   -7.44300   -9.55830  # c,c,c1
angle_coeff	 2  110.77000   41.45300  -10.60400    5.12900  # c,c,hc
angle_coeff	 3  112.67000   39.51600   -7.44300   -9.55830  # c,c1,c
angle_coeff	 4  112.67000   39.51600   -7.44300   -9.55830  # c,c1,c1
angle_coeff	 5  110.77000   41.45300  -10.60400    5.12900  # c,c1,hc
angle_coeff	 6  111.27000   54.53810   -8.36420  -13.08380  # c,c1,o3e
angle_coeff	 7  111.27000   54.53810   -8.36420  -13.08380  # c,c1,oc
angle_coeff	 8  112.67000   39.51600   -7.44300   -9.55830  # c,c3h,c3h
angle_coeff	 9  110.77000   41.45300  -10.60400    5.12900  # c,c3h,hc
angle_coeff	10  111.27000   54.53810   -8.36420  -13.08380  # c,c3h,o3e
angle_coeff	11  112.67000   39.51600   -7.44300   -9.55830  # c1,c,c1
angle_coeff	12  112.67000   39.51600   -7.44300   -9.55830  # c1,c,c3h
angle_coeff	13  110.77000   41.45300  -10.60400    5.12900  # c1,c,hc
angle_coeff	14  112.67000   39.51600   -7.44300   -9.55830  # c1,c1,c1
angle_coeff	15  112.67000   39.51600   -7.44300   -9.55830  # c1,c1,c3h
angle_coeff	16  110.77000   41.45300  -10.60400    5.12900  # c1,c1,hc
angle_coeff	17  111.27000   54.53810   -8.36420  -13.08380  # c1,c1,o3e
angle_coeff	18  111.27000   54.53810   -8.36420  -13.08380  # c1,c1,oc
angle_coeff	19  111.27000   54.53810   -8.36420  -13.08380  # c1,c1,oh
angle_coeff	20  112.67000   39.51600   -7.44300   -9.55830  # c1,c3h,c3h
angle_coeff	21  110.77000   41.45300  -10.60400    5.12900  # c1,c3h,hc
angle_coeff	22  111.27000   54.53810   -8.36420  -13.08380  # c1,c3h,o3e
angle_coeff	23  104.50000   35.74540  -10.00670   -6.27290  # c1,o3e,c1
angle_coeff	24  104.50000   35.74540  -10.00670   -6.27290  # c1,oc,c1
angle_coeff	25  109.00000   58.50000    0.00000    0.00000  # c1,oh,h
angle_coeff	26  110.77000   41.45300  -10.60400    5.12900  # c3h,c,hc
angle_coeff	27  110.77000   41.45300  -10.60400    5.12900  # c3h,c1,hc
angle_coeff	28  110.77000   41.45300  -10.60400    5.12900  # c3h,c3h,hc
angle_coeff	29  111.27000   54.53810   -8.36420  -13.08380  # c3h,c3h,o3e
angle_coeff	30  104.50000   35.74540  -10.00670   -6.27290  # c3h,o3e,c3h
angle_coeff	31  107.66000   39.64100  -12.92100   -2.43180  # hc,c,hc
angle_coeff	32  108.72800   58.54460  -10.80880  -12.40060  # hc,c1,o3e
angle_coeff	33  108.72800   58.54460  -10.80880  -12.40060  # hc,c1,oc
angle_coeff	34  108.72800   58.54460  -10.80880  -12.40060  # hc,c1,oh
angle_coeff	35  108.72800   58.54460  -10.80880  -12.40060  # hc,c3h,o3e

# BondBond Coeffs

angle_coeff	 1 bb    0.00000    1.53000    1.53000  # c,c,c1
angle_coeff	 2 bb    3.38720    1.53000    1.10100  # c,c,hc
angle_coeff	 3 bb    0.00000    1.53000    1.53000  # c,c1,c
angle_coeff	 4 bb    0.00000    1.53000    1.53000  # c,c1,c1
angle_coeff	 5 bb    3.38720    1.53000    1.10100  # c,c1,hc
angle_coeff	 6 bb   11.43180    1.53000    1.42000  # c,c1,o3e
angle_coeff	 7 bb   11.43180    1.53000    1.42000  # c,c1,oc
angle_coeff	 8 bb    0.00000    1.53000    1.53000  # c,c3h,c3h
angle_coeff	 9 bb    3.38720    1.53000    1.10100  # c,c3h,hc
angle_coeff	10 bb   11.43180    1.53000    1.42000  # c,c3h,o3e
angle_coeff	11 bb    0.00000    1.53000    1.53000  # c1,c,c1
angle_coeff	12 bb    0.00000    1.53000    1.53000  # c1,c,c3h
angle_coeff	13 bb    3.38720    1.53000    1.10100  # c1,c,hc
angle_coeff	14 bb    0.00000    1.53000    1.53000  # c1,c1,c1
angle_coeff	15 bb    0.00000    1.53000    1.53000  # c1,c1,c3h
angle_coeff	16 bb    3.38720    1.53000    1.10100  # c1,c1,hc
angle_coeff	17 bb   11.43180    1.53000    1.42000  # c1,c1,o3e
angle_coeff	18 bb   11.43180    1.53000    1.42000  # c1,c1,oc
angle_coeff	19 bb   11.43180    1.53000    1.42000  # c1,c1,oh
angle_coeff	20 bb    0.00000    1.53000    1.53000  # c1,c3h,c3h
angle_coeff	21 bb    3.38720    1.53000    1.10100  # c1,c3h,hc
angle_coeff	22 bb   11.43180    1.53000    1.42000  # c1,c3h,o3e
angle_coeff	23 bb   -7.11310    1.42000    1.42000  # c1,o3e,c1
angle_coeff	24 bb   -7.11310    1.42000    1.42000  # c1,oc,c1
angle_coeff	25 bb    0.00000    1.42000    0.96000  # c1,oh,h
angle_coeff	26 bb    3.38720    1.53000    1.10100  # c3h,c,hc
angle_coeff	27 bb    3.38720    1.53000    1.10100  # c3h,c1,hc
angle_coeff	28 bb    3.38720    1.53000    1.10100  # c3h,c3h,hc
angle_coeff	29 bb   11.43180    1.53000    1.42000  # c3h,c3h,o3e
angle_coeff	30 bb   -7.11310    1.42000    1.42000  # c3h,o3e,c3h
angle_coeff	31 bb    5.33160    1.10100    1.10100  # hc,c,hc
angle_coeff	32 bb   23.19790    1.10100    1.42000  # hc,c1,o3e
angle_coeff	33 bb   23.19790    1.10100    1.42000  # hc,c1,oc
angle_coeff	34 bb   23.19790    1.10100    1.42000  # hc,c1,oh
angle_coeff	35 bb   23.19790    1.10100    1.42000  # hc,c3h,o3e

# BondAngle Coeffs

angle_coeff	 1 ba    8.01600    8.01600    1.53000    1.53000  # c,c,c1
angle_coeff	 2 ba   11.42100   20.75400    1.53000    1.10100  # c,c,hc
angle_coeff	 3 ba    8.01600    8.01600    1.53000    1.53000  # c,c1,c
angle_coeff	 4 ba    8.01600    8.01600    1.53000    1.53000  # c,c1,c1
angle_coeff	 5 ba   11.42100   20.75400    1.53000    1.10100  # c,c1,hc
angle_coeff	 6 ba    2.68680   20.40330    1.53000    1.42000  # c,c1,o3e
angle_coeff	 7 ba   20.40330    2.68680    1.53000    1.42000  # c,c1,oc
angle_coeff	 8 ba    8.01600    8.01600    1.53000    1.53000  # c,c3h,c3h
angle_coeff	 9 ba   11.42100   20.75400    1.53000    1.10100  # c,c3h,hc
angle_coeff	10 ba    2.68680   20.40330    1.53000    1.42000  # c,c3h,o3e
angle_coeff	11 ba    8.01600    8.01600    1.53000    1.53000  # c1,c,c1
angle_coeff	12 ba    8.01600    8.01600    1.53000    1.53000  # c1,c,c3h
angle_coeff	13 ba   20.75400   11.42100    1.53000    1.10100  # c1,c,hc
angle_coeff	14 ba    8.01600    8.01600    1.53000    1.53000  # c1,c1,c1
angle_coeff	15 ba    8.01600    8.01600    1.53000    1.53000  # c1,c1,c3h
angle_coeff	16 ba   20.75400   11.42100    1.53000    1.10100  # c1,c1,hc
angle_coeff	17 ba    2.68680   20.40330    1.53000    1.42000  # c1,c1,o3e
angle_coeff	18 ba    2.68680   20.40330    1.53000    1.42000  # c1,c1,oc
angle_coeff	19 ba   20.40330    2.68680    1.53000    1.42000  # c1,c1,oh
angle_coeff	20 ba    8.01600    8.01600    1.53000    1.53000  # c1,c3h,c3h
angle_coeff	21 ba   20.75400   11.42100    1.53000    1.10100  # c1,c3h,hc
angle_coeff	22 ba    2.68680   20.40330    1.53000    1.42000  # c1,c3h,o3e
angle_coeff	23 ba   -2.81120   -2.81120    1.42000    1.42000  # c1,o3e,c1
angle_coeff	24 ba   -2.81120   -2.81120    1.42000    1.42000  # c1,oc,c1
angle_coeff	25 ba    0.00000    0.00000    1.42000    0.96000  # c1,oh,h
angle_coeff	26 ba   11.42100   20.75400    1.53000    1.10100  # c3h,c,hc
angle_coeff	27 ba   11.42100   20.75400    1.53000    1.10100  # c3h,c1,hc
angle_coeff	28 ba   11.42100   20.75400    1.53000    1.10100  # c3h,c3h,hc
angle_coeff	29 ba   20.40330    2.68680    1.53000    1.42000  # c3h,c3h,o3e
angle_coeff	30 ba   -2.81120   -2.81120    1.42000    1.42000  # c3h,o3e,c3h
angle_coeff	31 ba   18.10300   18.10300    1.10100    1.10100  # hc,c,hc
angle_coeff	32 ba    4.61890   55.32700    1.10100    1.42000  # hc,c1,o3e
angle_coeff	33 ba    4.61890   55.32700    1.10100    1.42000  # hc,c1,oc
angle_coeff	34 ba   55.32700    4.61890    1.10100    1.42000  # hc,c1,oh
angle_coeff	35 ba    4.61890   55.32700    1.10100    1.42000  # hc,c3h,o3e

# Dihedral Coeffs

dihedral_coeff	 1    0.00000    0.00000    0.05140    0.00000   -0.14300    0.00000  # c,c,c1,c1
dihedral_coeff	 2    0.00000    0.00000    0.03160    0.00000   -0.16810    0.00000  # c,c,c1,hc
dihedral_coeff	 3    0.71370    0.00000    0.26600    0.00000   -0.25450    0.00000  # c,c,c1,oc
dihedral_coeff	 4    0.00000    0.00000    0.05140    0.00000   -0.14300    0.00000  # c,c1,c,c1
dihedral_coeff	 5    0.00000    0.00000    0.03160    0.00000   -0.16810    0.00000  # c,c1,c,hc
dihedral_coeff	 6    0.00000    0.00000    0.05140    0.00000   -0.14300    0.00000  # c,c1,c1,c
dihedral_coeff	 7    0.00000    0.00000    0.05140    0.00000   -0.14300    0.00000  # c,c1,c1,c1
dihedral_coeff	 8    0.00000    0.00000    0.05140    0.00000   -0.14300    0.00000  # c,c1,c1,c3h
dihedral_coeff	 9    0.00000    0.00000    0.03160    0.00000   -0.16810    0.00000  # c,c1,c1,hc
dihedral_coeff	10    0.71370    0.00000    0.26600    0.00000   -0.25450    0.00000  # c,c1,c1,o3e
dihedral_coeff	11    0.71370    0.00000    0.26600    0.00000   -0.25450    0.00000  # c,c1,c1,oc
dihedral_coeff	12    0.71370    0.00000    0.26600    0.00000   -0.25450    0.00000  # c,c1,c1,oh
dihedral_coeff	13   -0.52030    0.00000   -0.30280    0.00000   -0.34500    0.00000  # c,c1,o3e,c1
dihedral_coeff	14   -0.52030    0.00000   -0.30280    0.00000   -0.34500    0.00000  # c,c1,oc,c1
dihedral_coeff	15    0.00000    0.00000    0.05140    0.00000   -0.14300    0.00000  # c,c3h,c3h,c1
dihedral_coeff	16    0.00000    0.00000    0.03160    0.00000   -0.16810    0.00000  # c,c3h,c3h,hc
dihedral_coeff	17    0.71370    0.00000    0.26600    0.00000   -0.25450    0.00000  # c,c3h,c3h,o3e
dihedral_coeff	18   -0.52030    0.00000   -0.30280    0.00000   -0.34500    0.00000  # c,c3h,o3e,c3h
dihedral_coeff	19    0.00000    0.00000    0.05140    0.00000   -0.14300    0.00000  # c1,c,c,c1
dihedral_coeff	20    0.00000    0.00000    0.03160    0.00000   -0.16810    0.00000  # c1,c,c,hc
dihedral_coeff	21    0.00000    0.00000    0.05140    0.00000   -0.14300    0.00000  # c1,c,c1,c1
dihedral_coeff	22    0.00000    0.00000    0.03160    0.00000   -0.16810    0.00000  # c1,c,c1,hc
dihedral_coeff	23    0.71370    0.00000    0.26600    0.00000   -0.25450    0.00000  # c1,c,c1,o3e
dihedral_coeff	24    0.71370    0.00000    0.26600    0.00000   -0.25450    0.00000  # c1,c,c1,oc
dihedral_coeff	25    0.00000    0.00000    0.05140    0.00000   -0.14300    0.00000  # c1,c,c3h,c3h
dihedral_coeff	26    0.00000    0.00000    0.03160    0.00000   -0.16810    0.00000  # c1,c,c3h,hc
dihedral_coeff	27    0.71370    0.00000    0.26600    0.00000   -0.25450    0.00000  # c1,c,c3h,o3e
dihedral_coeff	28    0.00000    0.00000    0.05140    0.00000   -0.14300    0.00000  # c1,c1,c,c3h
dihedral_coeff	29    0.00000    0.00000    0.03160    0.00000   -0.16810    0.00000  # c1,c1,c,hc
dihedral_coeff	30    0.00000    0.00000    0.05140    0.00000   -0.14300    0.00000  # c1,c1,c1,c1
dihedral_coeff	31    0.00000    0.00000    0.05140    0.00000   -0.14300    0.00000  # c1,c1,c1,c3h
dihedral_coeff	32    0.00000    0.00000    0.03160    0.00000   -0.16810    0.00000  # c1,c1,c1,hc
dihedral_coeff	33    0.71370    0.00000    0.26600    0.00000   -0.25450    0.00000  # c1,c1,c1,o3e
dihedral_coeff	34    0.71370    0.00000    0.26600    0.00000   -0.25450    0.00000  # c1,c1,c1,oc
dihedral_coeff	35    0.71370    0.00000    0.26600    0.00000   -0.25450    0.00000  # c1,c1,c1,oh
dihedral_coeff	36    0.00000    0.00000    0.05140    0.00000   -0.14300    0.00000  # c1,c1,c3h,c3h
dihedral_coeff	37    0.00000    0.00000    0.03160    0.00000   -0.16810    0.00000  # c1,c1,c3h,hc
dihedral_coeff	38    0.71370    0.00000    0.26600    0.00000   -0.25450    0.00000  # c1,c1,c3h,o3e
dihedral_coeff	39   -0.52030    0.00000   -0.30280    0.00000   -0.34500    0.00000  # c1,c1,o3e,c1
dihedral_coeff	40   -0.52030    0.00000   -0.30280    0.00000   -0.34500    0.00000  # c1,c1,oc,c1
dihedral_coeff	41    0.00000    0.00000    0.00000    0.00000    0.13000  180.00000  # c1,c1,oh,h
dihedral_coeff	42    0.00000    0.00000    0.03160    0.00000   -0.16810    0.00000  # c1,c3h,c3h,hc
dihedral_coeff	43    0.71370    0.00000    0.26600    0.00000   -0.25450    0.00000  # c1,c3h,c3h,o3e
dihedral_coeff	44   -0.52030    0.00000   -0.30280    0.00000   -0.34500    0.00000  # c1,c3h,o3e,c3h
dihedral_coeff	45    0.53020    0.00000    0.00000    0.00000   -0.39660    0.00000  # c1,o3e,c1,hc
dihedral_coeff	46    0.53020    0.00000    0.00000    0.00000   -0.39660    0.00000  # c1,oc,c1,hc
dihedral_coeff	47    0.00000    0.00000    0.03160    0.00000   -0.16810    0.00000  # c3h,c,c1,hc
dihedral_coeff	48    0.00000    0.00000    0.03160    0.00000   -0.16810    0.00000  # c3h,c1,c1,hc
dihedral_coeff	49    0.00000    0.00000    0.03160    0.00000   -0.16810    0.00000  # c3h,c3h,c,hc
dihedral_coeff	50    0.00000    0.00000    0.03160    0.00000   -0.16810    0.00000  # c3h,c3h,c1,hc
dihedral_coeff	51    0.53020    0.00000    0.00000    0.00000   -0.39660    0.00000  # c3h,o3e,c3h,hc
dihedral_coeff	52    0.00000    0.00000    0.00000    0.00000    0.13000  180.00000  # h,oh,c1,hc
dihedral_coeff	53   -0.14320    0.00000    0.06170    0.00000   -0.10830    0.00000  # hc,c,c,hc
dihedral_coeff	54   -0.14320    0.00000    0.06170    0.00000   -0.10830    0.00000  # hc,c,c1,hc
dihedral_coeff	55   -0.14350    0.00000    0.25300    0.00000   -0.09050    0.00000  # hc,c,c1,o3e
dihedral_coeff	56   -0.14350    0.00000    0.25300    0.00000   -0.09050    0.00000  # hc,c,c1,oc
dihedral_coeff	57   -0.14320    0.00000    0.06170    0.00000   -0.10830    0.00000  # hc,c,c3h,hc
dihedral_coeff	58   -0.14350    0.00000    0.25300    0.00000   -0.09050    0.00000  # hc,c,c3h,o3e
dihedral_coeff	59   -0.14320    0.00000    0.06170    0.00000   -0.10830    0.00000  # hc,c1,c1,hc
dihedral_coeff	60   -0.14350    0.00000    0.25300    0.00000   -0.09050    0.00000  # hc,c1,c1,o3e
dihedral_coeff	61   -0.14350    0.00000    0.25300    0.00000   -0.09050    0.00000  # hc,c1,c1,oc
dihedral_coeff	62   -0.14350    0.00000    0.25300    0.00000   -0.09050    0.00000  # hc,c1,c1,oh
dihedral_coeff	63   -0.14320    0.00000    0.06170    0.00000   -0.10830    0.00000  # hc,c1,c3h,hc
dihedral_coeff	64   -0.14350    0.00000    0.25300    0.00000   -0.09050    0.00000  # hc,c1,c3h,o3e
dihedral_coeff	65   -0.14320    0.00000    0.06170    0.00000   -0.10830    0.00000  # hc,c3h,c3h,hc
dihedral_coeff	66   -0.14350    0.00000    0.25300    0.00000   -0.09050    0.00000  # hc,c3h,c3h,o3e
dihedral_coeff	67   -0.18200    0.00000   -0.10840    0.00000   -0.70470    0.00000  # oc,c1,c1,oc
dihedral_coeff	68   -0.18200    0.00000   -0.10840    0.00000   -0.70470    0.00000  # oc,c1,c1,oh

# MiddleBondTorsion Coeffs

dihedral_coeff	 1 mbt  -17.78700   -7.18770    0.00000    1.53000  # c,c,c1,c1
dihedral_coeff	 2 mbt  -14.87900   -3.65810   -0.31380    1.53000  # c,c,c1,hc
dihedral_coeff	 3 mbt  -21.88420   -7.67640   -0.68680    1.53000  # c,c,c1,oc
dihedral_coeff	 4 mbt  -17.78700   -7.18770    0.00000    1.53000  # c,c1,c,c1
dihedral_coeff	 5 mbt  -14.87900   -3.65810   -0.31380    1.53000  # c,c1,c,hc
dihedral_coeff	 6 mbt  -17.78700   -7.18770    0.00000    1.53000  # c,c1,c1,c
dihedral_coeff	 7 mbt  -17.78700   -7.18770    0.00000    1.53000  # c,c1,c1,c1
dihedral_coeff	 8 mbt  -17.78700   -7.18770    0.00000    1.53000  # c,c1,c1,c3h
dihedral_coeff	 9 mbt  -14.87900   -3.65810   -0.31380    1.53000  # c,c1,c1,hc
dihedral_coeff	10 mbt  -21.88420   -7.67640   -0.68680    1.53000  # c,c1,c1,o3e
dihedral_coeff	11 mbt  -21.88420   -7.67640   -0.68680    1.53000  # c,c1,c1,oc
dihedral_coeff	12 mbt  -21.88420   -7.67640   -0.68680    1.53000  # c,c1,c1,oh
dihedral_coeff	13 mbt   -5.92880   -2.70070   -0.31750    1.42000  # c,c1,o3e,c1
dihedral_coeff	14 mbt   -5.92880   -2.70070   -0.31750    1.42000  # c,c1,oc,c1
dihedral_coeff	15 mbt  -17.78700   -7.18770    0.00000    1.53000  # c,c3h,c3h,c1
dihedral_coeff	16 mbt  -14.87900   -3.65810   -0.31380    1.53000  # c,c3h,c3h,hc
dihedral_coeff	17 mbt  -21.88420   -7.67640   -0.68680    1.53000  # c,c3h,c3h,o3e
dihedral_coeff	18 mbt   -5.92880   -2.70070   -0.31750    1.42000  # c,c3h,o3e,c3h
dihedral_coeff	19 mbt  -17.78700   -7.18770    0.00000    1.53000  # c1,c,c,c1
dihedral_coeff	20 mbt  -14.87900   -3.65810   -0.31380    1.53000  # c1,c,c,hc
dihedral_coeff	21 mbt  -17.78700   -7.18770    0.00000    1.53000  # c1,c,c1,c1
dihedral_coeff	22 mbt  -14.87900   -3.65810   -0.31380    1.53000  # c1,c,c1,hc
dihedral_coeff	23 mbt  -21.88420   -7.67640   -0.68680    1.53000  # c1,c,c1,o3e
dihedral_coeff	24 mbt  -21.88420   -7.67640   -0.68680    1.53000  # c1,c,c1,oc
dihedral_coeff	25 mbt  -17.78700   -7.18770    0.00000    1.53000  # c1,c,c3h,c3h
dihedral_coeff	26 mbt  -14.87900   -3.65810   -0.31380    1.53000  # c1,c,c3h,hc
dihedral_coeff	27 mbt  -21.88420   -7.67640   -0.68680    1.53000  # c1,c,c3h,o3e
dihedral_coeff	28 mbt  -17.78700   -7.18770    0.00000    1.53000  # c1,c1,c,c3h
dihedral_coeff	29 mbt  -14.87900   -3.65810   -0.31380    1.53000  # c1,c1,c,hc
dihedral_coeff	30 mbt  -17.78700   -7.18770    0.00000    1.53000  # c1,c1,c1,c1
dihedral_coeff	31 mbt  -17.78700   -7.18770    0.00000    1.53000  # c1,c1,c1,c3h
dihedral_coeff	32 mbt  -14.87900   -3.65810   -0.31380    1.53000  # c1,c1,c1,hc
dihedral_coeff	33 mbt  -21.88420   -7.67640   -0.68680    1.53000  # c1,c1,c1,o3e
dihedral_coeff	34 mbt  -21.88420   -7.67640   -0.68680    1.53000  # c1,c1,c1,oc
dihedral_coeff	35 mbt  -21.88420   -7.67640   -0.68680    1.53000  # c1,c1,c1,oh
dihedral_coeff	36 mbt  -17.78700   -7.18770    0.00000    1.53000  # c1,c1,c3h,c3h
dihedral_coeff	37 mbt  -14.87900   -3.65810   -0.31380    1.53000  # c1,c1,c3h,hc
dihedral_coeff	38 mbt  -21.88420   -7.67640   -0.68680    1.53000  # c1,c1,c3h,o3e
dihedral_coeff	39 mbt   -5.92880   -2.70070   -0.31750    1.42000  # c1,c1,o3e,c1
dihedral_coeff	40 mbt   -5.92880   -2.70070   -0.31750    1.42000  # c1,c1,oc,c1
dihedral_coeff	41 mbt    0.00000    0.00000    0.00000    1.42000  # c1,c1,oh,h
dihedral_coeff	42 mbt  -14.87900   -3.65810   -0.31380    1.53000  # c1,c3h,c3h,hc
dihedral_coeff	43 mbt  -21.88420   -7.67640   -0.68680    1.53000  # c1,c3h,c3h,o3e
dihedral_coeff	44 mbt   -5.92880   -2.70070   -0.31750    1.42000  # c1,c3h,o3e,c3h
dihedral_coeff	45 mbt   -6.80070   -4.65460   -1.41010    1.42000  # c1,o3e,c1,hc
dihedral_coeff	46 mbt   -6.80070   -4.65460   -1.41010    1.42000  # c1,oc,c1,hc
dihedral_coeff	47 mbt  -14.87900   -3.65810   -0.31380    1.53000  # c3h,c,c1,hc
dihedral_coeff	48 mbt  -14.87900   -3.65810   -0.31380    1.53000  # c3h,c1,c1,hc
dihedral_coeff	49 mbt  -14.87900   -3.65810   -0.31380    1.53000  # c3h,c3h,c,hc
dihedral_coeff	50 mbt  -14.87900   -3.65810   -0.31380    1.53000  # c3h,c3h,c1,hc
dihedral_coeff	51 mbt   -6.80070   -4.65460   -1.41010    1.42000  # c3h,o3e,c3h,hc
dihedral_coeff	52 mbt    0.00000    0.00000    0.00000    1.42000  # h,oh,c1,hc
dihedral_coeff	53 mbt  -14.26100   -0.53220   -0.48640    1.53000  # hc,c,c,hc
dihedral_coeff	54 mbt  -14.26100   -0.53220   -0.48640    1.53000  # hc,c,c1,hc
dihedral_coeff	55 mbt  -16.79750   -1.22960   -0.27500    1.53000  # hc,c,c1,o3e
dihedral_coeff	56 mbt  -16.79750   -1.22960   -0.27500    1.53000  # hc,c,c1,oc
dihedral_coeff	57 mbt  -14.26100   -0.53220   -0.48640    1.53000  # hc,c,c3h,hc
dihedral_coeff	58 mbt  -16.79750   -1.22960   -0.27500    1.53000  # hc,c,c3h,o3e
dihedral_coeff	59 mbt  -14.26100   -0.53220   -0.48640    1.53000  # hc,c1,c1,hc
dihedral_coeff	60 mbt  -16.79750   -1.22960   -0.27500    1.53000  # hc,c1,c1,o3e
dihedral_coeff	61 mbt  -16.79750   -1.22960   -0.27500    1.53000  # hc,c1,c1,oc
dihedral_coeff	62 mbt  -16.79750   -1.22960   -0.27500    1.53000  # hc,c1,c1,oh
dihedral_coeff	63 mbt  -14.26100   -0.53220   -0.48640    1.53000  # hc,c1,c3h,hc
dihedral_coeff	64 mbt  -16.79750   -1.22960   -0.27500    1.53000  # hc,c1,c3h,o3e
dihedral_coeff	65 mbt  -14.26100   -0.53220   -0.48640    1.53000  # hc,c3h,c3h,hc
dihedral_coeff	66 mbt  -16.79750   -1.22960   -0.27500    1.53000  # hc,c3h,c3h,o3e
dihedral_coeff	67 mbt  -17.25850   -3.61570   -0.83640    1.53000  # oc,c1,c1,oc
dihedral_coeff	68 mbt  -17.25850   -3.61570   -0.83640    1.53000  # oc,c1,c1,oh

# EndBondTorsion Coeffs

dihedral_coeff	 1 ebt   -0.07320    0.00000    0.00000   -0.07320    0.00000    0.00000    1.53000    1.53000  # c,c,c1,c1
dihedral_coeff	 2 ebt    0.08140    0.05910    0.22190    0.24860    0.24220   -0.09250    1.53000    1.10100  # c,c,c1,hc
dihedral_coeff	 3 ebt    1.15380    0.84090   -0.91380   -0.31900    0.44110   -0.71740    1.53000    1.42000  # c,c,c1,oc
dihedral_coeff	 4 ebt   -0.07320    0.00000    0.00000   -0.07320    0.00000    0.00000    1.53000    1.53000  # c,c1,c,c1
dihedral_coeff	 5 ebt    0.08140    0.05910    0.22190    0.24860    0.24220   -0.09250    1.53000    1.10100  # c,c1,c,hc
dihedral_coeff	 6 ebt   -0.07320    0.00000    0.00000   -0.07320    0.00000    0.00000    1.53000    1.53000  # c,c1,c1,c
dihedral_coeff	 7 ebt   -0.07320    0.00000    0.00000   -0.07320    0.00000    0.00000    1.53000    1.53000  # c,c1,c1,c1
dihedral_coeff	 8 ebt   -0.07320    0.00000    0.00000   -0.07320    0.00000    0.00000    1.53000    1.53000  # c,c1,c1,c3h
dihedral_coeff	 9 ebt    0.08140    0.05910    0.22190    0.24860    0.24220   -0.09250    1.53000    1.10100  # c,c1,c1,hc
dihedral_coeff	10 ebt   -0.31900    0.44110   -0.71740    1.15380    0.84090   -0.91380    1.53000    1.42000  # c,c1,c1,o3e
dihedral_coeff	11 ebt    1.15380    0.84090   -0.91380   -0.31900    0.44110   -0.71740    1.53000    1.42000  # c,c1,c1,oc
dihedral_coeff	12 ebt    1.15380    0.84090   -0.91380   -0.31900    0.44110   -0.71740    1.53000    1.42000  # c,c1,c1,oh
dihedral_coeff	13 ebt    0.47410    1.26350    0.55760   -0.24560    1.05170   -0.77950    1.53000    1.42000  # c,c1,o3e,c1
dihedral_coeff	14 ebt    0.47410    1.26350    0.55760   -0.24560    1.05170   -0.77950    1.53000    1.42000  # c,c1,oc,c1
dihedral_coeff	15 ebt   -0.07320    0.00000    0.00000   -0.07320    0.00000    0.00000    1.53000    1.53000  # c,c3h,c3h,c1
dihedral_coeff	16 ebt    0.08140    0.05910    0.22190    0.24860    0.24220   -0.09250    1.53000    1.10100  # c,c3h,c3h,hc
dihedral_coeff	17 ebt   -0.31900    0.44110   -0.71740    1.15380    0.84090   -0.91380    1.53000    1.42000  # c,c3h,c3h,o3e
dihedral_coeff	18 ebt   -0.24560    1.05170   -0.77950    0.47410    1.26350    0.55760    1.53000    1.42000  # c,c3h,o3e,c3h
dihedral_coeff	19 ebt   -0.07320    0.00000    0.00000   -0.07320    0.00000    0.00000    1.53000    1.53000  # c1,c,c,c1
dihedral_coeff	20 ebt    0.24860    0.24220   -0.09250    0.08140    0.05910    0.22190    1.53000    1.10100  # c1,c,c,hc
dihedral_coeff	21 ebt   -0.07320    0.00000    0.00000   -0.07320    0.00000    0.00000    1.53000    1.53000  # c1,c,c1,c1
dihedral_coeff	22 ebt    0.24860    0.24220   -0.09250    0.08140    0.05910    0.22190    1.53000    1.10100  # c1,c,c1,hc
dihedral_coeff	23 ebt   -0.31900    0.44110   -0.71740    1.15380    0.84090   -0.91380    1.53000    1.42000  # c1,c,c1,o3e
dihedral_coeff	24 ebt   -0.31900    0.44110   -0.71740    1.15380    0.84090   -0.91380    1.53000    1.42000  # c1,c,c1,oc
dihedral_coeff	25 ebt   -0.07320    0.00000    0.00000   -0.07320    0.00000    0.00000    1.53000    1.53000  # c1,c,c3h,c3h
dihedral_coeff	26 ebt    0.24860    0.24220   -0.09250    0.08140    0.05910    0.22190    1.53000    1.10100  # c1,c,c3h,hc
dihedral_coeff	27 ebt   -0.31900    0.44110   -0.71740    1.15380    0.84090   -0.91380    1.53000    1.42000  # c1,c,c3h,o3e
dihedral_coeff	28 ebt   -0.07320    0.00000    0.00000   -0.07320    0.00000    0.00000    1.53000    1.53000  # c1,c1,c,c3h
dihedral_coeff	29 ebt    0.24860    0.24220   -0.09250    0.08140    0.05910    0.22190    1.53000    1.10100  # c1,c1,c,hc
dihedral_coeff	30 ebt   -0.07320    0.00000    0.00000   -0.07320    0.00000    0.00000    1.53000    1.53000  # c1,c1,c1,c1
dihedral_coeff	31 ebt   -0.07320    0.00000    0.00000   -0.07320    0.00000    0.00000    1.53000    1.53000  # c1,c1,c1,c3h
dihedral_coeff	32 ebt    0.24860    0.24220   -0.09250    0.08140    0.05910    0.22190    1.53000    1.10100  # c1,c1,c1,hc
dihedral_coeff	33 ebt   -0.31900    0.44110   -0.71740    1.15380    0.84090   -0.91380    1.53000    1.42000  # c1,c1,c1,o3e
dihedral_coeff	34 ebt   -0.31900    0.44110   -0.71740    1.15380    0.84090   -0.91380    1.53000    1.42000  # c1,c1,c1,oc
dihedral_coeff	35 ebt    1.15380    0.84090   -0.91380   -0.31900    0.44110   -0.71740    1.53000    1.42000  # c1,c1,c1,oh
dihedral_coeff	36 ebt   -0.07320    0.00000    0.00000   -0.07320    0.00000    0.00000    1.53000    1.53000  # c1,c1,c3h,c3h
dihedral_coeff	37 ebt    0.24860    0.24220   -0.09250    0.08140    0.05910    0.22190    1.53000    1.10100  # c1,c1,c3h,hc
dihedral_coeff	38 ebt   -0.31900    0.44110   -0.71740    1.15380    0.84090   -0.91380    1.53000    1.42000  # c1,c1,c3h,o3e
dihedral_coeff	39 ebt   -0.24560    1.05170   -0.77950    0.47410    1.26350    0.55760    1.53000    1.42000  # c1,c1,o3e,c1
dihedral_coeff	40 ebt   -0.24560    1.05170   -0.77950    0.47410    1.26350    0.55760    1.53000    1.42000  # c1,c1,oc,c1
dihedral_coeff	41 ebt    0.00000    0.00000    0.00000    0.00000    0.00000    0.00000    1.53000    0.96000  # c1,c1,oh,h
dihedral_coeff	42 ebt    0.24860    0.24220   -0.09250    0.08140    0.05910    0.22190    1.53000    1.10100  # c1,c3h,c3h,hc
dihedral_coeff	43 ebt   -0.31900    0.44110   -0.71740    1.15380    0.84090   -0.91380    1.53000    1.42000  # c1,c3h,c3h,o3e
dihedral_coeff	44 ebt   -0.24560    1.05170   -0.77950    0.47410    1.26350    0.55760    1.53000    1.42000  # c1,c3h,o3e,c3h
dihedral_coeff	45 ebt   -0.16200    0.15640   -1.14080   -0.60540    1.33390    0.96480    1.42000    1.10100  # c1,o3e,c1,hc
dihedral_coeff	46 ebt   -0.16200    0.15640   -1.14080   -0.60540    1.33390    0.96480    1.42000    1.10100  # c1,oc,c1,hc
dihedral_coeff	47 ebt    0.08140    0.05910    0.22190    0.24860    0.24220   -0.09250    1.53000    1.10100  # c3h,c,c1,hc
dihedral_coeff	48 ebt    0.08140    0.05910    0.22190    0.24860    0.24220   -0.09250    1.53000    1.10100  # c3h,c1,c1,hc
dihedral_coeff	49 ebt    0.08140    0.05910    0.22190    0.24860    0.24220   -0.09250    1.53000    1.10100  # c3h,c3h,c,hc
dihedral_coeff	50 ebt    0.08140    0.05910    0.22190    0.24860    0.24220   -0.09250    1.53000    1.10100  # c3h,c3h,c1,hc
dihedral_coeff	51 ebt   -0.60540    1.33390    0.96480   -0.16200    0.15640   -1.14080    1.42000    1.10100  # c3h,o3e,c3h,hc
dihedral_coeff	52 ebt    0.00000    0.00000    0.00000    0.00000    0.00000    0.00000    0.96000    1.10100  # h,oh,c1,hc
dihedral_coeff	53 ebt    0.21300    0.31200    0.07770    0.21300    0.31200    0.07770    1.10100    1.10100  # hc,c,c,hc
dihedral_coeff	54 ebt    0.21300    0.31200    0.07770    0.21300    0.31200    0.07770    1.10100    1.10100  # hc,c,c1,hc
dihedral_coeff	55 ebt    0.96810    0.95510    0.04360    0.59030    0.66690    0.85840    1.10100    1.42000  # hc,c,c1,o3e
dihedral_coeff	56 ebt    0.96810    0.95510    0.04360    0.59030    0.66690    0.85840    1.10100    1.42000  # hc,c,c1,oc
dihedral_coeff	57 ebt    0.21300    0.31200    0.07770    0.21300    0.31200    0.07770    1.10100    1.10100  # hc,c,c3h,hc
dihedral_coeff	58 ebt    0.96810    0.95510    0.04360    0.59030    0.66690    0.85840    1.10100    1.42000  # hc,c,c3h,o3e
dihedral_coeff	59 ebt    0.21300    0.31200    0.07770    0.21300    0.31200    0.07770    1.10100    1.10100  # hc,c1,c1,hc
dihedral_coeff	60 ebt    0.96810    0.95510    0.04360    0.59030    0.66690    0.85840    1.10100    1.42000  # hc,c1,c1,o3e
dihedral_coeff	61 ebt    0.96810    0.95510    0.04360    0.59030    0.66690    0.85840    1.10100    1.42000  # hc,c1,c1,oc
dihedral_coeff	62 ebt    0.59030    0.66690    0.85840    0.96810    0.95510    0.04360    1.10100    1.42000  # hc,c1,c1,oh
dihedral_coeff	63 ebt    0.21300    0.31200    0.07770    0.21300    0.31200    0.07770    1.10100    1.10100  # hc,c1,c3h,hc
dihedral_coeff	64 ebt    0.96810    0.95510    0.04360    0.59030    0.66690    0.85840    1.10100    1.42000  # hc,c1,c3h,o3e
dihedral_coeff	65 ebt    0.21300    0.31200    0.07770    0.21300    0.31200    0.07770    1.10100    1.10100  # hc,c3h,c3h,hc
dihedral_coeff	66 ebt    0.96810    0.95510    0.04360    0.59030    0.66690    0.85840    1.10100    1.42000  # hc,c3h,c3h,o3e
dihedral_coeff	67 ebt    1.01650    0.75530   -0.46090    1.01650    0.75530   -0.46090    1.42000    1.42000  # oc,c1,c1,oc
dihedral_coeff	68 ebt    1.01650    0.75530   -0.46090    1.01650    0.75530   -0.46090    1.42000    1.42000  # oc,c1,c1,oh

# AngleTorsion Coeffs

dihedral_coeff	 1 at    0.38860   -0.31390    0.13890    0.38860   -0.31390    0.13890  112.67000  112.67000  # c,c,c1,c1
dihedral_coeff	 2 at    0.31130    0.45160   -0.19880   -0.24540    0.00000   -0.11360  112.67000  110.77000  # c,c,c1,hc
dihedral_coeff	 3 at    0.96720   -0.75660   -1.23310    0.56230   -0.30410   -0.40150  112.67000  111.27000  # c,c,c1,oc
dihedral_coeff	 4 at    0.38860   -0.31390    0.13890    0.38860   -0.31390    0.13890  112.67000  112.67000  # c,c1,c,c1
dihedral_coeff	 5 at    0.31130    0.45160   -0.19880   -0.24540    0.00000   -0.11360  112.67000  110.77000  # c,c1,c,hc
dihedral_coeff	 6 at    0.38860   -0.31390    0.13890    0.38860   -0.31390    0.13890  112.67000  112.67000  # c,c1,c1,c
dihedral_coeff	 7 at    0.38860   -0.31390    0.13890    0.38860   -0.31390    0.13890  112.67000  112.67000  # c,c1,c1,c1
dihedral_coeff	 8 at    0.38860   -0.31390    0.13890    0.38860   -0.31390    0.13890  112.67000  112.67000  # c,c1,c1,c3h
dihedral_coeff	 9 at    0.31130    0.45160   -0.19880   -0.24540    0.00000   -0.11360  112.67000  110.77000  # c,c1,c1,hc
dihedral_coeff	10 at    0.56230   -0.30410   -0.40150    0.96720   -0.75660   -1.23310  112.67000  111.27000  # c,c1,c1,o3e
dihedral_coeff	11 at    0.96720   -0.75660   -1.23310    0.56230   -0.30410   -0.40150  112.67000  111.27000  # c,c1,c1,oc
dihedral_coeff	12 at    0.96720   -0.75660   -1.23310    0.56230   -0.30410   -0.40150  112.67000  111.27000  # c,c1,c1,oh
dihedral_coeff	13 at    0.56760    0.94500    0.07030   -2.74660    1.48770   -0.89550  111.27000  104.50000  # c,c1,o3e,c1
dihedral_coeff	14 at    0.56760    0.94500    0.07030   -2.74660    1.48770   -0.89550  111.27000  104.50000  # c,c1,oc,c1
dihedral_coeff	15 at    0.38860   -0.31390    0.13890    0.38860   -0.31390    0.13890  112.67000  112.67000  # c,c3h,c3h,c1
dihedral_coeff	16 at    0.31130    0.45160   -0.19880   -0.24540    0.00000   -0.11360  112.67000  110.77000  # c,c3h,c3h,hc
dihedral_coeff	17 at    0.56230   -0.30410   -0.40150    0.96720   -0.75660   -1.23310  112.67000  111.27000  # c,c3h,c3h,o3e
dihedral_coeff	18 at   -2.74660    1.48770   -0.89550    0.56760    0.94500    0.07030  111.27000  104.50000  # c,c3h,o3e,c3h
dihedral_coeff	19 at    0.38860   -0.31390    0.13890    0.38860   -0.31390    0.13890  112.67000  112.67000  # c1,c,c,c1
dihedral_coeff	20 at   -0.24540    0.00000   -0.11360    0.31130    0.45160   -0.19880  112.67000  110.77000  # c1,c,c,hc
dihedral_coeff	21 at    0.38860   -0.31390    0.13890    0.38860   -0.31390    0.13890  112.67000  112.67000  # c1,c,c1,c1
dihedral_coeff	22 at   -0.24540    0.00000   -0.11360    0.31130    0.45160   -0.19880  112.67000  110.77000  # c1,c,c1,hc
dihedral_coeff	23 at    0.56230   -0.30410   -0.40150    0.96720   -0.75660   -1.23310  112.67000  111.27000  # c1,c,c1,o3e
dihedral_coeff	24 at    0.56230   -0.30410   -0.40150    0.96720   -0.75660   -1.23310  112.67000  111.27000  # c1,c,c1,oc
dihedral_coeff	25 at    0.38860   -0.31390    0.13890    0.38860   -0.31390    0.13890  112.67000  112.67000  # c1,c,c3h,c3h
dihedral_coeff	26 at   -0.24540    0.00000   -0.11360    0.31130    0.45160   -0.19880  112.67000  110.77000  # c1,c,c3h,hc
dihedral_coeff	27 at    0.56230   -0.30410   -0.40150    0.96720   -0.75660   -1.23310  112.67000  111.27000  # c1,c,c3h,o3e
dihedral_coeff	28 at    0.38860   -0.31390    0.13890    0.38860   -0.31390    0.13890  112.67000  112.67000  # c1,c1,c,c3h
dihedral_coeff	29 at   -0.24540    0.00000   -0.11360    0.31130    0.45160   -0.19880  112.67000  110.77000  # c1,c1,c,hc
dihedral_coeff	30 at    0.38860   -0.31390    0.13890    0.38860   -0.31390    0.13890  112.67000  112.67000  # c1,c1,c1,c1
dihedral_coeff	31 at    0.38860   -0.31390    0.13890    0.38860   -0.31390    0.13890  112.67000  112.67000  # c1,c1,c1,c3h
dihedral_coeff	32 at   -0.24540    0.00000   -0.11360    0.31130    0.45160   -0.19880  112.67000  110.77000  # c1,c1,c1,hc
dihedral_coeff	33 at    0.56230   -0.30410   -0.40150    0.96720   -0.75660   -1.23310  112.67000  111.27000  # c1,c1,c1,o3e
dihedral_coeff	34 at    0.56230   -0.30410   -0.40150    0.96720   -0.75660   -1.23310  112.67000  111.27000  # c1,c1,c1,oc
dihedral_coeff	35 at    0.96720   -0.75660   -1.23310    0.56230   -0.30410   -0.40150  112.67000  111.27000  # c1,c1,c1,oh
dihedral_coeff	36 at    0.38860   -0.31390    0.13890    0.38860   -0.31390    0.13890  112.67000  112.67000  # c1,c1,c3h,c3h
dihedral_coeff	37 at   -0.24540    0.00000   -0.11360    0.31130    0.45160   -0.19880  112.67000  110.77000  # c1,c1,c3h,hc
dihedral_coeff	38 at    0.56230   -0.30410   -0.40150    0.96720   -0.75660   -1.23310  112.67000  111.27000  # c1,c1,c3h,o3e
dihedral_coeff	39 at   -2.74660    1.48770   -0.89550    0.56760    0.94500    0.07030  111.27000  104.50000  # c1,c1,o3e,c1
dihedral_coeff	40 at   -2.74660    1.48770   -0.89550    0.56760    0.94500    0.07030  111.27000  104.50000  # c1,c1,oc,c1
dihedral_coeff	41 at    0.00000    0.00000    0.00000    0.00000    0.00000    0.00000  111.27000  109.00000  # c1,c1,oh,h
dihedral_coeff	42 at   -0.24540    0.00000   -0.11360    0.31130    0.45160   -0.19880  112.67000  110.77000  # c1,c3h,c3h,hc
dihedral_coeff	43 at    0.56230   -0.30410   -0.40150    0.96720   -0.75660   -1.23310  112.67000  111.27000  # c1,c3h,c3h,o3e
dihedral_coeff	44 at   -2.74660    1.48770   -0.89550    0.56760    0.94500    0.07030  111.27000  104.50000  # c1,c3h,o3e,c3h
dihedral_coeff	45 at   -0.77770    0.43400   -0.66530   -1.82340    1.63930    0.51440  104.50000  108.72800  # c1,o3e,c1,hc
dihedral_coeff	46 at   -0.77770    0.43400   -0.66530   -1.82340    1.63930    0.51440  104.50000  108.72800  # c1,oc,c1,hc
dihedral_coeff	47 at    0.31130    0.45160   -0.19880   -0.24540    0.00000   -0.11360  112.67000  110.77000  # c3h,c,c1,hc
dihedral_coeff	48 at    0.31130    0.45160   -0.19880   -0.24540    0.00000   -0.11360  112.67000  110.77000  # c3h,c1,c1,hc
dihedral_coeff	49 at    0.31130    0.45160   -0.19880   -0.24540    0.00000   -0.11360  112.67000  110.77000  # c3h,c3h,c,hc
dihedral_coeff	50 at    0.31130    0.45160   -0.19880   -0.24540    0.00000   -0.11360  112.67000  110.77000  # c3h,c3h,c1,hc
dihedral_coeff	51 at   -1.82340    1.63930    0.51440   -0.77770    0.43400   -0.66530  104.50000  108.72800  # c3h,o3e,c3h,hc
dihedral_coeff	52 at    0.00000    0.00000    0.00000    0.00000    0.00000    0.00000  109.00000  108.72800  # h,oh,c1,hc
dihedral_coeff	53 at   -0.80850    0.55690   -0.24660   -0.80850    0.55690   -0.24660  110.77000  110.77000  # hc,c,c,hc
dihedral_coeff	54 at   -0.80850    0.55690   -0.24660   -0.80850    0.55690   -0.24660  110.77000  110.77000  # hc,c,c1,hc
dihedral_coeff	55 at    2.36680    2.49200   -1.01220   -0.18920    0.49180    0.72730  110.77000  111.27000  # hc,c,c1,o3e
dihedral_coeff	56 at    2.36680    2.49200   -1.01220   -0.18920    0.49180    0.72730  110.77000  111.27000  # hc,c,c1,oc
dihedral_coeff	57 at   -0.80850    0.55690   -0.24660   -0.80850    0.55690   -0.24660  110.77000  110.77000  # hc,c,c3h,hc
dihedral_coeff	58 at    2.36680    2.49200   -1.01220   -0.18920    0.49180    0.72730  110.77000  111.27000  # hc,c,c3h,o3e
dihedral_coeff	59 at   -0.80850    0.55690   -0.24660   -0.80850    0.55690   -0.24660  110.77000  110.77000  # hc,c1,c1,hc
dihedral_coeff	60 at    2.36680    2.49200   -1.01220   -0.18920    0.49180    0.72730  110.77000  111.27000  # hc,c1,c1,o3e
dihedral_coeff	61 at    2.36680    2.49200   -1.01220   -0.18920    0.49180    0.72730  110.77000  111.27000  # hc,c1,c1,oc
dihedral_coeff	62 at   -0.18920    0.49180    0.72730    2.36680    2.49200   -1.01220  110.77000  111.27000  # hc,c1,c1,oh
dihedral_coeff	63 at   -0.80850    0.55690   -0.24660   -0.80850    0.55690   -0.24660  110.77000  110.77000  # hc,c1,c3h,hc
dihedral_coeff	64 at    2.36680    2.49200   -1.01220   -0.18920    0.49180    0.72730  110.77000  111.27000  # hc,c1,c3h,o3e
dihedral_coeff	65 at   -0.80850    0.55690   -0.24660   -0.80850    0.55690   -0.24660  110.77000  110.77000  # hc,c3h,c3h,hc
dihedral_coeff	66 at    2.36680    2.49200   -1.01220   -0.18920    0.49180    0.72730  110.77000  111.27000  # hc,c3h,c3h,o3e
dihedral_coeff	67 at    0.55110    0.97370   -0.66730    0.55110    0.97370   -0.66730  111.27000  111.27000  # oc,c1,c1,oc
dihedral_coeff	68 at    0.55110    0.97370   -0.66730    0.55110    0.97370   -0.66730  111.27000  111.27000  # oc,c1,c1,oh

# AngleAngleTorsion Coeffs

dihedral_coeff	 1 aat  -22.04500  112.67000  112.67000  # c,c,c1,c1
dihedral_coeff	 2 aat  -16.16400  112.67000  110.77000  # c,c,c1,hc
dihedral_coeff	 3 aat  -29.04200  112.67000  111.27000  # c,c,c1,oc
dihedral_coeff	 4 aat  -22.04500  112.67000  112.67000  # c,c1,c,c1
dihedral_coeff	 5 aat  -16.16400  112.67000  110.77000  # c,c1,c,hc
dihedral_coeff	 6 aat  -22.04500  112.67000  112.67000  # c,c1,c1,c
dihedral_coeff	 7 aat  -22.04500  112.67000  112.67000  # c,c1,c1,c1
dihedral_coeff	 8 aat  -22.04500  112.67000  112.67000  # c,c1,c1,c3h
dihedral_coeff	 9 aat  -16.16400  112.67000  110.77000  # c,c1,c1,hc
dihedral_coeff	10 aat  -29.04200  112.67000  111.27000  # c,c1,c1,o3e
dihedral_coeff	11 aat  -29.04200  112.67000  111.27000  # c,c1,c1,oc
dihedral_coeff	12 aat  -29.04200  112.67000  111.27000  # c,c1,c1,oh
dihedral_coeff	13 aat  -19.00590  111.27000  104.50000  # c,c1,o3e,c1
dihedral_coeff	14 aat  -19.00590  111.27000  104.50000  # c,c1,oc,c1
dihedral_coeff	15 aat  -22.04500  112.67000  112.67000  # c,c3h,c3h,c1
dihedral_coeff	16 aat  -16.16400  112.67000  110.77000  # c,c3h,c3h,hc
dihedral_coeff	17 aat  -29.04200  112.67000  111.27000  # c,c3h,c3h,o3e
dihedral_coeff	18 aat  -19.00590  111.27000  104.50000  # c,c3h,o3e,c3h
dihedral_coeff	19 aat  -22.04500  112.67000  112.67000  # c1,c,c,c1
dihedral_coeff	20 aat  -16.16400  112.67000  110.77000  # c1,c,c,hc
dihedral_coeff	21 aat  -22.04500  112.67000  112.67000  # c1,c,c1,c1
dihedral_coeff	22 aat  -16.16400  112.67000  110.77000  # c1,c,c1,hc
dihedral_coeff	23 aat  -29.04200  112.67000  111.27000  # c1,c,c1,o3e
dihedral_coeff	24 aat  -29.04200  112.67000  111.27000  # c1,c,c1,oc
dihedral_coeff	25 aat  -22.04500  112.67000  112.67000  # c1,c,c3h,c3h
dihedral_coeff	26 aat  -16.16400  112.67000  110.77000  # c1,c,c3h,hc
dihedral_coeff	27 aat  -29.04200  112.67000  111.27000  # c1,c,c3h,o3e
dihedral_coeff	28 aat  -22.04500  112.67000  112.67000  # c1,c1,c,c3h
dihedral_coeff	29 aat  -16.16400  112.67000  110.77000  # c1,c1,c,hc
dihedral_coeff	30 aat  -22.04500  112.67000  112.67000  # c1,c1,c1,c1
dihedral_coeff	31 aat  -22.04500  112.67000  112.67000  # c1,c1,c1,c3h
dihedral_coeff	32 aat  -16.16400  112.67000  110.77000  # c1,c1,c1,hc
dihedral_coeff	33 aat  -29.04200  112.67000  111.27000  # c1,c1,c1,o3e
dihedral_coeff	34 aat  -29.04200  112.67000  111.27000  # c1,c1,c1,oc
dihedral_coeff	35 aat  -29.04200  112.67000  111.27000  # c1,c1,c1,oh
dihedral_coeff	36 aat  -22.04500  112.67000  112.67000  # c1,c1,c3h,c3h
dihedral_coeff	37 aat  -16.16400  112.67000  110.77000  # c1,c1,c3h,hc
dihedral_coeff	38 aat  -29.04200  112.67000  111.27000  # c1,c1,c3h,o3e
dihedral_coeff	39 aat  -19.00590  111.27000  104.50000  # c1,c1,o3e,c1
dihedral_coeff	40 aat  -19.00590  111.27000  104.50000  # c1,c1,oc,c1
dihedral_coeff	41 aat    0.00000  111.27000  109.00000  # c1,c1,oh,h
dihedral_coeff	42 aat  -16.16400  112.67000  110.77000  # c1,c3h,c3h,hc
dihedral_coeff	43 aat  -29.04200  112.67000  111.27000  # c1,c3h,c3h,o3e
dihedral_coeff	44 aat  -19.00590  111.27000  104.50000  # c1,c3h,o3e,c3h
dihedral_coeff	45 aat  -16.44380  104.50000  108.72800  # c1,o3e,c1,hc
dihedral_coeff	46 aat  -16.44380  104.50000  108.72800  # c1,oc,c1,hc
dihedral_coeff	47 aat  -16.16400  112.67000  110.77000  # c3h,c,c1,hc
dihedral_coeff	48 aat  -16.16400  112.67000  110.77000  # c3h,c1,c1,hc
dihedral_coeff	49 aat  -16.16400  112.67000  110.77000  # c3h,c3h,c,hc
dihedral_coeff	50 aat  -16.16400  112.67000  110.77000  # c3h,c3h,c1,hc
dihedral_coeff	51 aat  -16.44380  104.50000  108.72800  # c3h,o3e,c3h,hc
dihedral_coeff	52 aat    0.00000  109.00000  108.72800  # h,oh,c1,hc
dihedral_coeff	53 aat  -12.56400  110.77000  110.77000  # hc,c,c,hc
dihedral_coeff	54 aat  -12.56400  110.77000  110.77000  # hc,c,c1,hc
dihedral_coeff	55 aat  -20.20060  110.77000  111.27000  # hc,c,c1,o3e
dihedral_coeff	56 aat  -20.20060  110.77000  111.27000  # hc,c,c1,oc
dihedral_coeff	57 aat  -12.56400  110.77000  110.77000  # hc,c,c3h,hc
dihedral_coeff	58 aat  -20.20060  110.77000  111.27000  # hc,c,c3h,o3e
dihedral_coeff	59 aat  -12.56400  110.77000  110.77000  # hc,c1,c1,hc
dihedral_coeff	60 aat  -20.20060  110.77000  111.27000  # hc,c1,c1,o3e
dihedral_coeff	61 aat  -20.20060  110.77000  111.27000  # hc,c1,c1,oc
dihedral_coeff	62 aat  -20.20060  110.77000  111.27000  # hc,c1,c1,oh
dihedral_coeff	63 aat  -12.56400  110.77000  110.77000  # hc,c1,c3h,hc
dihedral_coeff	64 aat  -20.20060  110.77000  111.27000  # hc,c1,c3h,o3e
dihedral_coeff	65 aat  -12.56400  110.77000  110.77000  # hc,c3h,c3h,hc
dihedral_coeff	66 aat  -20.20060  110.77000  111.27000  # hc,c3h,c3h,o3e
dihedral_coeff	67 aat  -14.04840  111.27000  111.27000  # oc,c1,c1,oc
dihedral_coeff	68 aat  -14.04840  111.27000  111.27000  # oc,c1,c1,oh

# BondBond13 Coeffs

dihedral_coeff	 1 bb13    0.00000    1.53000    1.53000  # c,c,c1,c1
dihedral_coeff	 2 bb13    0.00000    1.53000    1.10100  # c,c,c1,hc
dihedral_coeff	 3 bb13    0.00000    1.53000    1.42000  # c,c,c1,oc
dihedral_coeff	 4 bb13    0.00000    1.53000    1.53000  # c,c1,c,c1
dihedral_coeff	 5 bb13    0.00000    1.53000    1.10100  # c,c1,c,hc
dihedral_coeff	 6 bb13    0.00000    1.53000    1.53000  # c,c1,c1,c
dihedral_coeff	 7 bb13    0.00000    1.53000    1.53000  # c,c1,c1,c1
dihedral_coeff	 8 bb13    0.00000    1.53000    1.53000  # c,c1,c1,c3h
dihedral_coeff	 9 bb13    0.00000    1.53000    1.10100  # c,c1,c1,hc
dihedral_coeff	10 bb13    0.00000    1.53000    1.42000  # c,c1,c1,o3e
dihedral_coeff	11 bb13    0.00000    1.53000    1.42000  # c,c1,c1,oc
dihedral_coeff	12 bb13    0.00000    1.53000    1.42000  # c,c1,c1,oh
dihedral_coeff	13 bb13    0.00000    1.53000    1.42000  # c,c1,o3e,c1
dihedral_coeff	14 bb13    0.00000    1.53000    1.42000  # c,c1,oc,c1
dihedral_coeff	15 bb13    0.00000    1.53000    1.53000  # c,c3h,c3h,c1
dihedral_coeff	16 bb13    0.00000    1.53000    1.10100  # c,c3h,c3h,hc
dihedral_coeff	17 bb13    0.00000    1.53000    1.42000  # c,c3h,c3h,o3e
dihedral_coeff	18 bb13    0.00000    1.53000    1.42000  # c,c3h,o3e,c3h
dihedral_coeff	19 bb13    0.00000    1.53000    1.53000  # c1,c,c,c1
dihedral_coeff	20 bb13    0.00000    1.53000    1.10100  # c1,c,c,hc
dihedral_coeff	21 bb13    0.00000    1.53000    1.53000  # c1,c,c1,c1
dihedral_coeff	22 bb13    0.00000    1.53000    1.10100  # c1,c,c1,hc
dihedral_coeff	23 bb13    0.00000    1.53000    1.42000  # c1,c,c1,o3e
dihedral_coeff	24 bb13    0.00000    1.53000    1.42000  # c1,c,c1,oc
dihedral_coeff	25 bb13    0.00000    1.53000    1.53000  # c1,c,c3h,c3h
dihedral_coeff	26 bb13    0.00000    1.53000    1.10100  # c1,c,c3h,hc
dihedral_coeff	27 bb13    0.00000    1.53000    1.42000  # c1,c,c3h,o3e
dihedral_coeff	28 bb13    0.00000    1.53000    1.53000  # c1,c1,c,c3h
dihedral_coeff	29 bb13    0.00000    1.53000    1.10100  # c1,c1,c,hc
dihedral_coeff	30 bb13    0.00000    1.53000    1.53000  # c1,c1,c1,c1
dihedral_coeff	31 bb13    0.00000    1.53000    1.53000  # c1,c1,c1,c3h
dihedral_coeff	32 bb13    0.00000    1.53000    1.10100  # c1,c1,c1,hc
dihedral_coeff	33 bb13    0.00000    1.53000    1.42000  # c1,c1,c1,o3e
dihedral_coeff	34 bb13    0.00000    1.53000    1.42000  # c1,c1,c1,oc
dihedral_coeff	35 bb13    0.00000    1.53000    1.42000  # c1,c1,c1,oh
dihedral_coeff	36 bb13    0.00000    1.53000    1.53000  # c1,c1,c3h,c3h
dihedral_coeff	37 bb13    0.00000    1.53000    1.10100  # c1,c1,c3h,hc
dihedral_coeff	38 bb13    0.00000    1.53000    1.42000  # c1,c1,c3h,o3e
dihedral_coeff	39 bb13    0.00000    1.53000    1.42000  # c1,c1,o3e,c1
dihedral_coeff	40 bb13    0.00000    1.53000    1.42000  # c1,c1,oc,c1
dihedral_coeff	41 bb13    0.00000    1.53000    0.96000  # c1,c1,oh,h
dihedral_coeff	42 bb13    0.00000    1.53000    1.10100  # c1,c3h,c3h,hc
dihedral_coeff	43 bb13    0.00000    1.53000    1.42000  # c1,c3h,c3h,o3e
dihedral_coeff	44 bb13    0.00000    1.53000    1.42000  # c1,c3h,o3e,c3h
dihedral_coeff	45 bb13    0.00000    1.42000    1.10100  # c1,o3e,c1,hc
dihedral_coeff	46 bb13    0.00000    1.42000    1.10100  # c1,oc,c1,hc
dihedral_coeff	47 bb13    0.00000    1.53000    1.10100  # c3h,c,c1,hc
dihedral_coeff	48 bb13    0.00000    1.53000    1.10100  # c3h,c1,c1,hc
dihedral_coeff	49 bb13    0.00000    1.53000    1.10100  # c3h,c3h,c,hc
dihedral_coeff	50 bb13    0.00000    1.53000    1.10100  # c3h,c3h,c1,hc
dihedral_coeff	51 bb13    0.00000    1.42000    1.10100  # c3h,o3e,c3h,hc
dihedral_coeff	52 bb13    0.00000    0.96000    1.10100  # h,oh,c1,hc
dihedral_coeff	53 bb13    0.00000    1.10100    1.10100  # hc,c,c,hc
dihedral_coeff	54 bb13    0.00000    1.10100    1.10100  # hc,c,c1,hc
dihedral_coeff	55 bb13    0.00000    1.10100    1.42000  # hc,c,c1,o3e
dihedral_coeff	56 bb13    0.00000    1.10100    1.42000  # hc,c,c1,oc
dihedral_coeff	57 bb13    0.00000    1.10100    1.10100  # hc,c,c3h,hc
dihedral_coeff	58 bb13    0.00000    1.10100    1.42000  # hc,c,c3h,o3e
dihedral_coeff	59 bb13    0.00000    1.10100    1.10100  # hc,c1,c1,hc
dihedral_coeff	60 bb13    0.00000    1.10100    1.42000  # hc,c1,c1,o3e
dihedral_coeff	61 bb13    0.00000    1.10100    1.42000  # hc,c1,c1,oc
dihedral_coeff	62 bb13    0.00000    1.10100    1.42000  # hc,c1,c1,oh
dihedral_coeff	63 bb13    0.00000    1.10100    1.10100  # hc,c1,c3h,hc
dihedral_coeff	64 bb13    0.00000    1.10100    1.42000  # hc,c1,c3h,o3e
dihedral_coeff	65 bb13    0.00000    1.10100    1.10100  # hc,c3h,c3h,hc
dihedral_coeff	66 bb13    0.00000    1.10100    1.42000  # hc,c3h,c3h,o3e
dihedral_coeff	67 bb13    0.00000    1.42000    1.42000  # oc,c1,c1,oc
dihedral_coeff	68 bb13    0.00000    1.42000    1.42000  # oc,c1,c1,oh

# Improper Coeffs

improper_coeff	 1    0.00000    0.00000  # c,c,c1,hc
improper_coeff	 2    0.00000    0.00000  # c,c,hc,c1
improper_coeff	 3    0.00000    0.00000  # c,c,hc,hc
improper_coeff	 4    0.00000    0.00000  # c,c1,c1,hc
improper_coeff	 5    0.00000    0.00000  # c,c1,hc,c3h
improper_coeff	 6    0.00000    0.00000  # c,c1,hc,hc
improper_coeff	 7    0.00000    0.00000  # c,c3h,hc,hc
improper_coeff	 8    0.00000    0.00000  # c1,c,c,c1
improper_coeff	 9    0.00000    0.00000  # c1,c,c,hc
improper_coeff	10    0.00000    0.00000  # c1,c,c1,c1
improper_coeff	11    0.00000    0.00000  # c1,c,c1,hc
improper_coeff	12    0.00000    0.00000  # c1,c,c1,oc
improper_coeff	13    0.00000    0.00000  # c1,c,hc,c1
improper_coeff	14    0.00000    0.00000  # c1,c,hc,oc
improper_coeff	15    0.00000    0.00000  # c1,c,o3e,c1
improper_coeff	16    0.00000    0.00000  # c1,c,o3e,hc
improper_coeff	17    0.00000    0.00000  # c1,c,oc,c1
improper_coeff	18    0.00000    0.00000  # c1,c,oc,hc
improper_coeff	19    0.00000    0.00000  # c1,c1,c1,c1
improper_coeff	20    0.00000    0.00000  # c1,c1,c1,c3h
improper_coeff	21    0.00000    0.00000  # c1,c1,c1,hc
improper_coeff	22    0.00000    0.00000  # c1,c1,c1,o3e
improper_coeff	23    0.00000    0.00000  # c1,c1,c1,oc
improper_coeff	24    0.00000    0.00000  # c1,c1,c1,oh
improper_coeff	25    0.00000    0.00000  # c1,c1,c3h,hc
improper_coeff	26    0.00000    0.00000  # c1,c1,hc,c3h
improper_coeff	27    0.00000    0.00000  # c1,c1,hc,o3e
improper_coeff	28    0.00000    0.00000  # c1,c1,hc,oc
improper_coeff	29    0.00000    0.00000  # c1,c1,hc,oh
improper_coeff	30    0.00000    0.00000  # c1,c1,o3e,hc
improper_coeff	31    0.00000    0.00000  # c1,c1,oc,hc
improper_coeff	32    0.00000    0.00000  # c3h,c,hc,c3h
improper_coeff	33    0.00000    0.00000  # c3h,c,o3e,c3h
improper_coeff	34    0.00000    0.00000  # c3h,c,o3e,hc
improper_coeff	35    0.00000    0.00000  # c3h,c1,c3h,hc
improper_coeff	36    0.00000    0.00000  # c3h,c1,c3h,o3e
improper_coeff	37    0.00000    0.00000  # c3h,c1,o3e,hc
improper_coeff	38    0.00000    0.00000  # c3h,c3h,o3e,hc

# AngleAngle Coeffs

improper_coeff	 1 aa    0.00000   -1.31990    0.00000  112.67000  110.77000  110.77000  # c,c,c1,hc
improper_coeff	 2 aa    0.00000   -1.31990    0.00000  110.77000  112.67000  110.77000  # c,c,hc,c1
improper_coeff	 3 aa    0.00000   -0.48250    0.00000  110.77000  110.77000  107.66000  # c,c,hc,hc
improper_coeff	 4 aa   -1.31990   -1.31990    0.11840  112.67000  110.77000  110.77000  # c,c1,c1,hc
improper_coeff	 5 aa    0.11840    0.00000   -1.31990  110.77000  112.67000  110.77000  # c,c1,hc,c3h
improper_coeff	 6 aa    0.27380   -0.48250    0.27380  110.77000  110.77000  107.66000  # c,c1,hc,hc
improper_coeff	 7 aa    0.00000   -0.48250    0.00000  110.77000  110.77000  107.66000  # c,c3h,hc,hc
improper_coeff	 8 aa    0.00000    0.00000   -0.17290  112.67000  112.67000  112.67000  # c1,c,c,c1
improper_coeff	 9 aa    0.00000    0.00000    0.11840  112.67000  110.77000  110.77000  # c1,c,c,hc
improper_coeff	10 aa    0.00000   -0.17290    0.00000  112.67000  112.67000  112.67000  # c1,c,c1,c1
improper_coeff	11 aa    0.00000   -1.31990    0.00000  112.67000  110.77000  110.77000  # c1,c,c1,hc
improper_coeff	12 aa    0.00000   -0.83300    0.00000  112.67000  111.27000  111.27000  # c1,c,c1,oc
improper_coeff	13 aa    0.00000   -1.31990    0.00000  110.77000  112.67000  110.77000  # c1,c,hc,c1
improper_coeff	14 aa    0.00000    2.59260    0.00000  110.77000  111.27000  108.72800  # c1,c,hc,oc
improper_coeff	15 aa    0.00000   -0.83300   -0.83300  111.27000  112.67000  111.27000  # c1,c,o3e,c1
improper_coeff	16 aa    0.00000    2.59260    3.91770  111.27000  110.77000  108.72800  # c1,c,o3e,hc
improper_coeff	17 aa    0.00000   -0.83300    0.00000  111.27000  112.67000  111.27000  # c1,c,oc,c1
improper_coeff	18 aa    0.00000    2.59260    0.00000  111.27000  110.77000  108.72800  # c1,c,oc,hc
improper_coeff	19 aa   -0.17290   -0.17290   -0.17290  112.67000  112.67000  112.67000  # c1,c1,c1,c1
improper_coeff	20 aa   -0.17290   -0.17290   -0.17290  112.67000  112.67000  112.67000  # c1,c1,c1,c3h
improper_coeff	21 aa   -1.31990   -1.31990    0.11840  112.67000  110.77000  110.77000  # c1,c1,c1,hc
improper_coeff	22 aa   -0.83300   -0.83300   -3.57440  112.67000  111.27000  111.27000  # c1,c1,c1,o3e
improper_coeff	23 aa   -0.83300   -0.83300   -3.57440  112.67000  111.27000  111.27000  # c1,c1,c1,oc
improper_coeff	24 aa    0.00000    0.00000   -3.57440  112.67000  111.27000  111.27000  # c1,c1,c1,oh
improper_coeff	25 aa   -1.31990    0.00000    0.11840  112.67000  110.77000  110.77000  # c1,c1,c3h,hc
improper_coeff	26 aa    0.11840    0.00000   -1.31990  110.77000  112.67000  110.77000  # c1,c1,hc,c3h
improper_coeff	27 aa    3.91770    2.59260    0.16890  110.77000  111.27000  108.72800  # c1,c1,hc,o3e
improper_coeff	28 aa    3.91770    2.59260    0.16890  110.77000  111.27000  108.72800  # c1,c1,hc,oc
improper_coeff	29 aa    0.00000    0.00000    0.16890  110.77000  111.27000  108.72800  # c1,c1,hc,oh
improper_coeff	30 aa    0.16890    2.59260    3.91770  111.27000  110.77000  108.72800  # c1,c1,o3e,hc
improper_coeff	31 aa    0.16890    2.59260    3.91770  111.27000  110.77000  108.72800  # c1,c1,oc,hc
improper_coeff	32 aa    0.11840    0.00000    0.00000  110.77000  112.67000  110.77000  # c3h,c,hc,c3h
improper_coeff	33 aa   -3.57440    0.00000   -0.83300  111.27000  112.67000  111.27000  # c3h,c,o3e,c3h
improper_coeff	34 aa    0.00000    2.59260    3.91770  111.27000  110.77000  108.72800  # c3h,c,o3e,hc
improper_coeff	35 aa   -1.31990    0.00000    0.11840  112.67000  110.77000  110.77000  # c3h,c1,c3h,hc
improper_coeff	36 aa   -0.83300    0.00000   -3.57440  112.67000  111.27000  111.27000  # c3h,c1,c3h,o3e
improper_coeff	37 aa    0.16890    2.59260    3.91770  111.27000  110.77000  108.72800  # c3h,c1,o3e,hc
improper_coeff	38 aa    0.00000    2.59260    0.00000  111.27000  110.77000  108.72800  # c3h,c3h,o3e,hc

# ------------------------------- OPT Section -------------------------------
minimize 1.0e-5 1.0e-7 100000 400000
Generated 28 of 28 mixed pair_coeff terms from sixthpower/geometric mixing rule
Neighbor list info ...
  update: every = 1 steps, delay = 0 steps, check = yes
  max neighbors/atom: 2000, page size: 100000
  master list distance cutoff = 12
  ghost atom cutoff = 12
  binsize = 6, bins = 4 4 4
  1 neighbor lists, perpetual/occasional/extra = 1 0 0
  (1) pair lj/class2/coul/cut, perpetual
      attributes: half, newton on
      pair build: half/bin/newton
      stencil: half/bin/3d
      bin: standard
Per MPI rank memory allocation (min/avg/max) = 28.84 | 29.06 | 29.49 Mbytes
   Step          Temp          E_pair         E_mol          TotEng         Press     
         0   0             -14.056648      753.53711      739.48046     -3120.1522    
        28   0             -3.9775431      652.98119      649.00364      41.234785    
Loop time of 0.015391 on 6 procs for 28 steps with 74 atoms

90.8% CPU use with 6 MPI tasks x no OpenMP threads

Minimization stats:
  Stopping criterion = linesearch alpha is zero
  Energy initial, next-to-last, final = 
      739.480463885448   649.003643404928   649.003643404928
  Force two-norm initial, final = 296.60572 138.64492
  Force max component initial, final = 70.301709 99.649067
  Final line search alpha, max atom move = 7.2953977e-13 7.2697957e-11
  Iterations, force evaluations = 28 148

MPI task timing breakdown:
Section |  min time  |  avg time  |  max time  |%varavg| %total
---------------------------------------------------------------
Pair    | 9.0379e-05 | 0.00062115 | 0.0021365  |   0.0 |  4.04
Bond    | 0.00055054 | 0.0039296  | 0.0085049  |   4.7 | 25.53
Neigh   | 0          | 0          | 0          |   0.0 |  0.00
Comm    | 0.0034517  | 0.0094392  | 0.013641   |   3.6 | 61.33
Output  | 0          | 0          | 0          |   0.0 |  0.00
Modify  | 0          | 0          | 0          |   0.0 |  0.00
Other   |            | 0.001401   |            |       |  9.10

Nlocal:        12.3333 ave          29 max           2 min
Histogram: 2 0 2 0 0 0 1 0 0 1
Nghost:        399.333 ave         491 max         323 min
Histogram: 1 1 1 0 1 0 0 1 0 1
Neighs:        281.333 ave         804 max          42 min
Histogram: 3 0 0 1 1 0 0 0 0 1

Total # of neighbors = 1688
Ave neighs/atom = 22.810811
Ave special neighs/atom = 13.972973
Neighbor list builds = 0
Dangerous builds = 0
# ------------------------------- Run Section -------------------------------
#

thermo_style custom step temp pe evdwl ecoul ebond eangle edihed eimp density vol
thermo          100

fix Langevin  all langevin 300 300 100.0 482432
fix moveLimit all nve/limit 0.1
run 20000
Generated 28 of 28 mixed pair_coeff terms from sixthpower/geometric mixing rule
Per MPI rank memory allocation (min/avg/max) = 27.72 | 27.94 | 28.37 Mbytes
   Step          Temp          PotEng         E_vdwl         E_coul         E_bond        E_angle        E_dihed        E_impro        Density         Volume    
        28   0              649.00364      11.949787     -15.92733       26.608199      719.155       -90.845671     -1.9363432      0.099999998    8213.5863    
       100   353.96778      572.11555      6.0296913     -18.117212      33.945647      723.08353     -168.21075     -4.6153594      0.099999998    8213.5863    
       200   287.63623      565.53657     -1.6605813     -18.302334      32.364718      686.73266     -129.45188     -4.146016       0.099999998    8213.5863    
       300   367.63428      570.86287      2.2482936     -16.034764      35.867753      685.88531     -131.8864      -5.2173168      0.099999998    8213.5863    
       400   309.62102      561.33508      4.9394237     -20.653733      32.869457      684.67538     -135.63757     -4.8578761      0.099999998    8213.5863    
       500   290.73456      559.36372      2.993303      -21.725969      34.747082      676.57433     -129.78979     -3.4352361      0.099999998    8213.5863    
       600   288.37495      560.39209      3.2988827     -23.935036      32.221605      686.98941     -133.40183     -4.7809448      0.099999998    8213.5863    
       700   322.9094       564.25243      2.9646279     -20.05367       35.848783      677.25147     -128.36809     -3.3906911      0.099999998    8213.5863    
       800   354.23564      562.84996     -1.3326932     -21.293624      45.191536      671.19152     -127.45613     -3.4506453      0.099999998    8213.5863    
       900   307.77415      556.9836       2.8252578     -22.954894      36.45826       690.4255      -145.82654     -3.9439868      0.099999998    8213.5863    
      1000   347.92287      555.44698     -0.87643353    -19.871216      31.99879       691.22074     -142.06473     -4.9601687      0.099999998    8213.5863    
      1100   310.87548      569.0916       2.9833579     -18.508374      40.723802      685.03632     -135.27161     -5.8718947      0.099999998    8213.5863    
      1200   253.24673      564.45637      1.4344056     -21.909354      43.070772      688.44347     -142.30961     -4.273306       0.099999998    8213.5863    
      1300   311.2919       561.92347      1.4644517     -18.473677      40.629306      666.68396     -125.04897     -3.3315978      0.099999998    8213.5863    
      1400   322.75083      562.35923     -0.84204757    -21.163379      30.420754      687.86942     -129.01093     -4.9145842      0.099999998    8213.5863    
      1500   280.22293      575.9962       2.872691      -19.52082       40.988235      707.95811     -149.95165     -6.3503664      0.099999998    8213.5863    
      1600   302.47725      567.42758     -0.25339312    -13.294316      39.14247       682.35862     -137.09277     -3.4330315      0.099999998    8213.5863    
      1700   338.39344      565.89917      3.5326776     -18.52833       36.868583      673.39278     -127.29605     -2.0704914      0.099999998    8213.5863    
      1800   312.26709      567.21179      4.6930874     -19.151342      34.776706      672.57399     -121.67884     -4.0018104      0.099999998    8213.5863    
      1900   310.417        562.66053      2.8430898     -19.09317       36.487354      671.24022     -125.36459     -3.4523699      0.099999998    8213.5863    
      2000   255.59699      560.204        4.1760703     -21.110115      32.104254      689.73045     -139.0142      -5.6824651      0.099999998    8213.5863    
      2100   270.59317      572.04043      6.346909      -19.670253      45.39959       690.59769     -146.63862     -3.99488        0.099999998    8213.5863    
      2200   251.84532      557.79084      0.99760937    -24.219045      34.609358      673.44983     -124.14692     -2.8999925      0.099999998    8213.5863    
      2300   282.24877      553.65302      1.729788      -18.188865      31.760594      674.30718     -132.93489     -3.0207869      0.099999998    8213.5863    
      2400   321.33791      566.19821      2.7200837     -20.519795      31.821507      667.52632     -113.48705     -1.8628557      0.099999998    8213.5863    
      2500   302.17378      570.79256      7.3775108     -21.453768      43.503931      704.63135     -158.5789      -4.6875575      0.099999998    8213.5863    
      2600   282.17478      555.20275      1.5107746     -21.845095      36.248709      676.70723     -134.03248     -3.3863928      0.099999998    8213.5863    
      2700   278.54609      561.71354     -0.46409176    -24.547448      40.625977      698.25936     -147.93229     -4.2279683      0.099999998    8213.5863    
      2800   275.2523       554.62138      0.71767925    -24.276764      38.150055      661.09633     -117.34926     -3.7166537      0.099999998    8213.5863    
      2900   273.41949      553.53467      2.953044      -22.034881      39.438445      684.1266      -145.24731     -5.7012246      0.099999998    8213.5863    
      3000   300.00478      561.73829      1.0799691     -21.905468      36.163132      666.98978     -116.9834      -3.6057207      0.099999998    8213.5863    
      3100   329.99317      552.81374     -1.8589714     -24.643853      38.503174      687.31871     -141.96533     -4.5399899      0.099999998    8213.5863    
      3200   287.34937      568.84138      3.5884121     -23.433557      44.318229      689.56075     -140.78495     -4.4075034      0.099999998    8213.5863    
      3300   289.87453      570.61979      5.7906457     -21.743209      39.506947      691.64548     -140.50127     -4.0788066      0.099999998    8213.5863    
      3400   340.84929      570.93173      0.87904261    -20.158876      45.110466      685.17085     -135.81079     -4.2589576      0.099999998    8213.5863    
      3500   284.26485      578.75343     -1.1484311     -14.506658      42.257764      695.54678     -139.5652      -3.830828       0.099999998    8213.5863    
      3600   324.63419      562.77696     -0.27578786    -20.049185      36.064349      690.63148     -140.47361     -3.1202853      0.099999998    8213.5863    
      3700   277.90925      557.92037      0.029113955   -21.480064      35.299607      669.95955     -123.07281     -2.8150268      0.099999998    8213.5863    
      3800   267.25727      555.40264     -0.64208433    -19.190335      35.839031      678.75391     -135.59619     -3.761688       0.099999998    8213.5863    
      3900   271.43002      554.40262      1.5751571     -22.368972      37.251441      675.97209     -135.34668     -2.6804038      0.099999998    8213.5863    
      4000   270.46969      569.16743      0.25249594    -15.951993      35.041244      681.50874     -128.31931     -3.3637501      0.099999998    8213.5863    
      4100   285.57009      558.8131       3.8501842     -21.373937      35.866808      686.55361     -141.44855     -4.6350174      0.099999998    8213.5863    
      4200   292.16767      570.71837      4.9072273     -14.860537      42.751514      679.46004     -137.2388      -4.3010636      0.099999998    8213.5863    
      4300   310.81633      562.86209      1.8437177     -18.882286      37.895         677.7271      -132.5102      -3.2112355      0.099999998    8213.5863    
      4400   312.03047      566.99983      1.953064      -18.262944      40.733803      670.87223     -124.83206     -3.4642595      0.099999998    8213.5863    
      4500   311.91662      569.71977     -1.5236545     -16.859417      32.929148      684.54249     -124.89965     -4.4691448      0.099999998    8213.5863    
      4600   361.97011      568.54902      0.38727963    -21.192088      34.375187      688.39651     -130.78065     -2.6372275      0.099999998    8213.5863    
      4700   323.65067      567.13096     -0.17104934    -21.261046      42.909419      667.06044     -118.85484     -2.5519606      0.099999998    8213.5863    
      4800   313.97733      572.06635      2.4073222     -19.622922      45.077162      691.69023     -144.16785     -3.3175904      0.099999998    8213.5863    
      4900   272.12304      576.7168      -0.38369778    -14.748085      42.437963      674.5316      -122.21902     -2.9019601      0.099999998    8213.5863    
      5000   303.21293      575.00208      1.4451083     -16.689784      48.107557      688.30264     -141.22434     -4.9390993      0.099999998    8213.5863    
      5100   310.549        563.7903       2.6030855     -25.933396      38.501149      693.9708      -139.09272     -6.258621       0.099999998    8213.5863    
      5200   304.27022      570.48643     -0.4190848     -21.315703      41.630794      684.36047     -129.21956     -4.5504863      0.099999998    8213.5863    
      5300   302.91406      570.84803     -0.67416552    -19.364813      39.80045       688.92082     -135.03009     -2.8041802      0.099999998    8213.5863    
      5400   307.41905      556.27709     -1.1930725     -21.333187      33.365275      683.94016     -133.96088     -4.5412095      0.099999998    8213.5863    
      5500   256.75238      558.31667      2.7415002     -20.144123      34.4138        690.05306     -142.98155     -5.7660136      0.099999998    8213.5863    
      5600   331.90635      560.47148      1.2393311     -21.297186      32.83322       682.6748      -131.83827     -3.1404227      0.099999998    8213.5863    
      5700   357.54287      560.4433       0.95299905    -25.243152      41.761687      677.22877     -130.97822     -3.2787825      0.099999998    8213.5863    
      5800   344.80382      561.40185      1.738075      -22.546398      31.836122      675.12582     -123.10007     -1.6517049      0.099999998    8213.5863    
      5900   271.84262      568.13674     -0.50421017    -19.569876      38.928939      670.89534     -117.23159     -4.3818637      0.099999998    8213.5863    
      6000   300.93957      559.73157     -2.7549131     -16.42897       33.590366      676.98784     -127.97034     -3.6924235      0.099999998    8213.5863    
      6100   287.6673       564.35672      0.5353811     -15.527798      31.916563      684.76017     -131.3515      -5.9760946      0.099999998    8213.5863    
      6200   260.9766       564.77649      1.5646155     -19.844217      33.909143      695.50189     -142.41355     -3.9413968      0.099999998    8213.5863    
      6300   271.71757      573.35762      2.2264498     -20.617851      38.044444      688.67927     -131.06792     -3.9067748      0.099999998    8213.5863    
      6400   321.62735      568.74779     -0.42434721    -16.653429      50.053159      677.94285     -138.59659     -3.5738486      0.099999998    8213.5863    
      6500   269.36467      564.38251     -1.135179      -20.824327      29.039188      681.76734     -121.76922     -2.6952944      0.099999998    8213.5863    
      6600   310.22505      561.39803     -0.12149329    -18.951433      25.311134      678.66893     -120.90468     -2.6044284      0.099999998    8213.5863    
      6700   260.11408      578.45792      3.7233206     -18.87711       37.245679      694.70155     -133.76632     -4.5692023      0.099999998    8213.5863    
      6800   344.52413      564.592        4.8082369     -19.136227      46.22184       699.32662     -161.32981     -5.2986473      0.099999998    8213.5863    
      6900   364.61065      599.17692      1.1377079     -16.585885      51.013421      694.07721     -128.06962     -2.3959166      0.099999998    8213.5863    
      7000   334.10392      576.60242      4.7405156     -23.578952      47.876779      689.00349     -136.63154     -4.807865       0.099999998    8213.5863    
      7100   353.81686      572.00092      3.631523      -16.328416      33.836131      689.23597     -135.11161     -3.2626724      0.099999998    8213.5863    
      7200   358.45859      579.38524      7.0931272     -14.935097      45.617531      666.72163     -122.93796     -2.1739956      0.099999998    8213.5863    
      7300   327.7255       558.80716      1.6288147     -25.860665      35.649564      682.93193     -130.44595     -5.0965341      0.099999998    8213.5863    
      7400   258.98074      567.16157     -0.67580852    -20.683381      32.966509      698.04837     -138.85546     -3.6386554      0.099999998    8213.5863    
      7500   314.15614      563.75486     -2.0461018     -20.150337      36.186063      671.39746     -117.51199     -4.1202266      0.099999998    8213.5863    
      7600   315.94571      568.42059     -0.56768175    -18.891851      44.785229      683.57        -136.53423     -3.940867       0.099999998    8213.5863    
      7700   314.47009      566.2605       0.35056666    -19.605034      43.459387      688.37491     -141.38725     -4.9320865      0.099999998    8213.5863    
      7800   290.98523      559.47374      0.81927778    -22.255556      34.320745      683.13368     -132.12741     -4.4169995      0.099999998    8213.5863    
      7900   274.64538      566.02636     -0.94813645    -19.76788       43.70816       676.18954     -131.02055     -2.13477        0.099999998    8213.5863    
      8000   289.73485      563.70606      1.5651174     -24.269341      39.162838      681.47042     -129.36489     -4.8580922      0.099999998    8213.5863    
      8100   275.40948      556.03677      0.53383114    -24.519198      36.468574      681.82167     -135.20628     -3.0618194      0.099999998    8213.5863    
      8200   316.72828      558.62125     -1.5350233     -19.707234      45.911055      681.13474     -142.28386     -4.89843        0.099999998    8213.5863    
      8300   318.92848      567.62918      4.0139065     -26.530209      36.702363      714.57148     -154.39962     -6.7287346      0.099999998    8213.5863    
      8400   295.77828      555.75765      0.59357823    -23.330942      34.495314      694.12328     -145.57079     -4.5527815      0.099999998    8213.5863    
      8500   294.76673      557.21961     -1.1069811     -26.990569      33.479971      678.66184     -123.34971     -3.4749435      0.099999998    8213.5863    
      8600   303.87405      564.05588      0.91828471    -19.600261      36.830372      677.22009     -126.99053     -4.3220666      0.099999998    8213.5863    
      8700   263.22693      561.07313      2.1805313     -22.348487      43.350312      676.86071     -134.90599     -4.0639525      0.099999998    8213.5863    
      8800   288.68662      563.27027     -1.4643187     -21.031628      30.626705      680.41521     -123.15354     -2.1221538      0.099999998    8213.5863    
      8900   334.54738      565.39304     -1.3970343     -26.630245      33.939919      705.11247     -141.63308     -3.9989876      0.099999998    8213.5863    
      9000   293.95153      559.37881      2.0700011     -26.967536      45.750932      679.45666     -134.72759     -6.2036575      0.099999998    8213.5863    
      9100   277.3518       558.43154      2.1399965     -26.434915      38.758147      687.38215     -139.62147     -3.7923571      0.099999998    8213.5863    
      9200   304.24745      565.03371      3.1575384     -22.030486      38.898162      701.63737     -151.70466     -4.9242088      0.099999998    8213.5863    
      9300   296.50979      551.60728      2.2330692     -25.109976      42.667552      687.05782     -150.94975     -4.291429       0.099999998    8213.5863    
      9400   313.68405      560.97594      2.4061928     -24.812427      38.21239       688.67392     -139.1846      -4.3195381      0.099999998    8213.5863    
      9500   290.85095      559.88841      1.1655391     -24.15092       38.753328      671.04021     -123.45377     -3.4659868      0.099999998    8213.5863    
      9600   276.16194      572.74991     -0.0061265665  -22.235936      47.546637      685.36975     -133.97536     -3.9490669      0.099999998    8213.5863    
      9700   280.12902      561.5923       1.3644365     -23.060083      36.064815      669.67732     -118.00724     -4.4469487      0.099999998    8213.5863    
      9800   301.73839      562.23912     -0.52527013    -24.223906      37.06855       688.57303     -134.95026     -3.7030173      0.099999998    8213.5863    
      9900   354.49796      556.41683      3.4686522     -25.863368      41.842026      674.68721     -132.48761     -5.2300798      0.099999998    8213.5863    
     10000   315.13545      562.80382      2.3377126     -25.786869      38.749317      677.34061     -126.7869      -3.0500557      0.099999998    8213.5863    
     10100   291.65623      556.79519     -2.4259442     -23.490786      36.322305      699.59526     -148.55446     -4.6511938      0.099999998    8213.5863    
     10200   305.07059      562.02292      1.9761526     -21.303743      37.84796       692.73297     -145.56366     -3.6667665      0.099999998    8213.5863    
     10300   276.77072      563.96229      1.6822395     -19.055193      37.101103      677.35651     -128.24113     -4.8812455      0.099999998    8213.5863    
     10400   279.43402      559.48225      2.8167423     -23.372077      44.218267      686.24219     -146.65393     -3.7689426      0.099999998    8213.5863    
     10500   310.17941      568.32552      3.793628      -21.019781      37.090687      681.40011     -130.46358     -2.4755493      0.099999998    8213.5863    
     10600   311.98337      557.01374     -1.2544349     -20.128974      40.869812      667.87669     -127.54836     -2.8009962      0.099999998    8213.5863    
     10700   289.22458      571.04174     -0.55990993    -15.586454      36.059796      678.0764      -123.73869     -3.2094078      0.099999998    8213.5863    
     10800   340.43397      555.30646     -2.1609169     -18.513422      33.498708      676.86112     -132.22296     -2.1560658      0.099999998    8213.5863    
     10900   278.28257      558.12885      2.4908953     -19.196426      41.155642      679.5222      -142.65301     -3.1904563      0.099999998    8213.5863    
     11000   285.78316      571.48764      5.4825469     -21.99858       49.345482      676.87088     -135.5462      -2.6664898      0.099999998    8213.5863    
     11100   304.25308      557.11399      6.4025052     -22.670451      31.268429      711.36388     -164.07147     -5.1789057      0.099999998    8213.5863    
     11200   281.08554      555.42731      5.4993704     -25.295955      43.54121       707.12007     -171.14015     -4.2972356      0.099999998    8213.5863    
     11300   307.30194      557.67957      6.5130218     -24.456611      32.334837      706.52986     -158.8734      -4.3681393      0.099999998    8213.5863    
     11400   424.47851      593.68317      0.73673004    -22.772103      62.926352      715.16081     -158.31259     -4.0560361      0.099999998    8213.5863    
     11500   332.18797      583.53069      10.603578     -21.411093      50.539817      693.49701     -146.02652     -3.6721106      0.099999998    8213.5863    
     11600   311.62999      572.05461     -1.5316628     -22.188352      43.815756      685.72871     -129.55201     -4.2178362      0.099999998    8213.5863    
     11700   280.48946      572.46279      0.28245547    -20.373117      39.881486      698.37418     -140.74465     -4.9575601      0.099999998    8213.5863    
     11800   285.96183      551.22312     -0.90434741    -23.52121       37.932765      671.34886     -131.42318     -2.2097668      0.099999998    8213.5863    
     11900   293.85062      562.01823      0.16607713    -21.636077      34.296032      677.9525      -126.12541     -2.6349022      0.099999998    8213.5863    
     12000   331.51403      560.06542     -0.26680954    -24.979999      43.691887      672.64627     -129.01028     -2.0156436      0.099999998    8213.5863    
     12100   251.88002      571.49071     -1.454427      -25.391528      46.916918      686.12789     -131.41389     -3.2942585      0.099999998    8213.5863    
     12200   261.25982      557.78579      0.81518377    -25.416486      48.285926      676.00412     -137.58354     -4.3194257      0.099999998    8213.5863    
     12300   326.97565      554.52955     -0.76350392    -21.207525      36.176835      669.77662     -125.50542     -3.9474664      0.099999998    8213.5863    
     12400   289.99736      564.11503     -0.74329626    -25.351374      47.065079      667.08916     -122.59372     -1.3508221      0.099999998    8213.5863    
     12500   304.75964      557.63096      0.056313227   -24.969279      38.096011      686.57086     -137.55039     -4.5725486      0.099999998    8213.5863    
     12600   307.56539      554.77292     -0.75719882    -26.201888      34.731637      683.20058     -132.48837     -3.7118403      0.099999998    8213.5863    
     12700   277.25754      562.09258     -0.67327031    -25.181356      34.375455      680.70679     -124.75239     -2.382647       0.099999998    8213.5863    
     12800   346.84655      572.27981      1.3836636     -22.996309      30.117347      699.38087     -131.03606     -4.5696979      0.099999998    8213.5863    
     12900   359.71654      568.81171     -3.1911674     -17.211389      48.510707      662.18616     -118.63729     -2.8453111      0.099999998    8213.5863    
     13000   302.85525      565.00768     -2.5974393     -19.558839      44.248734      685.02732     -138.61915     -3.4929402      0.099999998    8213.5863    
     13100   312.56739      548.5704      -2.0314207     -22.986088      34.902004      680.67205     -137.3169      -4.6692453      0.099999998    8213.5863    
     13200   305.40119      568.34759     -1.9684171     -22.680274      42.535376      674.01216     -120.06547     -3.4857772      0.099999998    8213.5863    
     13300   322.90682      575.95854     -0.43609072    -20.260746      45.651193      697.26457     -141.37667     -4.8837153      0.099999998    8213.5863    
     13400   262.96499      561.51354     -2.5580814     -24.708994      35.097413      687.63714     -130.6533      -3.300641       0.099999998    8213.5863    
     13500   308.59697      550.89856     -1.3122051     -25.953694      34.617697      676.15577     -128.868       -3.7410053      0.099999998    8213.5863    
     13600   299.16364      564.82854      6.656892      -24.661612      38.921368      698.35912     -149.6178      -4.8294374      0.099999998    8213.5863    
     13700   294.44221      558.01876     -0.69435352    -27.53211       40.347551      687.61725     -136.41757     -5.3020188      0.099999998    8213.5863    
     13800   307.94113      547.81874      1.6216444     -25.770619      36.815904      665.20469     -127.43228     -2.6205939      0.099999998    8213.5863    
     13900   296.54032      548.48867     -2.9907        -21.883614      32.624338      673.53496     -130.59463     -2.2016899      0.099999998    8213.5863    
     14000   324.31639      547.4998      -1.0664613     -26.174743      30.642402      675.94925     -129.21608     -2.634566       0.099999998    8213.5863    
     14100   245.63476      547.43183     -3.0580852     -24.543127      37.497321      672.59937     -131.27911     -3.7845459      0.099999998    8213.5863    
     14200   270.58186      556.23011     -1.0640633     -23.154902      42.647224      672.53329     -133.28723     -1.4442103      0.099999998    8213.5863    
     14300   273.80461      569.15175     -3.6064631     -20.977264      35.168715      681.99443     -120.83877     -2.5889085      0.099999998    8213.5863    
     14400   319.76833      558.19603      1.261464      -20.255654      33.408051      690.52527     -141.3513      -5.3918066      0.099999998    8213.5863    
     14500   300.02166      564.31274      9.9449583     -22.750867      36.762188      725.22751     -179.88024     -4.9908027      0.099999998    8213.5863    
     14600   369.32786      576.89024      5.6236794     -20.137795      38.197007      728.90102     -171.17856     -4.5151136      0.099999998    8213.5863    
     14700   324.77243      561.15107      2.6451547     -22.193373      39.44682       736.14171     -189.7909      -5.0983441      0.099999998    8213.5863    
     14800   355.95929      549.17231      5.3061672     -28.755285      43.741521      708.53709     -174.34515     -5.3120364      0.099999998    8213.5863    
     14900   334.53629      569.61013     -1.7888781     -26.521667      37.323711      701.17462     -136.8979      -3.6797501      0.099999998    8213.5863    
     15000   270.20947      568.80113      0.77129908    -21.832947      26.222541      690.59122     -123.09694     -3.8540341      0.099999998    8213.5863    
     15100   284.46756      564.51235      0.31154889    -19.816672      42.301622      677.35432     -131.70328     -3.9351898      0.099999998    8213.5863    
     15200   307.79711      558.84084      3.5808291     -24.092552      35.925944      672.74007     -126.28578     -3.027676       0.099999998    8213.5863    
     15300   335.68343      549.96844      0.44881738    -29.782854      34.132179      689.807       -140.79278     -3.8439262      0.099999998    8213.5863    
     15400   329.01002      557.33998     -1.3392007     -24.107279      40.897661      692.86374     -146.23374     -4.7411972      0.099999998    8213.5863    
     15500   370.79468      558.75575     -2.0626658     -23.337368      47.02288       674.5997      -133.94515     -3.5216394      0.099999998    8213.5863    
     15600   320.64184      559.59674      0.66783262    -27.00716       45.702054      673.52018     -128.50578     -4.7803945      0.099999998    8213.5863    
     15700   325.90143      554.663        1.4657444     -28.796886      44.927493      688.73029     -146.69746     -4.9661775      0.099999998    8213.5863    
     15800   334.05596      562.12951     -0.12656949    -25.46222       37.30447       688.13213     -133.86326     -3.8550382      0.099999998    8213.5863    
     15900   337.07926      553.11637      2.8592496     -30.625754      46.863253      681.66169     -141.83475     -5.8073235      0.099999998    8213.5863    
     16000   310.4109       558.61901      1.0638126     -30.394741      43.462813      689.21788     -139.15461     -5.5761491      0.099999998    8213.5863    
     16100   277.41867      558.30089      0.81992406    -27.484889      33.801617      678.54396     -122.99054     -4.3891834      0.099999998    8213.5863    
     16200   315.45571      553.54685     -1.4422134     -28.000756      44.757196      682.98434     -140.814       -3.9377162      0.099999998    8213.5863    
     16300   279.3536       548.0559       2.4991089     -27.84769       38.417301      682.71675     -143.77575     -3.9538178      0.099999998    8213.5863    
     16400   276.65421      565.39246     -0.29568487    -26.379055      43.151733      683.58476     -131.8628      -2.8064894      0.099999998    8213.5863    
     16500   275.11979      559.87481     -2.1305494     -18.962297      34.696686      674.93848     -125.48559     -3.1819209      0.099999998    8213.5863    
     16600   263.67026      558.35872     -0.23931082    -22.755602      40.681755      685.07081     -139.61578     -4.7831482      0.099999998    8213.5863    
     16700   341.92543      557.04599      0.63223603    -23.599615      41.399595      686.9304      -143.89481     -4.4218161      0.099999998    8213.5863    
     16800   307.30909      557.46775     -2.3620879     -29.300999      43.516803      689.44728     -139.75314     -4.0801078      0.099999998    8213.5863    
     16900   304.9569       563.64552      2.2096191     -25.082785      37.850726      681.86014     -128.01947     -5.1727066      0.099999998    8213.5863    
     17000   317.42232      566.21665     -3.705098      -26.134117      42.257705      692.6449      -134.19341     -4.6533345      0.099999998    8213.5863    
     17100   350.58542      558.23089     -1.1433381     -26.010466      29.463603      687.64698     -128.83795     -2.8879396      0.099999998    8213.5863    
     17200   327.12624      569.48845     -4.6397197     -27.671761      41.793981      688.76137     -125.99879     -2.7566276      0.099999998    8213.5863    
     17300   362.27398      566.01748     -0.11621018    -22.025242      41.51576       691.03272     -140.84303     -3.5465218      0.099999998    8213.5863    
     17400   377.34272      567.57185     -3.6565564     -23.427972      40.548146      687.83243     -130.34268     -3.3815203      0.099999998    8213.5863    
     17500   306.9713       566.73437     -0.97948344    -22.136261      40.411139      679.68029     -126.11865     -4.1226632      0.099999998    8213.5863    
     17600   293.43634      565.61522     -2.6934284     -18.102869      41.294104      685.13666     -136.03345     -3.9857921      0.099999998    8213.5863    
     17700   277.59065      561.39939      1.9743562     -19.781949      36.737588      690.41071     -145.09288     -2.8484308      0.099999998    8213.5863    
     17800   240.33072      568.88333     -2.3938958     -20.522168      40.151621      678.62414     -123.8303      -3.1460638      0.099999998    8213.5863    
     17900   323.82657      546.38789     -4.4357456     -23.572878      40.65789       666.47393     -128.86699     -3.8683208      0.099999998    8213.5863    
     18000   282.87147      562.37349      0.44629057    -22.81976       44.22092       700.87099     -156.07077     -4.2741781      0.099999998    8213.5863    
     18100   319.57282      564.58373      2.2877604     -20.35377       36.083807      683.56585     -133.28757     -3.7123454      0.099999998    8213.5863    
     18200   287.8511       567.08563      2.4975273     -23.599103      36.951737      697.59488     -142.38955     -3.9698704      0.099999998    8213.5863    
     18300   327.87693      563.79133     -1.1372943     -25.773076      36.667872      705.62887     -146.22692     -5.368117       0.099999998    8213.5863    
     18400   329.30346      559.08907      3.4047594     -23.651318      27.988344      693.73441     -137.13843     -5.2486943      0.099999998    8213.5863    
     18500   331.56146      561.95685     -1.4137551     -21.476312      43.889422      668.47093     -123.01106     -4.5023794      0.099999998    8213.5863    
     18600   322.31458      575.2944      -1.0371555     -18.009269      48.112296      695.49582     -145.15274     -4.1145594      0.099999998    8213.5863    
     18700   315.43206      564.69023     -1.3669848     -19.337627      35.26327       686.68569     -132.64229     -3.9118224      0.099999998    8213.5863    
     18800   318.40247      562.45538     -3.2819101     -21.384538      49.894375      682.77466     -141.00978     -4.5374297      0.099999998    8213.5863    
     18900   300.52569      561.463       -2.4813779     -21.029127      38.016533      680.09657     -128.22084     -4.9187639      0.099999998    8213.5863    
     19000   330.32496      557.55807      1.7266897     -24.362291      40.338623      692.31832     -146.23997     -6.2232942      0.099999998    8213.5863    
     19100   262.20488      564.03747     -1.4816984     -19.440193      35.598913      688.14195     -134.40367     -4.3778398      0.099999998    8213.5863    
     19200   257.31778      555.34729     -4.1845763     -19.072261      34.91521       678.08765     -130.87174     -3.526992       0.099999998    8213.5863    
     19300   290.90998      559.84458     -1.6792248     -18.832239      41.962034      681.23326     -138.73076     -4.1084991      0.099999998    8213.5863    
     19400   283.13078      559.85706     -1.9769693     -18.018213      44.455035      675.363       -136.20355     -3.7622465      0.099999998    8213.5863    
     19500   296.37631      570.04698     -0.53290833    -17.775444      39.105251      683.75819     -129.02177     -5.4863381      0.099999998    8213.5863    
     19600   321.57274      561.69613     -0.19872434    -16.93256       36.63316       677.44275     -132.24938     -2.9991129      0.099999998    8213.5863    
     19700   314.11031      562.70956     -3.8720409     -16.91419       34.123107      687.59408     -133.25781     -4.9635856      0.099999998    8213.5863    
     19800   307.29533      551.0123      -1.5391601     -18.489415      43.302601      672.46287     -139.42587     -5.2987341      0.099999998    8213.5863    
     19900   298.058        549.65928     -1.4988623     -23.005956      41.309469      677.05496     -141.64433     -2.5559916      0.099999998    8213.5863    
     20000   281.33424      563.17866     -2.1005355     -22.050718      40.560632      684.37896     -134.26022     -3.3494599      0.099999998    8213.5863    
     20028   268.87146      557.35584      0.44607241    -21.238895      39.401348      670.50437     -128.07712     -3.6799275      0.099999998    8213.5863    
Loop time of 2.64177 on 6 procs for 20000 steps with 74 atoms

Performance: 654.107 ns/day, 0.037 hours/ns, 7570.682 timesteps/s, 560.230 katom-step/s
98.6% CPU use with 6 MPI tasks x no OpenMP threads

MPI task timing breakdown:
Section |  min time  |  avg time  |  max time  |%varavg| %total
---------------------------------------------------------------
Pair    | 0.0017283  | 0.066065   | 0.21364    |  29.9 |  2.50
Bond    | 0.0055694  | 0.50485    | 1.5104     |  75.1 | 19.11
Neigh   | 0.012487   | 0.013253   | 0.014005   |   0.5 |  0.50
Comm    | 0.71234    | 1.7146     | 2.2948     |  39.2 | 64.90
Output  | 0.0072268  | 0.011489   | 0.019899   |   5.0 |  0.43
Modify  | 0.00384    | 0.016305   | 0.03952    |   9.8 |  0.62
Other   |            | 0.3152     |            |       | 11.93

Nlocal:        12.3333 ave          49 max           1 min
Histogram: 3 1 1 0 0 0 0 0 0 1
Nghost:        382.333 ave         545 max         183 min
Histogram: 1 0 1 0 0 1 1 0 1 1
Neighs:        349.333 ave        1403 max           0 min
Histogram: 3 1 0 1 0 0 0 0 0 1

Total # of neighbors = 2096
Ave neighs/atom = 28.324324
Ave special neighs/atom = 13.972973
Neighbor list builds = 178
Dangerous builds = 0
unfix Langevin
unfix moveLimit



fix 		relax all npt temp 300.0 300.0 100 iso 1.0 1.0 1000
run 1000
Generated 28 of 28 mixed pair_coeff terms from sixthpower/geometric mixing rule
Per MPI rank memory allocation (min/avg/max) = 27.72 | 28.05 | 28.37 Mbytes
   Step          Temp          PotEng         E_vdwl         E_coul         E_bond        E_angle        E_dihed        E_impro        Density         Volume    
     20028   268.87146      557.35584      0.44607241    -21.238895      39.401348      670.50437     -128.07712     -3.6799275      0.099999998    8213.5863    
     20100   285.41556      555.54226      0.55502636    -20.64958       41.162595      689.94388     -150.98571     -4.4839544      0.10002876     8211.2245    
     20200   285.31443      566.42082      0.86236418    -23.306395      51.634002      677.129       -136.01583     -3.8823238      0.10011694     8203.9927    
     20300   278.37018      570.0676       0.52572602    -29.160645      54.799786      679.72931     -131.99097     -3.8356074      0.099734631    8235.4404    
     20400   318.29141      564.79245     -0.64596604    -21.62696       43.173642      671.30826     -124.68822     -2.7283044      0.0997503      8234.1467    
     20500   310.11963      556.10921     -0.78465994    -24.634136      40.157053      678.18944     -132.63429     -4.1841998      0.099527464    8252.5825    
     20600   306.69915      553.60265      0.18122331    -23.233811      43.003726      680.26652     -142.0697      -4.5453087      0.099325316    8269.3783    
     20700   285.42455      559.47116      3.4943163     -20.888403      36.506986      675.1487      -131.78325     -3.0071819      0.098855087    8308.7136    
     20800   346.8015       552.95074      5.2462059     -21.071267      38.066602      706.11685     -169.92499     -5.4826563      0.097791312    8399.0959    
     20900   337.39594      562.20963      7.2698932     -24.837265      47.352284      724.54205     -187.77298     -4.3443514      0.097267376    8444.3381    
     21000   355.78656      561.77179      6.7954762     -18.046028      38.412703      711.84993     -172.39663     -4.8436613      0.097355685    8436.6784    
     21028   324.73683      563.4325       5.2720325     -19.330483      35.497205      709.68419     -163.00586     -4.6845891      0.097496681    8424.4777    
Loop time of 0.20085 on 6 procs for 1000 steps with 74 atoms

Performance: 430.173 ns/day, 0.056 hours/ns, 4978.852 timesteps/s, 368.435 katom-step/s
99.0% CPU use with 6 MPI tasks x no OpenMP threads

MPI task timing breakdown:
Section |  min time  |  avg time  |  max time  |%varavg| %total
---------------------------------------------------------------
Pair    | 0.0010828  | 0.0046303  | 0.016911   |   8.2 |  2.31
Bond    | 0.00020306 | 0.027373   | 0.11705    |  25.8 | 13.63
Neigh   | 0.00058997 | 0.00063145 | 0.00067042 |   0.0 |  0.31
Comm    | 0.047258   | 0.14167    | 0.16845    |  11.6 | 70.54
Output  | 0.00026793 | 0.00039587 | 0.001034   |   0.0 |  0.20
Modify  | 0.015467   | 0.021907   | 0.025247   |   3.0 | 10.91
Other   |            | 0.00424    |            |       |  2.11

Nlocal:        12.3333 ave          47 max           0 min
Histogram: 4 0 0 0 0 1 0 0 0 1
Nghost:        400.667 ave         526 max         199 min
Histogram: 1 1 0 0 0 0 0 2 0 2
Neighs:        359.667 ave        1472 max           0 min
Histogram: 4 0 0 0 1 0 0 0 0 1

Total # of neighbors = 2158
Ave neighs/atom = 29.162162
Ave special neighs/atom = 13.972973
Neighbor list builds = 9
Dangerous builds = 0
unfix relax


molecule 	pre cleaned_pre-mol
Read molecule template pre:
  1 molecules
  0 fragments
  40 atoms with max type 7
  44 bonds with max type 13
  93 angles with max type 35
  162 dihedrals with max type 66
  60 impropers with max type 38
molecule	post cleaned_post-mol
Read molecule template post:
  1 molecules
  0 fragments
  40 atoms with max type 7
  44 bonds with max type 9
  93 angles with max type 33
  165 dihedrals with max type 67
  60 impropers with max type 31

fix		fxrct all bond/react stabilization yes statted_grp .03 		 react rxn1 all 100 0.0 10.0 pre post semi.map stabilize_steps 2000 molecule inter
dynamic group bond_react_MASTER_group defined
dynamic group statted_grp_REACT defined
fix 		npt statted_grp_REACT npt temp 300.0 300.0 100 iso 1.0 1.0 1000
fix 		reacted bond_react_MASTER_group temp/rescale 1 300.0 300.0 1 1


thermo_style custom step temp pe evdwl ecoul ebond eangle edihed eimp density vol f_fxrct[1]
thermo          100


compute 1 all property/local btype batom1 batom2

compute 2 all stress/atom NULL
fix 5 all ave/atom 1 500 1000 c_2[*]

dump DumpPos all custom 1000 dump.pos id type x y z mol  f_5[*]
dump DumpBond all local 1000 bonds.dump index c_1[*]

run 10000

CITE-CITE-CITE-CITE-CITE-CITE-CITE-CITE-CITE-CITE-CITE-CITE-CITE

Your simulation uses code contributions which should be cited:

- fix bond/react: reacter.org doi:10.1016/j.polymer.2017.09.038, doi:10.1021/acs.macromol.0c02012

@Article{Gissinger17,
 author = {J. R. Gissinger and B. D. Jensen and K. E. Wise},
 title = {Modeling Chemical Reactions in Classical Molecular Dynamics Simulations},
 journal = {Polymer},
 year =    2017,
 volume =  128,
 pages =   {211--217}
}

@Article{Gissinger20,
 author = {J. R. Gissinger, B. D. Jensen, K. E. Wise},
 title = {{REACTER}: A Heuristic Method for Reactive Molecular Dynamics},
 journal = {Macromolecules},
 year =    2020,
 volume =  53,
 number =  22,
 pages =   {9953--9961}
}

CITE-CITE-CITE-CITE-CITE-CITE-CITE-CITE-CITE-CITE-CITE-CITE-CITE

Generated 28 of 28 mixed pair_coeff terms from sixthpower/geometric mixing rule
Neighbor list info ...
  update: every = 1 steps, delay = 0 steps, check = yes
  max neighbors/atom: 2000, page size: 100000
  master list distance cutoff = 12
  ghost atom cutoff = 12
  binsize = 6, bins = 4 4 4
  2 neighbor lists, perpetual/occasional/extra = 1 1 0
  (1) pair lj/class2/coul/cut, perpetual
      attributes: half, newton on
      pair build: half/bin/newton
      stencil: half/bin/3d
      bin: standard
  (2) fix bond/react, occasional, copy from (1)
      attributes: half, newton on
      pair build: copy
      stencil: none
      bin: none
Per MPI rank memory allocation (min/avg/max) = 32.76 | 33.18 | 33.68 Mbytes
   Step          Temp          PotEng         E_vdwl         E_coul         E_bond        E_angle        E_dihed        E_impro        Density         Volume       f_fxrct[1]  
     21028   324.73683      563.4325       5.2720325     -19.330483      35.497205      709.68419     -163.00586     -4.6845891      0.097496681    8424.4777      0            
     21100   334.78019      561.04758      0.55168841    -23.873164      38.833277      688.70741     -139.78912     -3.382511       0.097935672    8386.7154      0            
     21200   291.21602      553.75929      0.12050495    -28.09896       40.117324      691.18975     -145.36182     -4.2075123      0.098831833    8310.6686      0            
     21300   309.25296      546.03584     -0.33524367    -25.286245      32.895456      682.84168     -140.25053     -3.8292678      0.10065189     8160.389       0            
     21400   306.24561      555.71758     -0.24400995    -18.649358      38.911373      671.13877     -131.61006     -3.8291298      0.10234649     8025.2742      0            
     21500   331.7292       555.89042      0.18488306    -17.623753      28.352983      677.97533     -129.32808     -3.670934       0.1042727      7877.0245      0            
     21600   305.46873      560.40779      0.1456907     -27.477969      38.009558      691.37449     -138.41981     -3.2241726      0.10521228     7806.6804      0            
     21700   322.19072      562.51932     -1.8023256     -20.757293      44.638049      681.22769     -137.80193     -2.9848755      0.10590638     7755.5162      0            
     21800   284.31292      556.26665     -0.063937632   -21.070322      39.250729      675.32401     -133.22274     -3.951082       0.10655946     7707.9841      0            
     21900   282.00539      551.14949     -2.2884586     -18.985162      34.008975      669.27436     -127.823       -3.0372227      0.1070227      7674.6206      0            
     22000   268.05184      559.33238      1.1251753     -20.418872      40.419962      682.78101     -140.78638     -3.7885082      0.10834096     7581.2381      0            
     22100   308.65463      560.05234      2.7133177     -22.825318      40.585021      688.93982     -144.99403     -4.3664774      0.10967518     7489.011       0            
     22200   307.88659      557.50214     -1.0459735     -26.201022      46.476181      671.57018     -128.81721     -4.4800206      0.11197889     7334.9414      0            
     22300   292.26412      562.41595     -3.3861021     -23.493608      38.168728      690.59962     -134.93624     -4.5364487      0.11449574     7173.7043      0            
     22400   309.81694      551.20484     -2.2234546     -24.445018      41.097868      678.35683     -136.83011     -4.751275       0.11675112     7035.1238      0            
     22500   253.43936      547.49696     -2.9389427     -26.432729      36.048073      674.55137     -129.61244     -4.1183641      0.11936378     6881.1375      0            
     22600   250.04813      546.34489     -0.28259829    -22.883842      39.744036      662.56576     -129.09734     -3.7011281      0.12254731     6702.3799      0            
     22700   285.74269      552.04706      1.0832776     -20.700513      39.496239      664.44186     -128.04737     -4.2264348      0.12680112     6477.5342      0            
     22800   295.06199      554.99776     -2.1556399     -23.713229      40.960846      697.83452     -152.3393      -5.589443       0.13151132     6245.5357      0            
     22900   295.29166      559.11548     -0.0089588395  -20.177582      30.373192      679.92198     -127.50047     -3.4926739      0.13797282     5953.0466      0            
     23000   292.01494      556.40305      0.77105891    -25.178114      31.770378      691.75711     -137.13006     -5.5873212      0.14521121     5656.3032      0            
     23100   279.2632       548.8506      -4.4736655     -20.501948      39.833159      673.04386     -134.13762     -4.9131837      0.15230507     5392.8513      0            
     23200   250.75811      538.2412      -6.9682169     -32.095702      32.166698      681.71677     -132.87034     -3.708008       0.1597674      5140.965       0            
     23300   282.11784      540.39638     -5.094762      -27.04575       30.695191      682.29267     -135.21354     -5.2374339      0.16824832     4881.8234      0            
     23400   275.61794      561.60627     -3.6758288     -24.991895      41.172414      680.01093     -126.4425      -4.4668515      0.1757537      4673.3504      0            
     23500   342.80457      545.43372     -6.5238879     -25.471136      27.759381      682.86853     -128.93927     -4.2599026      0.18108598     4535.7382      0            
     23600   239.59216      558.18202     -1.1067959     -28.993822      35.503779      695.51462     -137.93938     -4.7963802      0.18622825     4410.4941      0            
     23700   276.27654      546.47501     -1.7440042     -28.277465      33.849192      684.02331     -136.16498     -5.2110445      0.18801054     4368.6838      0            
     23800   311.81271      558.1441      -3.7929417     -18.056965      43.826341      664.93249     -124.98264     -3.7821759      0.18832391     4361.4145      0            
     23900   325.24192      561.50029     -0.5942203     -24.708984      44.918246      689.6564      -144.1553      -3.6158604      0.18652159     4403.5577      0            
     24000   355.59049      544.62733     -4.9725663     -27.314162      38.710327      677.03988     -135.50302     -3.3331345      0.18543985     4429.2455      0            
     24100   313.00187      547.90444     -4.573452      -21.54996       40.734155      669.42779     -132.64167     -3.4924316      0.18530555     4432.4555      0            
     24200   300.74626      545.11697     -2.908698      -26.859772      34.6872        690.03057     -144.96126     -4.8710692      0.18343584     4477.6344      0            
     24300   283.43968      554.20201     -4.6701481     -22.638434      28.374657      690.826       -134.50273     -3.1873291      0.18181027     4517.669       0            
     24400   302.24839      556.38426     -1.3351227     -21.896459      34.038884      686.55106     -137.00105     -3.9730587      0.17984083     4567.142       0            
     24500   381.59354      550.14194     -1.6079672     -24.757267      27.711665      682.21391     -129.61642     -3.8019737      0.17986596     4566.5039      0            
     24600   334.68569      565.04278      0.56115311    -25.688904      42.827601      694.99513     -144.85564     -2.7965547      0.17912838     4585.3069      0            
     24700   308.82175      554.02331     -2.3020704     -24.853257      45.243192      667.4609      -129.13066     -2.3947941      0.17726061     4633.6216      0            
     24800   281.10969      554.37364     -0.79741306    -26.60074       35.096653      681.11642     -131.46513     -2.9761458      0.17608317     4664.606       0            
     24900   323.73017      549.30904     -2.7799528     -20.378589      31.200034      676.14345     -131.47263     -3.4032713      0.1750412      4692.373       0            
     25000   275.68177      561.06617     -3.1909456     -19.969077      39.882302      680.60915     -133.48079     -2.7844613      0.1745151      4706.5188      0            
     25100   318.25716      552.11178     -0.54738181    -23.47485       36.263638      694.80606     -149.47499     -5.4606949      0.17451143     4706.6177      0            
     25200   332.88573      559.20219     -0.40992381    -21.027389      32.439967      680.36001     -128.86083     -3.2996412      0.17515665     4689.2802      0            
     25300   330.89647      554.01567     -3.5562919     -23.080147      30.843537      693.05602     -139.36661     -3.8808454      0.17407854     4718.3221      0            
     25400   287.28647      551.63101     -0.81760359    -22.044442      47.449015      677.05598     -145.87209     -4.1398546      0.17384193     4724.744       0            
     25500   288.3691       548.53512     -0.65066445    -20.573087      37.497929      670.04203     -134.43241     -3.3486794      0.17343841     4735.7364      0            
     25600   307.13222      551.02789     -5.6334361     -21.229305      29.847233      681.5163      -129.0238      -4.4490961      0.17203548     4774.3559      0            
     25700   335.70856      556.46175     -4.2611534     -23.912845      52.897381      675.21463     -139.73624     -3.7400247      0.17151577     4788.8227      0            
     25800   361.48219      560.8721      -2.4389808     -17.727664      33.641828      688.66106     -137.01365     -4.250493       0.1715037      4789.1597      0            
     25900   338.08983      548.16911     -3.2706004     -28.536752      38.490136      689.27196     -143.58053     -4.2051119      0.17055968     4815.667       0            
     26000   286.71745      551.2063      -1.1969025     -26.070974      37.846107      688.64406     -142.3652      -5.6507922      0.17032841     4822.2055      0            
     26100   258.24677      561.7994      -1.9147767     -20.691122      50.153356      680.63292     -142.24679     -4.1341865      0.17118243     4798.1478      0            
     26200   283.84071      557.78336     -2.3608089     -21.638635      38.4014        665.07034     -118.75484     -2.934095       0.17238611     4764.6451      0            
     26300   348.99809      556.62305      3.3717845     -26.295657      40.997203      691.92446     -149.15274     -4.2220027      0.17349214     4734.2699      0            
     26400   303.31697      566.35935     -0.13512099    -25.564286      38.830034      684.17399     -126.27103     -4.6742423      0.1745473      4705.6507      0            
     26500   302.77496      551.04176     -0.69305014    -28.59341       36.278173      676.95172     -130.87648     -2.0251961      0.17526956     4686.2593      0            
     26600   334.19407      546.43624     -2.9974408     -20.272075      36.553228      679.89436     -142.32316     -4.4186687      0.17609187     4664.3756      0            
     26700   274.86704      559.64563     -4.8511961     -20.797483      40.974453      684.31698     -135.5152      -4.4819206      0.1772086      4634.9818      0            
     26800   303.84553      104746.33      1612.1552     -16.745839      102684.77      587.99348     -118.36053     -3.4822118      0.17843873     4603.0288      1            
     26900   576.13301      517.07567     -1.5986017     -32.365561      58.006677      634.98689     -139.72757     -2.2261706      0.35317262     2325.6576      1            
     27000   419.29578      487.77858     -2.3112976     -17.05393       46.722477      644.65529     -181.69334     -2.5406157      0.35612285     2306.3912      1            
     27100   361.28838      443.05603      1.61046       -24.543401      32.423432      590.83393     -156.30991     -0.9584735      0.35272426     2328.6139      1            
     27200   293.89088      439.79784      4.406429      -19.322145      26.401827      587.48422     -156.84847     -2.3240273      0.35102478     2339.8878      1            
     27300   283.66028      436.64215     -6.3279778     -15.793745      30.225035      578.81267     -147.56756     -2.706271       0.34915433     2352.4228      1            
     27400   262.87841      427.89198     -3.2269594     -23.367717      28.841185      554.42274     -128.98665      0.20938115     0.35136608     2337.615       1            
     27500   303.7733       446.62935     -4.6725152     -10.286526      27.167184      575.31499     -140.56048     -0.33329823     0.35237923     2330.8939      1            
     27600   304.8922       429.07117     -2.5885621     -14.508043      24.323352      549.41434     -125.66283     -1.9070844      0.35130931     2337.9927      1            
     27700   315.77421      416.74022     -0.077440208   -25.335206      20.858069      560.00039     -136.78786     -1.9177339      0.35087073     2340.9152      1            
     27800   313.4478       429.11684     -0.22408424    -15.53394       22.048804      582.64361     -157.81877     -1.9987847      0.34710339     2366.3226      1            
     27900   311.24387      431.00294     -0.36952123    -23.047093      21.238543      570.00728     -134.20663     -2.6196468      0.34624061     2372.2192      1            
     28000   278.63783      422.34819     -1.7840341     -26.813068      20.904927      572.83354     -140.39559     -2.3975842      0.34596259     2374.1255      1            
     28100   287.10669      413.17014     -2.1735309     -21.221762      15.251886      558.877       -135.77446     -1.7889965      0.35115452     2339.0233      1            
     28200   307.50174      423.85767      0.51468667    -20.724994      25.452642      563.52872     -142.13484     -2.7785468      0.34723121     2365.4516      1            
     28300   315.77593      416.14357     -5.3765887     -16.645266      20.259378      554.93123     -134.40429     -2.620898       0.34700967     2366.9617      1            
     28400   274.21538      417.25072      5.7389443     -19.850917      17.059485      548.46301     -132.86598     -1.2938149      0.34770629     2362.2196      1            
     28500   311.67359      421.53444      2.1770923     -24.930409      17.943623      595.37061     -166.5195      -2.5069746      0.34460652     2383.468       1            
     28600   337.63842      420.4912       5.4506119     -27.182551      23.437143      578.90883     -158.19868     -1.9241527      0.3457789      2375.3867      1            
     28700   339.65687      415.33585      1.2721962     -29.327174      22.388956      602.82669     -180.82156     -1.0032574      0.34512287     2379.902       1            
     28800   297.8274       422.90361      1.9042106     -18.933884      20.650101      584.13036     -161.91535     -2.9318328      0.34542539     2377.8177      1            
     28900   290.94918      420.11953      0.27129876    -25.420273      29.140357      562.08139     -144.2421      -1.7111455      0.3445622      2383.7746      1            
     29000   285.78502      414.4545      -3.8784834     -24.007723      25.23255       538.25587     -119.97615     -1.1715582      0.34540277     2377.9734      1            
     29100   279.6712       414.4104       0.68154882    -28.355105      22.514237      547.41424     -126.33707     -1.5074473      0.34790669     2360.8589      1            
     29200   296.54989      413.70191     -3.1288239     -26.666405      21.46908       543.10346     -119.14362     -1.93178        0.34640104     2371.1205      1            
     29300   346.48712      413.10706     -7.4096151     -18.336957      29.949536      546.43829     -135.60189     -1.9323089      0.34675804     2368.6794      1            
     29400   303.95734      417.02811      5.045027      -14.252898      25.844223      573.71756     -171.65971     -1.6660905      0.34348119     2391.2768      1            
     29500   253.11014      420.97045      2.6320786     -27.487751      21.691105      573.57444     -147.92081     -1.5186134      0.3410872      2408.0605      1            
     29600   290.70393      414.88976     -1.9327802     -25.214321      23.877402      586.0491      -165.63098     -2.2586544      0.33514734     2450.7389      1            
     29700   311.71528      425.77108     -2.0745267     -19.684393      31.295139      558.42867     -140.74558     -1.4482294      0.33409028     2458.493       1            
     29800   306.54864      434.41213     -7.6346409     -8.9895238      34.375139      536.65687     -118.08477     -1.9109481      0.32639683     2516.4417      1            
     29900   286.54039      432.76998     -8.7437389     -12.808288      29.907313      559.21419     -133.13933     -1.6601667      0.32632867     2516.9674      1            
     30000   310.39441      423.98713     -7.4840628     -17.718883      24.356324      541.70952     -115.72782     -1.1479525      0.32362473     2537.9971      1            
     30100   322.16807      422.07943     -1.9082978     -24.033257      19.518029      551.2637      -121.20159     -1.5591561      0.32332351     2540.3616      1            
     30200   397.04759      417.93909     -4.0951775     -29.822532      35.102151      553.22129     -134.17053     -2.2961087      0.32301043     2542.8238      1            
     30300   332.17637      439.59781     -7.985142      -11.854488      33.408754      554.67694     -126.56213     -2.0861179      0.32424578     2533.1358      1            
     30400   335.44093      417.60442     -6.8872621     -27.475573      26.889349      546.87728     -120.80899     -0.99037687     0.32216272     2549.5148      1            
     30500   315.09359      425.30111     -7.2324936     -12.460691      25.366963      550.98066     -128.46981     -2.8835158      0.32131663     2556.2282      1            
     30600   302.54042      413.67862     -8.766938      -20.365117      30.953539      553.16786     -138.45729     -2.8534365      0.31818535     2581.3841      1            
     30700   280.67989      419.98129     -2.8609339     -23.418817      31.139399      550.36469     -133.23653     -2.0065204      0.31948312     2570.8983      1            
     30800   325.04431      426.95778     -1.9646259     -17.639962      38.432277      544.92495     -133.90944     -2.8854152      0.31555756     2602.8805      1            
     30900   340.52022      424.1741      -4.0943902     -26.374389      32.117911      557.09517     -131.83289     -2.737315       0.31439454     2612.5092      1            
     31000   300.23374      423.84597     -5.0819962     -23.34916       25.123267      556.86662     -128.66486     -1.0479046      0.31041586     2645.9943      1            
     31028   298.37593      426.72205     -4.1953766     -15.787387      24.553427      567.70571     -142.10652     -3.4478013      0.31019954     2647.8395      1            
Loop time of 2.3641 on 6 procs for 10000 steps with 74 atoms

Performance: 365.466 ns/day, 0.066 hours/ns, 4229.935 timesteps/s, 313.015 katom-step/s
96.9% CPU use with 6 MPI tasks x no OpenMP threads

MPI task timing breakdown:
Section |  min time  |  avg time  |  max time  |%varavg| %total
---------------------------------------------------------------
Pair    | 0.071248   | 0.11962    | 0.19279    |  11.2 |  5.06
Bond    | 0.11274    | 0.29462    | 0.55281    |  30.1 | 12.46
Neigh   | 0.026623   | 0.02684    | 0.027101   |   0.1 |  1.14
Comm    | 0.80686    | 1.1023     | 1.372      |  17.6 | 46.62
Output  | 0.0057363  | 0.0070425  | 0.01318    |   3.3 |  0.30
Modify  | 0.74124    | 0.78085    | 0.89403    |   6.4 | 33.03
Other   |            | 0.03288    |            |       |  1.39

Nlocal:        12.3333 ave          27 max           2 min
Histogram: 2 0 0 0 2 0 1 0 0 1
Nghost:            881 ave         950 max         810 min
Histogram: 1 0 1 0 1 1 0 0 1 1
Neighs:        975.833 ave        1815 max         171 min
Histogram: 2 0 0 1 0 0 1 0 0 2

Total # of neighbors = 5855
Ave neighs/atom = 79.121622
Ave special neighs/atom = 14.405405
Neighbor list builds = 166
Dangerous builds = 0

unfix reacted
unfix npt
unfix fxrct


fix		fxrct all bond/react stabilization yes statted_grp .03 		 react rxn1 all 100 0.0 5.0 pre post semi.map stabilize_steps 2000
dynamic group bond_react_MASTER_group defined
dynamic group statted_grp_REACT defined
fix 		npt statted_grp_REACT npt temp 300.0 300.0 100 iso 1.0 1.0 1000
fix 		reacted bond_react_MASTER_group temp/rescale 1 300.0 300.0 1 1

run 200000
Generated 28 of 28 mixed pair_coeff terms from sixthpower/geometric mixing rule
Neighbor list info ...
  update: every = 1 steps, delay = 0 steps, check = yes
  max neighbors/atom: 2000, page size: 100000
  master list distance cutoff = 12
  ghost atom cutoff = 12
  binsize = 6, bins = 3 3 3
  2 neighbor lists, perpetual/occasional/extra = 1 1 0
  (1) pair lj/class2/coul/cut, perpetual
      attributes: half, newton on
      pair build: half/bin/newton
      stencil: half/bin/3d
      bin: standard
  (2) fix bond/react, occasional, copy from (1)
      attributes: half, newton on
      pair build: copy
      stencil: none
      bin: none
WARNING: Inconsistent image flags (../domain.cpp:815)
Per MPI rank memory allocation (min/avg/max) = 34.74 | 35.93 | 36.79 Mbytes
   Step          Temp          PotEng         E_vdwl         E_coul         E_bond        E_angle        E_dihed        E_impro        Density         Volume       f_fxrct[1]  
     31028   298.37593      426.72205     -4.1953766     -15.787387      24.553427      567.70571     -142.10652     -3.4478013      0.31019954     2647.8395      0            
     31100   289.00268      424.32614     -4.8429558     -22.240451      40.177507      544.92686     -130.82209     -2.8727332      0.30982417     2651.0476      0            
     31200   291.96168      430.68783     -7.7074262     -17.026694      36.742863      554.93685     -134.35713     -1.9006247      0.31254218     2627.9928      0            
     31300   310.18638      416.96671     -5.862437      -29.890983      30.631864      554.87498     -131.3905      -1.3962103      0.31468444     2610.1024      0            
     31400   327.00196      417.00102     -4.4545317     -24.127656      23.423238      537.30304     -113.91953     -1.2235408      0.31758791     2586.2401      0            
     31500   286.59473      428.03518     -6.3038182     -16.524112      35.64195       561.61164     -144.3538      -2.0366864      0.32021365     2565.0331      0            
     31600   273.59524      414.27186     -5.7319448     -27.948633      30.722465      548.19972     -129.16896     -1.8007773      0.32156758     2554.2332      0            
     31700   266.11887      418.08476     -4.7645014     -25.589166      24.75131       551.34183     -126.10287     -1.5518441      0.32249178     2546.9133      0            
     31800   329.65262      423.09415     -7.4004316     -23.459453      31.802745      549.8075      -126.15326     -1.5029521      0.3246271      2530.1604      0            
     31900   343.19688      418.15172     -7.2530091     -26.55798       24.352881      564.21188     -134.82101     -1.781047       0.32899025     2496.6047      0            
     32000   277.5911       427.71204     -7.318059      -19.477078      31.539919      558.68893     -133.85525     -1.866426       0.33155193     2477.3151      0            
     32100   313.07331      411.14243     -5.5892075     -23.207973      32.872318      536.47196     -126.83809     -2.5665829      0.33430177     2456.9376      0            
     32200   292.43946      414.5486       2.6793791     -28.760796      25.688146      555.54044     -138.41865     -2.1799295      0.33685655     2438.3038      0            
     32300   295.19443      423.48922     -3.2945513     -22.333359      28.722458      558.97816     -135.74167     -2.8418261      0.33713789     2436.2691      0            
     32400   320.85625      429.47237     -2.3608593     -18.084723      32.929655      559.4007      -139.41638     -2.996023       0.33761586     2432.82        0            
     32500   357.96012      422.74393      3.5065103     -37.904667      25.149109      563.29655     -128.94119     -2.3623818      0.33625939     2442.634       0            
     32600   315.80298      426.5936      -2.9396845     -32.248138      29.654957      578.10188     -142.0114      -3.9640183      0.33677447     2438.8981      0            
     32700   296.07362      415.28523     -1.9794954     -32.914789      24.113601      561.4049      -133.41324     -1.9257441      0.33661095     2440.0829      0            
     32800   296.70169      406.6728       1.7114629     -36.981798      20.224598      558.25046     -133.82427     -2.7076527      0.34126906     2406.7773      0            
     32900   277.51813      424.65818     -3.2318287     -22.852852      31.932778      565.89429     -143.2266      -3.8576019      0.34417142     2386.4811      0            
     33000   324.30341      416.01404     -0.1748832     -29.018391      28.038871      553.695       -134.26597     -2.2605924      0.35515528     2312.6746      0            
     33100   349.22619      424.39558     -4.2126701     -23.714408      32.700485      554.87612     -132.89195     -2.3619994      0.36363968     2258.7156      0            
     33200   374.80141      408.08896     -8.3012429     -30.047286      27.567907      552.38471     -131.56727     -1.9478566      0.37445885     2193.4549      0            
     33300   284.56125      413.35643     -4.0523262     -30.77378       27.038979      550.52675     -128.00176     -1.3814315      0.38367183     2140.7843      0            
     33400   278.04987      407.43374     -5.0808076     -33.446268      34.021688      536.53691     -122.23979     -2.3579841      0.38865109     2113.3573      0            
     33500   297.03987      420.86522     -5.2980344     -18.731064      28.898395      543.70266     -125.20059     -2.50615        0.39814831     2062.9464      0            
     33600   324.25038      418.30469     -8.0586636     -24.541284      29.432548      557.84181     -135.17752     -1.1921947      0.40851961     2010.5733      0            
     33700   304.0935       426.34138     -9.9738268     -22.519296      42.183647      547.67955     -128.9276      -2.1010967      0.41949516     1957.9692      0            
     33800   259.91872      426.39928     -4.0853039     -20.438435      36.827727      554.0772      -137.9945      -1.9874029      0.42238958     1944.5523      0            
     33900   294.1594       412.98253     -9.289214      -23.01928       24.558169      550.32548     -127.74123     -1.8513969      0.4172307      1968.5958      0            
     34000   295.67694      417.46936     -8.5200933     -18.129016      32.950363      547.74593     -134.14091     -2.436921       0.40574483     2024.323       0            
     34100   292.95574      436.86359      1.8709883     -12.243641      33.412936      564.43861     -148.4878      -2.1275136      0.39808408     2063.2792      0            
     34200   330.57479      428.2794      -3.9485339     -24.110829      30.293678      561.5733      -133.73772     -1.7905018      0.38894003     2111.7873      0            
     34300   331.06807      424.04415     -7.3388959     -18.064458      29.235645      544.24349     -122.93748     -1.0941478      0.38545984     2130.8539      0            
     34400   259.30164      424.78814     -3.3376333     -25.615067      28.249659      562.99883     -135.50115     -2.0065054      0.38000568     2161.4377      0            
     34500   331.50944      412.14044     -6.3911653     -25.359099      26.416066      550.55419     -131.80632     -1.2732407      0.37325732     2200.5157      0            
     34600   291.28015      419.69005     -5.068191      -25.171396      30.350897      531.23609     -110.84022     -0.8171333      0.36855184     2228.6108      0            
     34700   285.3007       410.12965     -5.7014162     -26.694908      24.321123      552.36707     -132.50748     -1.6547361      0.36599127     2244.2027      0            
     34800   251.31107      422.54471     -5.5047331     -22.325043      25.318264      562.21117     -136.09573     -1.0592293      0.36626358     2242.5342      0            
     34900   297.99608      409.97812     -7.6995172     -36.547022      35.873716      552.17007     -132.41732     -1.4018069      0.36414983     2255.5513      0            
     35000   331.23336      413.20596     -6.514152      -32.703345      30.217269      555.86605     -130.81767     -2.8421978      0.36394992     2256.7902      0            
     35100   309.93532      417.93869     -2.2251057     -23.835141      26.516965      544.02211     -125.08459     -1.455556       0.35623191     2305.6851      0            
     35200   272.37789      413.89643     -2.8533551     -22.03863       28.013807      549.39085     -137.4847      -1.1315418      0.34815618     2359.1671      0            
     35300   261.66148      411.12767     -6.1673724     -26.975744      35.198653      563.65387     -152.34439     -2.2373435      0.33480643     2453.2343      0            
     35400   256.4304       425.95878     -7.1456125     -22.911518      39.07343       552.43647     -133.37993     -2.1140706      0.32239073     2547.7116      0            
     35500   309.85651      415.97449     -7.1445649     -26.19644       37.651888      533.13634     -119.74879     -1.7239413      0.3107315      2643.3065      0            
     35600   314.8441       416.00902     -7.4983932     -26.02454       36.856474      549.82579     -135.42551     -1.7248044      0.29945163     2742.8757      0            
     35700   246.41451      420.77836     -5.9252051     -23.270984      26.961923      557.44984     -131.92432     -2.5128811      0.2921118      2811.7954      0            
     35800   250.8789       419.72821     -6.8331923     -18.342621      27.22737       543.77769     -124.99101     -1.1100282      0.28406749     2891.4207      0            
     35900   253.78482      431.43036     -3.7294092     -22.628428      32.306857      561.86277     -133.68857     -2.6928634      0.27817704     2952.647       0            
     36000   294.55746      423.15144     -5.847663      -29.010776      34.976195      551.18025     -125.59003     -2.5565326      0.27158025     3024.3679      0            
     36100   339.18626      420.56682     -5.9431947     -21.132638      31.310636      547.77112     -130.8612      -0.57789546     0.26742272     3071.3868      0            
     36200   273.70605      429.46913     -5.0379708     -18.216961      31.067392      547.96859     -125.70548     -0.60643546     0.2652688      3096.3258      0            
     36300   246.96894      420.54975     -6.2108801     -24.860798      38.446128      535.61567     -121.03852     -1.4018405      0.26133053     3142.9876      0            
     36400   292.04408      412.40796     -3.5608853     -26.208518      33.727533      540.25428     -130.25338     -1.5510627      0.26009515     3157.916       0            
     36500   275.92916      431.34693     -0.062446072   -26.322274      35.401134      554.42803     -129.69803     -2.3994946      0.2571269      3194.3706      0            
     36600   305.07095      428.9766      -2.2840964     -24.147701      32.371947      557.26768     -131.69685     -2.534374       0.25391884     3234.729       0            
     36700   303.0809       417.67841     -2.0881915     -30.700143      36.557916      529.0522      -114.09825     -1.0451253      0.2501256      3283.7846      0            
     36800   291.58553      414.25597     -3.9949789     -27.356405      30.152135      547.26439     -129.84635     -1.9628224      0.24642303     3333.1243      0            
     36900   290.55948      408.58776     -2.2490454     -31.816113      40.247049      551.26601     -146.78955     -2.0705891      0.24515817     3350.3211      0            
     37000   306.93321      423.40729     -3.0787653     -31.62338       39.552542      550.79054     -129.82104     -2.4126037      0.24389763     3367.6366      0            
     37100   358.31252      420.41173     -3.6529465     -28.583188      26.471009      553.97353     -126.22411     -1.5725621      0