LAMMPS (22 Dec 2022)
WARNING: Using I/O redirection is unreliable with parallel runs. Better to use the -in switch to read input files. (../lammps.cpp:531)
# PREREQUISITES:
#
#     You must use moltemplate.sh to create 3 files:
#        system.data  system.in.init  system.in.settings
#     (Follow the instructions in README_setup.sh,
#      or run the file as a script using ./README_setup.sh)

# ------------------------------- Initialization Section --------------------

units real
atom_style full
pair_style lj/class2/coul/cut 10.0
bond_style class2
angle_style class2
dihedral_style class2
improper_style class2


# ------------------------------- Atom Definition Section -------------------

read_data       "pack_mol.data" extra/bond/per/atom 1 extra/angle/per/atom 12 extra/dihedral/per/atom 12 extra/improper/per/atom 12 extra/special/per/atom 12
Reading data file ...
  orthogonal box = (0 0 0) to (46.052579 46.052579 46.052579)
  1 by 2 by 3 MPI processor grid
  reading atoms ...
  4984 atoms
  scanning bonds ...
  5 = max bonds/atom
  scanning angles ...
  18 = max angles/atom
  scanning dihedrals ...
  27 = max dihedrals/atom
  scanning impropers ...
  16 = max impropers/atom
  reading bonds ...
  4977 bonds
  reading angles ...
  9656 angles
  reading dihedrals ...
  12801 dihedrals
  reading impropers ...
  6248 impropers
Finding 1-2 1-3 1-4 neighbors ...
  special bond factors lj:    0        0        0       
  special bond factors coul:  0        0        0       
     4 = max # of 1-2 neighbors
     9 = max # of 1-3 neighbors
    16 = max # of 1-4 neighbors
    32 = max # of special neighbors
  special bonds CPU = 0.001 seconds
  read_data CPU = 0.094 seconds

include calc.pram

# Masses

mass	1	12.01115	#	c
mass	2	12.01115	#	c1
mass	3	12.01115	#	c3h
mass	4	1.00797	#	h
mass	5	1.00797	#	hc
mass	6	15.99940	#	o3e
mass	7	15.99940	#	oc
mass	8	15.99940	#	oh

# Potentials

pair_coeff	1	1	0.05400	4.01000	#	c,c
pair_coeff	2	2	0.05400	4.01000	#	c1,c1
pair_coeff	3	3	0.05400	4.01000	#	c3h,c3h
pair_coeff	4	4	0.02000	2.99500	#	h,h
pair_coeff	5	5	0.02000	2.99500	#	hc,hc
pair_coeff	6	6	0.24000	3.53500	#	o3e,o3e
pair_coeff	7	7	0.24000	3.53500	#	oc,oc
pair_coeff	8	8	0.24000	3.53500	#	oh,oh

# Bond Coeffs

bond_coeff	1	1.53000	299.67000	-501.77000	679.81000	#	c,c
bond_coeff	2	1.53000	299.67000	-501.77000	679.81000	#	c,c1
bond_coeff	3	1.53000	299.67000	-501.77000	679.81000	#	c,c3h
bond_coeff	4	1.10100	345.00000	-691.89000	844.60000	#	c,hc
bond_coeff	5	1.42000	400.39540	-835.19510	1313.01420	#	c,o3e
bond_coeff	6	1.42000	400.39540	-835.19510	1313.01420	#	c,oc
bond_coeff	7	1.42000	400.39540	-835.19510	1313.01420	#	c,oh
bond_coeff	8	1.10100	345.00000	-691.89000	844.60000	#	c1,hc
bond_coeff	9	1.42000	400.39540	-835.19510	1313.01420	#	c1,oc
bond_coeff	10	1.10100	345.00000	-691.89000	844.60000	#	c3h,hc
bond_coeff	11	1.42000	400.39540	-835.19510	1313.01420	#	c3h,o3e
bond_coeff	12	0.96000	493.84800	0.00000	0.00000	#	h,oh

# Angle Coeffs

angle_coeff	1	112.67000	39.51600	-7.44300	-9.55830	#	c,c,c
angle_coeff	2	112.67000	39.51600	-7.44300	-9.55830	#	c,c,c1
angle_coeff	3	110.77000	41.45300	-10.60400	5.12900	#	c,c,hc
angle_coeff	4	111.27000	54.53810	-8.36420	-13.08380	#	c,c,oc
angle_coeff	5	112.67000	39.51600	-7.44300	-9.55830	#	c,c1,c
angle_coeff	6	110.77000	41.45300	-10.60400	5.12900	#	c,c1,hc
angle_coeff	7	111.27000	54.53810	-8.36420	-13.08380	#	c,c1,oc
angle_coeff	8	112.67000	39.51600	-7.44300	-9.55830	#	c,c3h,c
angle_coeff	9	110.77000	41.45300	-10.60400	5.12900	#	c,c3h,hc
angle_coeff	10	111.27000	54.53810	-8.36420	-13.08380	#	c,c3h,o3e
angle_coeff	11	104.50000	35.74540	-10.00670	-6.27290	#	c,o3e,c3h
angle_coeff	12	104.50000	35.74540	-10.00670	-6.27290	#	c,oc,c
angle_coeff	13	104.50000	35.74540	-10.00670	-6.27290	#	c,oc,c1
angle_coeff	14	109.00000	58.50000	0.00000	0.00000	#	c,oh,h
angle_coeff	15	110.77000	41.45300	-10.60400	5.12900	#	c1,c,hc
angle_coeff	16	111.27000	54.53810	-8.36420	-13.08380	#	c1,c,oc
angle_coeff	17	111.27000	54.53810	-8.36420	-13.08380	#	c1,c,oh
angle_coeff	18	110.77000	41.45300	-10.60400	5.12900	#	c3h,c,hc
angle_coeff	19	111.27000	54.53810	-8.36420	-13.08380	#	c3h,c,o3e
angle_coeff	20	111.27000	54.53810	-8.36420	-13.08380	#	c3h,c,oc
angle_coeff	21	107.66000	39.64100	-12.92100	-2.43180	#	hc,c,hc
angle_coeff	22	108.72800	58.54460	-10.80880	-12.40060	#	hc,c,o3e
angle_coeff	23	108.72800	58.54460	-10.80880	-12.40060	#	hc,c,oc
angle_coeff	24	108.72800	58.54460	-10.80880	-12.40060	#	hc,c,oh
angle_coeff	25	108.72800	58.54460	-10.80880	-12.40060	#	hc,c1,oc
angle_coeff	26	108.72800	58.54460	-10.80880	-12.40060	#	hc,c3h,o3e

# BondBond Coeffs

angle_coeff	1	bb	0.00000	1.53000	1.53000	#	c,c,c
angle_coeff	2	bb	0.00000	1.53000	1.53000	#	c,c,c1
angle_coeff	3	bb	3.38720	1.53000	1.10100	#	c,c,hc
angle_coeff	4	bb	11.43180	1.53000	1.42000	#	c,c,oc
angle_coeff	5	bb	0.00000	1.53000	1.53000	#	c,c1,c
angle_coeff	6	bb	3.38720	1.53000	1.10100	#	c,c1,hc
angle_coeff	7	bb	11.43180	1.53000	1.42000	#	c,c1,oc
angle_coeff	8	bb	0.00000	1.53000	1.53000	#	c,c3h,c
angle_coeff	9	bb	3.38720	1.53000	1.10100	#	c,c3h,hc
angle_coeff	10	bb	11.43180	1.53000	1.42000	#	c,c3h,o3e
angle_coeff	11	bb	-7.11310	1.42000	1.42000	#	c,o3e,c3h
angle_coeff	12	bb	-7.11310	1.42000	1.42000	#	c,oc,c
angle_coeff	13	bb	-7.11310	1.42000	1.42000	#	c,oc,c1
angle_coeff	14	bb	0.00000	1.42000	0.96000	#	c,oh,h
angle_coeff	15	bb	3.38720	1.53000	1.10100	#	c1,c,hc
angle_coeff	16	bb	11.43180	1.53000	1.42000	#	c1,c,oc
angle_coeff	17	bb	11.43180	1.53000	1.42000	#	c1,c,oh
angle_coeff	18	bb	3.38720	1.53000	1.10100	#	c3h,c,hc
angle_coeff	19	bb	11.43180	1.53000	1.42000	#	c3h,c,o3e
angle_coeff	20	bb	11.43180	1.53000	1.42000	#	c3h,c,oc
angle_coeff	21	bb	5.33160	1.10100	1.10100	#	hc,c,hc
angle_coeff	22	bb	23.19790	1.10100	1.42000	#	hc,c,o3e
angle_coeff	23	bb	23.19790	1.10100	1.42000	#	hc,c,oc
angle_coeff	24	bb	23.19790	1.10100	1.42000	#	hc,c,oh
angle_coeff	25	bb	23.19790	1.10100	1.42000	#	hc,c1,oc
angle_coeff	26	bb	23.19790	1.10100	1.42000	#	hc,c3h,o3e

# BondAngle Coeffs

angle_coeff	1	ba	8.01600	8.01600	1.53000	1.53000	#	c,c,c
angle_coeff	2	ba	8.01600	8.01600	1.53000	1.53000	#	c,c,c1
angle_coeff	3	ba	20.75400	11.42100	1.53000	1.10100	#	c,c,hc
angle_coeff	4	ba	2.68680	20.40330	1.53000	1.42000	#	c,c,oc
angle_coeff	5	ba	8.01600	8.01600	1.53000	1.53000	#	c,c1,c
angle_coeff	6	ba	20.75400	11.42100	1.53000	1.10100	#	c,c1,hc
angle_coeff	7	ba	2.68680	20.40330	1.53000	1.42000	#	c,c1,oc
angle_coeff	8	ba	8.01600	8.01600	1.53000	1.53000	#	c,c3h,c
angle_coeff	9	ba	20.75400	11.42100	1.53000	1.10100	#	c,c3h,hc
angle_coeff	10	ba	2.68680	20.40330	1.53000	1.42000	#	c,c3h,o3e
angle_coeff	11	ba	-2.81120	-2.81120	1.42000	1.42000	#	c,o3e,c3h
angle_coeff	12	ba	-2.81120	-2.81120	1.42000	1.42000	#	c,oc,c
angle_coeff	13	ba	-2.81120	-2.81120	1.42000	1.42000	#	c,oc,c1
angle_coeff	14	ba	0.00000	0.00000	1.42000	0.96000	#	c,oh,h
angle_coeff	15	ba	11.42100	20.75400	1.53000	1.10100	#	c1,c,hc
angle_coeff	16	ba	2.68680	20.40330	1.53000	1.42000	#	c1,c,oc
angle_coeff	17	ba	2.68680	20.40330	1.53000	1.42000	#	c1,c,oh
angle_coeff	18	ba	11.42100	20.75400	1.53000	1.10100	#	c3h,c,hc
angle_coeff	19	ba	2.68680	20.40330	1.53000	1.42000	#	c3h,c,o3e
angle_coeff	20	ba	20.40330	2.68680	1.53000	1.42000	#	c3h,c,oc
angle_coeff	21	ba	18.10300	18.10300	1.10100	1.10100	#	hc,c,hc
angle_coeff	22	ba	4.61890	55.32700	1.10100	1.42000	#	hc,c,o3e
angle_coeff	23	ba	4.61890	55.32700	1.10100	1.42000	#	hc,c,oc
angle_coeff	24	ba	4.61890	55.32700	1.10100	1.42000	#	hc,c,oh
angle_coeff	25	ba	4.61890	55.32700	1.10100	1.42000	#	hc,c1,oc
angle_coeff	26	ba	4.61890	55.32700	1.10100	1.42000	#	hc,c3h,o3e

# Dihedral Coeffs

dihedral_coeff	1	0.00000	0.00000	0.05140	0.00000	-0.14300	0.00000	#	c,c,c,c
dihedral_coeff	2	0.00000	0.00000	0.05140	0.00000	-0.14300	0.00000	#	c,c,c,c1
dihedral_coeff	3	0.00000	0.00000	0.03160	0.00000	-0.16810	0.00000	#	c,c,c,hc
dihedral_coeff	4	0.71370	0.00000	0.26600	0.00000	-0.25450	0.00000	#	c,c,c,oc
dihedral_coeff	5	0.00000	0.00000	0.05140	0.00000	-0.14300	0.00000	#	c,c,c1,c
dihedral_coeff	6	0.00000	0.00000	0.03160	0.00000	-0.16810	0.00000	#	c,c,c1,hc
dihedral_coeff	7	-0.52030	0.00000	-0.30280	0.00000	-0.34500	0.00000	#	c,c,oc,c
dihedral_coeff	8	-0.52030	0.00000	-0.30280	0.00000	-0.34500	0.00000	#	c,c,oc,c1
dihedral_coeff	9	0.00000	0.00000	0.03160	0.00000	-0.16810	0.00000	#	c,c1,c,hc
dihedral_coeff	10	0.71370	0.00000	0.26600	0.00000	-0.25450	0.00000	#	c,c1,c,oc
dihedral_coeff	11	0.71370	0.00000	0.26600	0.00000	-0.25450	0.00000	#	c,c1,c,oh
dihedral_coeff	12	-0.52030	0.00000	-0.30280	0.00000	-0.34500	0.00000	#	c,c1,oc,c
dihedral_coeff	13	0.00000	0.00000	0.03160	0.00000	-0.16810	0.00000	#	c,c3h,c,hc
dihedral_coeff	14	0.71370	0.00000	0.26600	0.00000	-0.25450	0.00000	#	c,c3h,c,o3e
dihedral_coeff	15	0.71370	0.00000	0.26600	0.00000	-0.25450	0.00000	#	c,c3h,c,oc
dihedral_coeff	16	-0.52030	0.00000	-0.30280	0.00000	-0.34500	0.00000	#	c,c3h,o3e,c
dihedral_coeff	17	0.53020	0.00000	0.00000	0.00000	-0.39660	0.00000	#	c,o3e,c3h,hc
dihedral_coeff	18	-0.52030	0.00000	-0.30280	0.00000	-0.34500	0.00000	#	c,oc,c,c1
dihedral_coeff	19	-0.52030	0.00000	-0.30280	0.00000	-0.34500	0.00000	#	c,oc,c,c3h
dihedral_coeff	20	0.53020	0.00000	0.00000	0.00000	-0.39660	0.00000	#	c,oc,c,hc
dihedral_coeff	21	0.53020	0.00000	0.00000	0.00000	-0.39660	0.00000	#	c,oc,c1,hc
dihedral_coeff	22	0.00000	0.00000	0.03160	0.00000	-0.16810	0.00000	#	c1,c,c,hc
dihedral_coeff	23	0.00000	0.00000	0.00000	0.00000	0.13000	180.00000	#	c1,c,oh,h
dihedral_coeff	24	0.53020	0.00000	0.00000	0.00000	-0.39660	0.00000	#	c1,oc,c,hc
dihedral_coeff	25	0.53020	0.00000	0.00000	0.00000	-0.39660	0.00000	#	c3h,o3e,c,hc
dihedral_coeff	26	0.00000	0.00000	0.00000	0.00000	0.13000	180.00000	#	h,oh,c,hc
dihedral_coeff	27	-0.14320	0.00000	0.06170	0.00000	-0.10830	0.00000	#	hc,c,c,hc
dihedral_coeff	28	-0.14350	0.00000	0.25300	0.00000	-0.09050	0.00000	#	hc,c,c,oc
dihedral_coeff	29	-0.14320	0.00000	0.06170	0.00000	-0.10830	0.00000	#	hc,c,c1,hc
dihedral_coeff	30	-0.14350	0.00000	0.25300	0.00000	-0.09050	0.00000	#	hc,c,c1,oc
dihedral_coeff	31	-0.14320	0.00000	0.06170	0.00000	-0.10830	0.00000	#	hc,c,c3h,hc
dihedral_coeff	32	-0.14350	0.00000	0.25300	0.00000	-0.09050	0.00000	#	hc,c,c3h,o3e
dihedral_coeff	33	-0.14350	0.00000	0.25300	0.00000	-0.09050	0.00000	#	hc,c1,c,oc
dihedral_coeff	34	-0.14350	0.00000	0.25300	0.00000	-0.09050	0.00000	#	hc,c1,c,oh
dihedral_coeff	35	-0.14350	0.00000	0.25300	0.00000	-0.09050	0.00000	#	hc,c3h,c,o3e
dihedral_coeff	36	-0.14350	0.00000	0.25300	0.00000	-0.09050	0.00000	#	hc,c3h,c,oc
dihedral_coeff	37	-0.18200	0.00000	-0.10840	0.00000	-0.70470	0.00000	#	o3e,c3h,c,oc
dihedral_coeff	38	-0.18200	0.00000	-0.10840	0.00000	-0.70470	0.00000	#	oc,c,c1,oc
dihedral_coeff	39	-0.18200	0.00000	-0.10840	0.00000	-0.70470	0.00000	#	oc,c1,c,oh
dihedral_coeff	40	-0.52030	0.00000	-0.30280	0.00000	-0.34500	0.00000	#	c1,c,oc,c1

# MiddleBondTorsion Coeffs

dihedral_coeff	1	mbt	-17.78700	-7.18770	0.00000	1.53000	#	c,c,c,c
dihedral_coeff	2	mbt	-17.78700	-7.18770	0.00000	1.53000	#	c,c,c,c1
dihedral_coeff	3	mbt	-14.87900	-3.65810	-0.31380	1.53000	#	c,c,c,hc
dihedral_coeff	4	mbt	-21.88420	-7.67640	-0.68680	1.53000	#	c,c,c,oc
dihedral_coeff	5	mbt	-17.78700	-7.18770	0.00000	1.53000	#	c,c,c1,c
dihedral_coeff	6	mbt	-14.87900	-3.65810	-0.31380	1.53000	#	c,c,c1,hc
dihedral_coeff	7	mbt	-5.92880	-2.70070	-0.31750	1.42000	#	c,c,oc,c
dihedral_coeff	8	mbt	-5.92880	-2.70070	-0.31750	1.42000	#	c,c,oc,c1
dihedral_coeff	9	mbt	-14.87900	-3.65810	-0.31380	1.53000	#	c,c1,c,hc
dihedral_coeff	10	mbt	-21.88420	-7.67640	-0.68680	1.53000	#	c,c1,c,oc
dihedral_coeff	11	mbt	-21.88420	-7.67640	-0.68680	1.53000	#	c,c1,c,oh
dihedral_coeff	12	mbt	-5.92880	-2.70070	-0.31750	1.42000	#	c,c1,oc,c
dihedral_coeff	13	mbt	-14.87900	-3.65810	-0.31380	1.53000	#	c,c3h,c,hc
dihedral_coeff	14	mbt	-21.88420	-7.67640	-0.68680	1.53000	#	c,c3h,c,o3e
dihedral_coeff	15	mbt	-21.88420	-7.67640	-0.68680	1.53000	#	c,c3h,c,oc
dihedral_coeff	16	mbt	-5.92880	-2.70070	-0.31750	1.42000	#	c,c3h,o3e,c
dihedral_coeff	17	mbt	-6.80070	-4.65460	-1.41010	1.42000	#	c,o3e,c3h,hc
dihedral_coeff	18	mbt	-5.92880	-2.70070	-0.31750	1.42000	#	c,oc,c,c1
dihedral_coeff	19	mbt	-5.92880	-2.70070	-0.31750	1.42000	#	c,oc,c,c3h
dihedral_coeff	20	mbt	-6.80070	-4.65460	-1.41010	1.42000	#	c,oc,c,hc
dihedral_coeff	21	mbt	-6.80070	-4.65460	-1.41010	1.42000	#	c,oc,c1,hc
dihedral_coeff	22	mbt	-14.87900	-3.65810	-0.31380	1.53000	#	c1,c,c,hc
dihedral_coeff	23	mbt	0.00000	0.00000	0.00000	1.42000	#	c1,c,oh,h
dihedral_coeff	24	mbt	-6.80070	-4.65460	-1.41010	1.42000	#	c1,oc,c,hc
dihedral_coeff	25	mbt	-6.80070	-4.65460	-1.41010	1.42000	#	c3h,o3e,c,hc
dihedral_coeff	26	mbt	0.00000	0.00000	0.00000	1.42000	#	h,oh,c,hc
dihedral_coeff	27	mbt	-14.26100	-0.53220	-0.48640	1.53000	#	hc,c,c,hc
dihedral_coeff	28	mbt	-16.79750	-1.22960	-0.27500	1.53000	#	hc,c,c,oc
dihedral_coeff	29	mbt	-14.26100	-0.53220	-0.48640	1.53000	#	hc,c,c1,hc
dihedral_coeff	30	mbt	-16.79750	-1.22960	-0.27500	1.53000	#	hc,c,c1,oc
dihedral_coeff	31	mbt	-14.26100	-0.53220	-0.48640	1.53000	#	hc,c,c3h,hc
dihedral_coeff	32	mbt	-16.79750	-1.22960	-0.27500	1.53000	#	hc,c,c3h,o3e
dihedral_coeff	33	mbt	-16.79750	-1.22960	-0.27500	1.53000	#	hc,c1,c,oc
dihedral_coeff	34	mbt	-16.79750	-1.22960	-0.27500	1.53000	#	hc,c1,c,oh
dihedral_coeff	35	mbt	-16.79750	-1.22960	-0.27500	1.53000	#	hc,c3h,c,o3e
dihedral_coeff	36	mbt	-16.79750	-1.22960	-0.27500	1.53000	#	hc,c3h,c,oc
dihedral_coeff	37	mbt	-17.25850	-3.61570	-0.83640	1.53000	#	o3e,c3h,c,oc
dihedral_coeff	38	mbt	-17.25850	-3.61570	-0.83640	1.53000	#	oc,c,c1,oc
dihedral_coeff	39	mbt	-17.25850	-3.61570	-0.83640	1.53000	#	oc,c1,c,oh
dihedral_coeff	40	mbt	-5.92880	-2.70070	-0.31750	1.42000	#	c1,c,oc,c1

# EndBondTorsion Coeffs

dihedral_coeff	1	ebt	-0.07320	0.00000	0.00000	-0.07320	0.00000	0.00000	1.53000	1.53000	#	c,c,c,c
dihedral_coeff	2	ebt	-0.07320	0.00000	0.00000	-0.07320	0.00000	0.00000	1.53000	1.53000	#	c,c,c,c1
dihedral_coeff	3	ebt	0.24860	0.24220	-0.09250	0.08140	0.05910	0.22190	1.53000	1.10100	#	c,c,c,hc
dihedral_coeff	4	ebt	-0.31900	0.44110	-0.71740	1.15380	0.84090	-0.91380	1.53000	1.42000	#	c,c,c,oc
dihedral_coeff	5	ebt	-0.07320	0.00000	0.00000	-0.07320	0.00000	0.00000	1.53000	1.53000	#	c,c,c1,c
dihedral_coeff	6	ebt	0.24860	0.24220	-0.09250	0.08140	0.05910	0.22190	1.53000	1.10100	#	c,c,c1,hc
dihedral_coeff	7	ebt	-0.24560	1.05170	-0.77950	0.47410	1.26350	0.55760	1.53000	1.42000	#	c,c,oc,c
dihedral_coeff	8	ebt	-0.24560	1.05170	-0.77950	0.47410	1.26350	0.55760	1.53000	1.42000	#	c,c,oc,c1
dihedral_coeff	9	ebt	0.24860	0.24220	-0.09250	0.08140	0.05910	0.22190	1.53000	1.10100	#	c,c1,c,hc
dihedral_coeff	10	ebt	-0.31900	0.44110	-0.71740	1.15380	0.84090	-0.91380	1.53000	1.42000	#	c,c1,c,oc
dihedral_coeff	11	ebt	-0.31900	0.44110	-0.71740	1.15380	0.84090	-0.91380	1.53000	1.42000	#	c,c1,c,oh
dihedral_coeff	12	ebt	-0.24560	1.05170	-0.77950	0.47410	1.26350	0.55760	1.53000	1.42000	#	c,c1,oc,c
dihedral_coeff	13	ebt	0.24860	0.24220	-0.09250	0.08140	0.05910	0.22190	1.53000	1.10100	#	c,c3h,c,hc
dihedral_coeff	14	ebt	-0.31900	0.44110	-0.71740	1.15380	0.84090	-0.91380	1.53000	1.42000	#	c,c3h,c,o3e
dihedral_coeff	15	ebt	-0.31900	0.44110	-0.71740	1.15380	0.84090	-0.91380	1.53000	1.42000	#	c,c3h,c,oc
dihedral_coeff	16	ebt	-0.24560	1.05170	-0.77950	0.47410	1.26350	0.55760	1.53000	1.42000	#	c,c3h,o3e,c
dihedral_coeff	17	ebt	-0.16200	0.15640	-1.14080	-0.60540	1.33390	0.96480	1.42000	1.10100	#	c,o3e,c3h,hc
dihedral_coeff	18	ebt	0.47410	1.26350	0.55760	-0.24560	1.05170	-0.77950	1.42000	1.53000	#	c,oc,c,c1
dihedral_coeff	19	ebt	0.47410	1.26350	0.55760	-0.24560	1.05170	-0.77950	1.42000	1.53000	#	c,oc,c,c3h
dihedral_coeff	20	ebt	-0.16200	0.15640	-1.14080	-0.60540	1.33390	0.96480	1.42000	1.10100	#	c,oc,c,hc
dihedral_coeff	21	ebt	-0.16200	0.15640	-1.14080	-0.60540	1.33390	0.96480	1.42000	1.10100	#	c,oc,c1,hc
dihedral_coeff	22	ebt	0.08140	0.05910	0.22190	0.24860	0.24220	-0.09250	1.53000	1.10100	#	c1,c,c,hc
dihedral_coeff	23	ebt	0.00000	0.00000	0.00000	0.00000	0.00000	0.00000	1.53000	0.96000	#	c1,c,oh,h
dihedral_coeff	24	ebt	-0.60540	1.33390	0.96480	-0.16200	0.15640	-1.14080	1.42000	1.10100	#	c1,oc,c,hc
dihedral_coeff	25	ebt	-0.60540	1.33390	0.96480	-0.16200	0.15640	-1.14080	1.42000	1.10100	#	c3h,o3e,c,hc
dihedral_coeff	26	ebt	0.00000	0.00000	0.00000	0.00000	0.00000	0.00000	0.96000	1.10100	#	h,oh,c,hc
dihedral_coeff	27	ebt	0.21300	0.31200	0.07770	0.21300	0.31200	0.07770	1.10100	1.10100	#	hc,c,c,hc
dihedral_coeff	28	ebt	0.96810	0.95510	0.04360	0.59030	0.66690	0.85840	1.10100	1.42000	#	hc,c,c,oc
dihedral_coeff	29	ebt	0.21300	0.31200	0.07770	0.21300	0.31200	0.07770	1.10100	1.10100	#	hc,c,c1,hc
dihedral_coeff	30	ebt	0.96810	0.95510	0.04360	0.59030	0.66690	0.85840	1.10100	1.42000	#	hc,c,c1,oc
dihedral_coeff	31	ebt	0.21300	0.31200	0.07770	0.21300	0.31200	0.07770	1.10100	1.10100	#	hc,c,c3h,hc
dihedral_coeff	32	ebt	0.96810	0.95510	0.04360	0.59030	0.66690	0.85840	1.10100	1.42000	#	hc,c,c3h,o3e
dihedral_coeff	33	ebt	0.96810	0.95510	0.04360	0.59030	0.66690	0.85840	1.10100	1.42000	#	hc,c1,c,oc
dihedral_coeff	34	ebt	0.96810	0.95510	0.04360	0.59030	0.66690	0.85840	1.10100	1.42000	#	hc,c1,c,oh
dihedral_coeff	35	ebt	0.96810	0.95510	0.04360	0.59030	0.66690	0.85840	1.10100	1.42000	#	hc,c3h,c,o3e
dihedral_coeff	36	ebt	0.96810	0.95510	0.04360	0.59030	0.66690	0.85840	1.10100	1.42000	#	hc,c3h,c,oc
dihedral_coeff	37	ebt	1.01650	0.75530	-0.46090	1.01650	0.75530	-0.46090	1.42000	1.42000	#	o3e,c3h,c,oc
dihedral_coeff	38	ebt	1.01650	0.75530	-0.46090	1.01650	0.75530	-0.46090	1.42000	1.42000	#	oc,c,c1,oc
dihedral_coeff	39	ebt	1.01650	0.75530	-0.46090	1.01650	0.75530	-0.46090	1.42000	1.42000	#	oc,c1,c,oh
dihedral_coeff	40	ebt	-0.24560	1.05170	-0.77950	0.47410	1.26350	0.55760	1.53000	1.42000	#	c1,c,oc,c1

# AngleTorsion Coeffs

dihedral_coeff	1	at	0.38860	-0.31390	0.13890	0.38860	-0.31390	0.13890	112.67000	112.67000	#	c,c,c,c
dihedral_coeff	2	at	0.38860	-0.31390	0.13890	0.38860	-0.31390	0.13890	112.67000	112.67000	#	c,c,c,c1
dihedral_coeff	3	at	-0.24540	0.00000	-0.11360	0.31130	0.45160	-0.19880	112.67000	110.77000	#	c,c,c,hc
dihedral_coeff	4	at	0.56230	-0.30410	-0.40150	0.96720	-0.75660	-1.23310	112.67000	111.27000	#	c,c,c,oc
dihedral_coeff	5	at	0.38860	-0.31390	0.13890	0.38860	-0.31390	0.13890	112.67000	112.67000	#	c,c,c1,c
dihedral_coeff	6	at	-0.24540	0.00000	-0.11360	0.31130	0.45160	-0.19880	112.67000	110.77000	#	c,c,c1,hc
dihedral_coeff	7	at	-2.74660	1.48770	-0.89550	0.56760	0.94500	0.07030	111.27000	104.50000	#	c,c,oc,c
dihedral_coeff	8	at	-2.74660	1.48770	-0.89550	0.56760	0.94500	0.07030	111.27000	104.50000	#	c,c,oc,c1
dihedral_coeff	9	at	-0.24540	0.00000	-0.11360	0.31130	0.45160	-0.19880	112.67000	110.77000	#	c,c1,c,hc
dihedral_coeff	10	at	0.56230	-0.30410	-0.40150	0.96720	-0.75660	-1.23310	112.67000	111.27000	#	c,c1,c,oc
dihedral_coeff	11	at	0.56230	-0.30410	-0.40150	0.96720	-0.75660	-1.23310	112.67000	111.27000	#	c,c1,c,oh
dihedral_coeff	12	at	-2.74660	1.48770	-0.89550	0.56760	0.94500	0.07030	111.27000	104.50000	#	c,c1,oc,c
dihedral_coeff	13	at	-0.24540	0.00000	-0.11360	0.31130	0.45160	-0.19880	112.67000	110.77000	#	c,c3h,c,hc
dihedral_coeff	14	at	0.56230	-0.30410	-0.40150	0.96720	-0.75660	-1.23310	112.67000	111.27000	#	c,c3h,c,o3e
dihedral_coeff	15	at	0.56230	-0.30410	-0.40150	0.96720	-0.75660	-1.23310	112.67000	111.27000	#	c,c3h,c,oc
dihedral_coeff	16	at	-2.74660	1.48770	-0.89550	0.56760	0.94500	0.07030	111.27000	104.50000	#	c,c3h,o3e,c
dihedral_coeff	17	at	-0.77770	0.43400	-0.66530	-1.82340	1.63930	0.51440	104.50000	108.72800	#	c,o3e,c3h,hc
dihedral_coeff	18	at	0.56760	0.94500	0.07030	-2.74660	1.48770	-0.89550	104.50000	111.27000	#	c,oc,c,c1
dihedral_coeff	19	at	0.56760	0.94500	0.07030	-2.74660	1.48770	-0.89550	104.50000	111.27000	#	c,oc,c,c3h
dihedral_coeff	20	at	-0.77770	0.43400	-0.66530	-1.82340	1.63930	0.51440	104.50000	108.72800	#	c,oc,c,hc
dihedral_coeff	21	at	-0.77770	0.43400	-0.66530	-1.82340	1.63930	0.51440	104.50000	108.72800	#	c,oc,c1,hc
dihedral_coeff	22	at	0.31130	0.45160	-0.19880	-0.24540	0.00000	-0.11360	112.67000	110.77000	#	c1,c,c,hc
dihedral_coeff	23	at	0.00000	0.00000	0.00000	0.00000	0.00000	0.00000	111.27000	109.00000	#	c1,c,oh,h
dihedral_coeff	24	at	-1.82340	1.63930	0.51440	-0.77770	0.43400	-0.66530	104.50000	108.72800	#	c1,oc,c,hc
dihedral_coeff	25	at	-1.82340	1.63930	0.51440	-0.77770	0.43400	-0.66530	104.50000	108.72800	#	c3h,o3e,c,hc
dihedral_coeff	26	at	0.00000	0.00000	0.00000	0.00000	0.00000	0.00000	109.00000	108.72800	#	h,oh,c,hc
dihedral_coeff	27	at	-0.80850	0.55690	-0.24660	-0.80850	0.55690	-0.24660	110.77000	110.77000	#	hc,c,c,hc
dihedral_coeff	28	at	2.36680	2.49200	-1.01220	-0.18920	0.49180	0.72730	110.77000	111.27000	#	hc,c,c,oc
dihedral_coeff	29	at	-0.80850	0.55690	-0.24660	-0.80850	0.55690	-0.24660	110.77000	110.77000	#	hc,c,c1,hc
dihedral_coeff	30	at	2.36680	2.49200	-1.01220	-0.18920	0.49180	0.72730	110.77000	111.27000	#	hc,c,c1,oc
dihedral_coeff	31	at	-0.80850	0.55690	-0.24660	-0.80850	0.55690	-0.24660	110.77000	110.77000	#	hc,c,c3h,hc
dihedral_coeff	32	at	2.36680	2.49200	-1.01220	-0.18920	0.49180	0.72730	110.77000	111.27000	#	hc,c,c3h,o3e
dihedral_coeff	33	at	2.36680	2.49200	-1.01220	-0.18920	0.49180	0.72730	110.77000	111.27000	#	hc,c1,c,oc
dihedral_coeff	34	at	2.36680	2.49200	-1.01220	-0.18920	0.49180	0.72730	110.77000	111.27000	#	hc,c1,c,oh
dihedral_coeff	35	at	2.36680	2.49200	-1.01220	-0.18920	0.49180	0.72730	110.77000	111.27000	#	hc,c3h,c,o3e
dihedral_coeff	36	at	2.36680	2.49200	-1.01220	-0.18920	0.49180	0.72730	110.77000	111.27000	#	hc,c3h,c,oc
dihedral_coeff	37	at	0.55110	0.97370	-0.66730	0.55110	0.97370	-0.66730	111.27000	111.27000	#	o3e,c3h,c,oc
dihedral_coeff	38	at	0.55110	0.97370	-0.66730	0.55110	0.97370	-0.66730	111.27000	111.27000	#	oc,c,c1,oc
dihedral_coeff	39	at	0.55110	0.97370	-0.66730	0.55110	0.97370	-0.66730	111.27000	111.27000	#	oc,c1,c,oh
dihedral_coeff	40	at	-2.74660	1.48770	-0.89550	0.56760	0.94500	0.07030	111.27000	104.50000	#	c1,c,oc,c1

# AngleAngleTorsion Coeffs

dihedral_coeff	1	aat	-22.04500	112.67000	112.67000	#	c,c,c,c
dihedral_coeff	2	aat	-22.04500	112.67000	112.67000	#	c,c,c,c1
dihedral_coeff	3	aat	-16.16400	112.67000	110.77000	#	c,c,c,hc
dihedral_coeff	4	aat	-29.04200	112.67000	111.27000	#	c,c,c,oc
dihedral_coeff	5	aat	-22.04500	112.67000	112.67000	#	c,c,c1,c
dihedral_coeff	6	aat	-16.16400	112.67000	110.77000	#	c,c,c1,hc
dihedral_coeff	7	aat	-19.00590	111.27000	104.50000	#	c,c,oc,c
dihedral_coeff	8	aat	-19.00590	111.27000	104.50000	#	c,c,oc,c1
dihedral_coeff	9	aat	-16.16400	112.67000	110.77000	#	c,c1,c,hc
dihedral_coeff	10	aat	-29.04200	112.67000	111.27000	#	c,c1,c,oc
dihedral_coeff	11	aat	-29.04200	112.67000	111.27000	#	c,c1,c,oh
dihedral_coeff	12	aat	-19.00590	111.27000	104.50000	#	c,c1,oc,c
dihedral_coeff	13	aat	-16.16400	112.67000	110.77000	#	c,c3h,c,hc
dihedral_coeff	14	aat	-29.04200	112.67000	111.27000	#	c,c3h,c,o3e
dihedral_coeff	15	aat	-29.04200	112.67000	111.27000	#	c,c3h,c,oc
dihedral_coeff	16	aat	-19.00590	111.27000	104.50000	#	c,c3h,o3e,c
dihedral_coeff	17	aat	-16.44380	104.50000	108.72800	#	c,o3e,c3h,hc
dihedral_coeff	18	aat	-19.00590	104.50000	111.27000	#	c,oc,c,c1
dihedral_coeff	19	aat	-19.00590	104.50000	111.27000	#	c,oc,c,c3h
dihedral_coeff	20	aat	-16.44380	104.50000	108.72800	#	c,oc,c,hc
dihedral_coeff	21	aat	-16.44380	104.50000	108.72800	#	c,oc,c1,hc
dihedral_coeff	22	aat	-16.16400	112.67000	110.77000	#	c1,c,c,hc
dihedral_coeff	23	aat	0.00000	111.27000	109.00000	#	c1,c,oh,h
dihedral_coeff	24	aat	-16.44380	104.50000	108.72800	#	c1,oc,c,hc
dihedral_coeff	25	aat	-16.44380	104.50000	108.72800	#	c3h,o3e,c,hc
dihedral_coeff	26	aat	0.00000	109.00000	108.72800	#	h,oh,c,hc
dihedral_coeff	27	aat	-12.56400	110.77000	110.77000	#	hc,c,c,hc
dihedral_coeff	28	aat	-20.20060	110.77000	111.27000	#	hc,c,c,oc
dihedral_coeff	29	aat	-12.56400	110.77000	110.77000	#	hc,c,c1,hc
dihedral_coeff	30	aat	-20.20060	110.77000	111.27000	#	hc,c,c1,oc
dihedral_coeff	31	aat	-12.56400	110.77000	110.77000	#	hc,c,c3h,hc
dihedral_coeff	32	aat	-20.20060	110.77000	111.27000	#	hc,c,c3h,o3e
dihedral_coeff	33	aat	-20.20060	110.77000	111.27000	#	hc,c1,c,oc
dihedral_coeff	34	aat	-20.20060	110.77000	111.27000	#	hc,c1,c,oh
dihedral_coeff	35	aat	-20.20060	110.77000	111.27000	#	hc,c3h,c,o3e
dihedral_coeff	36	aat	-20.20060	110.77000	111.27000	#	hc,c3h,c,oc
dihedral_coeff	37	aat	-14.04840	111.27000	111.27000	#	o3e,c3h,c,oc
dihedral_coeff	38	aat	-14.04840	111.27000	111.27000	#	oc,c,c1,oc
dihedral_coeff	39	aat	-14.04840	111.27000	111.27000	#	oc,c1,c,oh
dihedral_coeff	40	aat	-19.00590	111.27000	104.50000	#	c1,c,oc,c1

# BondBond13 Coeffs

dihedral_coeff	1	bb13	0.00000	1.53000	1.53000	#	c,c,c,c
dihedral_coeff	2	bb13	0.00000	1.53000	1.53000	#	c,c,c,c1
dihedral_coeff	3	bb13	0.00000	1.53000	1.10100	#	c,c,c,hc
dihedral_coeff	4	bb13	0.00000	1.53000	1.42000	#	c,c,c,oc
dihedral_coeff	5	bb13	0.00000	1.53000	1.53000	#	c,c,c1,c
dihedral_coeff	6	bb13	0.00000	1.53000	1.10100	#	c,c,c1,hc
dihedral_coeff	7	bb13	0.00000	1.53000	1.42000	#	c,c,oc,c
dihedral_coeff	8	bb13	0.00000	1.53000	1.42000	#	c,c,oc,c1
dihedral_coeff	9	bb13	0.00000	1.53000	1.10100	#	c,c1,c,hc
dihedral_coeff	10	bb13	0.00000	1.53000	1.42000	#	c,c1,c,oc
dihedral_coeff	11	bb13	0.00000	1.53000	1.42000	#	c,c1,c,oh
dihedral_coeff	12	bb13	0.00000	1.53000	1.42000	#	c,c1,oc,c
dihedral_coeff	13	bb13	0.00000	1.53000	1.10100	#	c,c3h,c,hc
dihedral_coeff	14	bb13	0.00000	1.53000	1.42000	#	c,c3h,c,o3e
dihedral_coeff	15	bb13	0.00000	1.53000	1.42000	#	c,c3h,c,oc
dihedral_coeff	16	bb13	0.00000	1.53000	1.42000	#	c,c3h,o3e,c
dihedral_coeff	17	bb13	0.00000	1.42000	1.10100	#	c,o3e,c3h,hc
dihedral_coeff	18	bb13	0.00000	1.42000	1.53000	#	c,oc,c,c1
dihedral_coeff	19	bb13	0.00000	1.42000	1.53000	#	c,oc,c,c3h
dihedral_coeff	20	bb13	0.00000	1.42000	1.10100	#	c,oc,c,hc
dihedral_coeff	21	bb13	0.00000	1.42000	1.10100	#	c,oc,c1,hc
dihedral_coeff	22	bb13	0.00000	1.53000	1.10100	#	c1,c,c,hc
dihedral_coeff	23	bb13	0.00000	1.53000	0.96000	#	c1,c,oh,h
dihedral_coeff	24	bb13	0.00000	1.42000	1.10100	#	c1,oc,c,hc
dihedral_coeff	25	bb13	0.00000	1.42000	1.10100	#	c3h,o3e,c,hc
dihedral_coeff	26	bb13	0.00000	0.96000	1.10100	#	h,oh,c,hc
dihedral_coeff	27	bb13	0.00000	1.10100	1.10100	#	hc,c,c,hc
dihedral_coeff	28	bb13	0.00000	1.10100	1.42000	#	hc,c,c,oc
dihedral_coeff	29	bb13	0.00000	1.10100	1.10100	#	hc,c,c1,hc
dihedral_coeff	30	bb13	0.00000	1.10100	1.42000	#	hc,c,c1,oc
dihedral_coeff	31	bb13	0.00000	1.10100	1.10100	#	hc,c,c3h,hc
dihedral_coeff	32	bb13	0.00000	1.10100	1.42000	#	hc,c,c3h,o3e
dihedral_coeff	33	bb13	0.00000	1.10100	1.42000	#	hc,c1,c,oc
dihedral_coeff	34	bb13	0.00000	1.10100	1.42000	#	hc,c1,c,oh
dihedral_coeff	35	bb13	0.00000	1.10100	1.42000	#	hc,c3h,c,o3e
dihedral_coeff	36	bb13	0.00000	1.10100	1.42000	#	hc,c3h,c,oc
dihedral_coeff	37	bb13	0.00000	1.42000	1.42000	#	o3e,c3h,c,oc
dihedral_coeff	38	bb13	0.00000	1.42000	1.42000	#	oc,c,c1,oc
dihedral_coeff	39	bb13	0.00000	1.42000	1.42000	#	oc,c1,c,oh
dihedral_coeff	40	bb13	0.00000	1.53000	1.42000	#	c1,c,oc,c1

# Improper Coeffs

improper_coeff	1	0.00000	0.00000	#	c,c,c,hc
improper_coeff	2	0.00000	0.00000	#	c,c,c1,hc
improper_coeff	3	0.00000	0.00000	#	c,c,hc,c1
improper_coeff	4	0.00000	0.00000	#	c,c,hc,hc
improper_coeff	5	0.00000	0.00000	#	c,c,hc,oc
improper_coeff	6	0.00000	0.00000	#	c,c,oc,hc
improper_coeff	7	0.00000	0.00000	#	c,c1,hc,hc
improper_coeff	8	0.00000	0.00000	#	c,c1,hc,oc
improper_coeff	9	0.00000	0.00000	#	c,c1,oc,hc
improper_coeff	10	0.00000	0.00000	#	c,c1,oh,hc
improper_coeff	11	0.00000	0.00000	#	c,c3h,hc,hc
improper_coeff	12	0.00000	0.00000	#	c,c3h,hc,o3e
improper_coeff	13	0.00000	0.00000	#	c,c3h,hc,oc
improper_coeff	14	0.00000	0.00000	#	c,hc,hc,hc
improper_coeff	15	0.00000	0.00000	#	c,hc,hc,o3e
improper_coeff	16	0.00000	0.00000	#	c,hc,hc,oc
improper_coeff	17	0.00000	0.00000	#	c,hc,hc,oh
improper_coeff	18	0.00000	0.00000	#	c1,c,c,c
improper_coeff	19	0.00000	0.00000	#	c1,c,c,hc
improper_coeff	20	0.00000	0.00000	#	c1,c,c,oc
improper_coeff	21	0.00000	0.00000	#	c1,c,oc,hc
improper_coeff	22	0.00000	0.00000	#	c3h,c,c,hc
improper_coeff	23	0.00000	0.00000	#	c3h,c,c,o3e
improper_coeff	24	0.00000	0.00000	#	c3h,c,o3e,hc

# AngleAngle Coeffs

improper_coeff	1	aa	-1.31990	-1.31990	0.11840	112.67000	110.77000	110.77000	#	c,c,c,hc
improper_coeff	2	aa	-1.31990	0.00000	0.11840	112.67000	110.77000	110.77000	#	c,c,c1,hc
improper_coeff	3	aa	0.11840	0.00000	-1.31990	110.77000	112.67000	110.77000	#	c,c,hc,c1
improper_coeff	4	aa	0.27380	-0.48250	0.27380	110.77000	110.77000	107.66000	#	c,c,hc,hc
improper_coeff	5	aa	3.91770	2.59260	0.16890	110.77000	111.27000	108.72800	#	c,c,hc,oc
improper_coeff	6	aa	0.16890	2.59260	3.91770	111.27000	110.77000	108.72800	#	c,c,oc,hc
improper_coeff	7	aa	0.00000	-0.48250	0.00000	110.77000	110.77000	107.66000	#	c,c1,hc,hc
improper_coeff	8	aa	3.91770	2.59260	0.00000	110.77000	111.27000	108.72800	#	c,c1,hc,oc
improper_coeff	9	aa	0.00000	2.59260	3.91770	111.27000	110.77000	108.72800	#	c,c1,oc,hc
improper_coeff	10	aa	0.00000	2.59260	3.91770	111.27000	110.77000	108.72800	#	c,c1,oh,hc
improper_coeff	11	aa	0.00000	-0.48250	0.00000	110.77000	110.77000	107.66000	#	c,c3h,hc,hc
improper_coeff	12	aa	3.91770	2.59260	0.00000	110.77000	111.27000	108.72800	#	c,c3h,hc,o3e
improper_coeff	13	aa	0.00000	2.59260	0.00000	110.77000	111.27000	108.72800	#	c,c3h,hc,oc
improper_coeff	14	aa	-0.31570	-0.31570	-0.31570	107.66000	107.66000	107.66000	#	c,hc,hc,hc
improper_coeff	15	aa	2.42590	2.42590	2.12830	107.66000	108.72800	108.72800	#	c,hc,hc,o3e
improper_coeff	16	aa	2.42590	2.42590	2.12830	107.66000	108.72800	108.72800	#	c,hc,hc,oc
improper_coeff	17	aa	2.42590	2.42590	2.12830	107.66000	108.72800	108.72800	#	c,hc,hc,oh
improper_coeff	18	aa	-0.17290	-0.17290	-0.17290	112.67000	112.67000	112.67000	#	c1,c,c,c
improper_coeff	19	aa	-1.31990	-1.31990	0.11840	112.67000	110.77000	110.77000	#	c1,c,c,hc
improper_coeff	20	aa	-0.83300	-0.83300	-3.57440	112.67000	111.27000	111.27000	#	c1,c,c,oc
improper_coeff	21	aa	0.16890	2.59260	3.91770	111.27000	110.77000	108.72800	#	c1,c,oc,hc
improper_coeff	22	aa	-1.31990	-1.31990	0.11840	112.67000	110.77000	110.77000	#	c3h,c,c,hc
improper_coeff	23	aa	-0.83300	-0.83300	-3.57440	112.67000	111.27000	111.27000	#	c3h,c,c,o3e
improper_coeff	24	aa	0.16890	2.59260	3.91770	111.27000	110.77000	108.72800	#	c3h,c,o3e,hc

# ------------------------------- OPT Section -------------------------------
minimize 1.0e-5 1.0e-7 100000 400000
Generated 28 of 28 mixed pair_coeff terms from sixthpower/geometric mixing rule
Neighbor list info ...
  update: every = 1 steps, delay = 0 steps, check = yes
  max neighbors/atom: 2000, page size: 100000
  master list distance cutoff = 12
  ghost atom cutoff = 12
  binsize = 6, bins = 8 8 8
  1 neighbor lists, perpetual/occasional/extra = 1 0 0
  (1) pair lj/class2/coul/cut, perpetual
      attributes: half, newton on
      pair build: half/bin/newton
      stencil: half/bin/3d
      bin: standard
Per MPI rank memory allocation (min/avg/max) = 28.27 | 28.64 | 29.02 Mbytes
   Step          Temp          E_pair         E_mol          TotEng         Press     
         0   0             -557.64283      16765.171      16207.529     -1111.5556    
        41   0             -1094.696       12602.524      11507.828      2336.3145    
Loop time of 1.27337 on 6 procs for 41 steps with 4984 atoms

99.1% CPU use with 6 MPI tasks x no OpenMP threads

Minimization stats:
  Stopping criterion = linesearch alpha is zero
  Energy initial, next-to-last, final = 
       16207.528615087   11507.8283123323   11507.8283123323
  Force two-norm initial, final = 2336.7448 133.44219
  Force max component initial, final = 245.12792 42.15499
  Final line search alpha, max atom move = 5.5310008e-13 2.3315928e-11
  Iterations, force evaluations = 41 143

MPI task timing breakdown:
Section |  min time  |  avg time  |  max time  |%varavg| %total
---------------------------------------------------------------
Pair    | 0.22607    | 0.40576    | 0.5863     |  19.6 | 31.87
Bond    | 0.32685    | 0.42555    | 0.57293    |  13.2 | 33.42
Neigh   | 0          | 0          | 0          |   0.0 |  0.00
Comm    | 0.097659   | 0.42164    | 0.69627    |  30.1 | 33.11
Output  | 0          | 0          | 0          |   0.0 |  0.00
Modify  | 0          | 0          | 0          |   0.0 |  0.00
Other   |            | 0.02041    |            |       |  1.60

Nlocal:        830.667 ave        1019 max         593 min
Histogram: 1 1 0 0 0 0 2 0 1 1
Nghost:           6124 ave        6427 max        5865 min
Histogram: 1 1 0 1 0 1 1 0 0 1
Neighs:         162339 ave      216834 max       93475 min
Histogram: 1 1 0 0 0 1 0 0 2 1

Total # of neighbors = 974033
Ave neighs/atom = 195.43198
Ave special neighs/atom = 10.44382
Neighbor list builds = 0
Dangerous builds = 0
# ------------------------------- Run Section -------------------------------
#

thermo_style custom step temp pe evdwl ecoul ebond eangle edihed eimp density vol
thermo          100

fix Langevin  all langevin 300 300 100.0 482432
fix moveLimit all nve/limit 0.1
run 20000
Generated 28 of 28 mixed pair_coeff terms from sixthpower/geometric mixing rule
Per MPI rank memory allocation (min/avg/max) = 27.14 | 27.58 | 27.9 Mbytes
   Step          Temp          PotEng         E_vdwl         E_coul         E_bond        E_angle        E_dihed        E_impro        Density         Volume    
        41   0              11507.828     -730.74418     -363.95181      245.94988      16102.449     -3670.6387     -75.235541      0.44999999     97670.155    
       100   162.25246      12907.13      -752.75987     -335.41235      931.05397      16824.967     -3677.9417     -82.776648      0.44999999     97670.155    
       200   262.30487      13939.767     -956.54633     -335.92654      1508.2013      17375.537     -3560.4637     -91.034771      0.44999999     97670.155    
       300   291.48269      14211.878     -1010.902      -276.539        1698.3152      17528.411     -3646.9605     -80.446932      0.44999999     97670.155    
       400   301.12019      14252.97      -1054.8582     -255.3128       1726.4369      17597.729     -3661.8341     -99.190726      0.44999999     97670.155    
       500   301.44467      14256.149     -1030.4397     -327.36783      1744.2459      17650.506     -3685.2013     -95.594453      0.44999999     97670.155    
       600   303.90224      14243.731     -1055.9612     -260.37536      1854.6163      17481.734     -3672.4508     -103.83173      0.44999999     97670.155    
       700   300.15603      14352.919     -1055.6182     -232.12703      1860.0041      17596.127     -3721.4113     -94.056254      0.44999999     97670.155    
       800   303.88861      14182.564     -1075.3761     -303.09335      1845.8618      17573.925     -3751.0542     -107.6991       0.44999999     97670.155    
       900   301.93167      14174.746     -1041.7914     -320.47431      1861.6481      17480.851     -3716.9361     -88.55155       0.44999999     97670.155    
      1000   298.37275      13832.514     -1069.7376     -486.21029      1789.8299      17460.534     -3767.0241     -94.878417      0.44999999     97670.155    
      1100   296.59043      14075.258     -1049.4004     -323.65934      1840.3153      17452.093     -3743.215      -100.87596      0.44999999     97670.155    
      1200   300.61147      13988.291     -1033.7734     -416.55471      1835.2628      17485.552     -3795.9947     -86.200174      0.44999999     97670.155    
      1300   305.12965      13892.563     -1064.7244     -408.21914      1793.505       17467.395     -3796.6444     -98.748739      0.44999999     97670.155    
      1400   298.5657       13745.88      -1093.5423     -508.79076      1731.4323      17465.098     -3752.8391     -95.478103      0.44999999     97670.155    
      1500   297.71123      13856.689     -1038.5534     -436.3475       1806.6635      17461.118     -3835.8261     -100.36601      0.44999999     97670.155    
      1600   305.2042       13768.011     -1058.6076     -447.10918      1772.4651      17363.552     -3766.2507     -96.038873      0.44999999     97670.155    
      1700   301.57837      13941.16      -1072.8584     -379.87185      1868.9286      17474.924     -3858.2002     -91.762952      0.44999999     97670.155    
      1800   294.71738      13892.769     -1046.856      -458.29125      1853.3551      17455.007     -3805.1863     -105.25999      0.44999999     97670.155    
      1900   301.30944      13858.453     -1082.6971     -431.00404      1862.6915      17419.833     -3815.3824     -94.987238      0.44999999     97670.155    
      2000   301.00094      13836.348     -1052.0762     -388.71521      1856.1767      17349.99      -3832.1681     -96.8596        0.44999999     97670.155    
      2100   296.45064      13843.193     -1068.2638     -403.69087      1816.5642      17455.385     -3859.5263     -97.275422      0.44999999     97670.155    
      2200   298.4936       13751.63      -1077.7353     -387.43194      1770.6411      17422.687     -3883.5872     -92.944295      0.44999999     97670.155    
      2300   302.23892      13834.636     -1037.35       -445.74635      1874.9735      17415.287     -3875.7271     -96.801054      0.44999999     97670.155    
      2400   306.32749      13916.223     -1088.2591     -387.50365      1858.5376      17444.649     -3821.8359     -89.365228      0.44999999     97670.155    
      2500   301.84492      13811.558     -1005.5467     -418.63327      1793.6941      17400.247     -3865.9174     -92.285559      0.44999999     97670.155    
      2600   303.09142      13704.633     -1061.7422     -445.23627      1832.0638      17372.705     -3896.3903     -96.766822      0.44999999     97670.155    
      2700   302.11764      13924.058     -1071.7986     -383.63229      1803.0992      17454.139     -3790.3414     -87.408535      0.44999999     97670.155    
      2800   301.38407      13814.05      -1097.5719     -352.68472      1807.5317      17440.289     -3886.2182     -97.295819      0.44999999     97670.155    
      2900   303.1558       13809.618     -1049.8312     -443.3819       1855.3001      17402.074     -3858.9667     -95.577159      0.44999999     97670.155    
      3000   305.72555      13709.195     -1084.2629     -479.25506      1812.7439      17431.877     -3880.8193     -91.088892      0.44999999     97670.155    
      3100   304.45038      13758.113     -1081.9471     -410.07887      1801.6302      17378.06      -3824.1505     -105.40062      0.44999999     97670.155    
      3200   304.447        13813.245     -1070.6615     -384.0436       1818.9554      17437.798     -3895.0121     -93.790716      0.44999999     97670.155    
      3300   302.58578      13862.077     -1050.0146     -358.77231      1800.1867      17411.385     -3841.3655     -99.342199      0.44999999     97670.155    
      3400   305.43102      13620.698     -1059.7479     -519.5873       1784.0446      17377.632     -3873.7397     -87.904398      0.44999999     97670.155    
      3500   302.69088      13708.978     -1073.8959     -448.6013       1827.3591      17338.288     -3839.0628     -95.109103      0.44999999     97670.155    
      3600   298.74772      13672.416     -1083.993      -452.19466      1778.2159      17381.088     -3846.9166     -103.78387      0.44999999     97670.155    
      3700   303.50664      13666.683     -1102.9        -401.00106      1759.0999      17325.861     -3814.9882     -99.388674      0.44999999     97670.155    
      3800   295.74135      13748.488     -1082.1661     -444.4492       1801.1052      17479.408     -3906.7213     -98.688839      0.44999999     97670.155    
      3900   300.37495      13814.201     -1062.5683     -333.51459      1803.5039      17347.307     -3839.5443     -100.98333      0.44999999     97670.155    
      4000   309.53026      13646.042     -1056.7533     -462.4948       1796.037       17345.838     -3884.2068     -92.378345      0.44999999     97670.155    
      4100   303.77699      13723.914     -1094.6221     -391.29737      1788.9733      17464.686     -3939.6657     -104.16009      0.44999999     97670.155    
      4200   295.27056      13731.984     -1096.0334     -431.90343      1859.7192      17425.638     -3930.0922     -95.343984      0.44999999     97670.155    
      4300   299.7468       13667.743     -1086.116      -472.13722      1848.5728      17382.517     -3907.9054     -97.187553      0.44999999     97670.155    
      4400   301.00503      13631.584     -1063.6709     -499.21658      1832.4586      17345.61      -3884.9046     -98.692229      0.44999999     97670.155    
      4500   300.01206      13750.73      -1068.6453     -397.63452      1842.3894      17352.012     -3878.655      -98.736056      0.44999999     97670.155    
      4600   303.44461      13632.047     -1085.8302     -458.77794      1774.3927      17464.28      -3961.74       -100.2772       0.44999999     97670.155    
      4700   299.82066      13503.741     -1055.0916     -565.20683      1781.5687      17401.82      -3970.004      -89.345562      0.44999999     97670.155    
      4800   294.46087      13633.15      -1067.0432     -490.12018      1818.9919      17378.876     -3906.7366     -100.818        0.44999999     97670.155    
      4900   298.85062      13676.82      -1078.252      -433.9001       1832.7268      17406.989     -3951.9921     -98.751577      0.44999999     97670.155    
      5000   298.33679      13788.585     -1090.6422     -366.51354      1791.5998      17484.196     -3934.2022     -95.853633      0.44999999     97670.155    
      5100   303.53584      13646.931     -1101.0706     -421.22287      1803.8913      17402.608     -3930.9985     -106.27574      0.44999999     97670.155    
      5200   299.72614      13799.071     -1048.6838     -330.00118      1822.1807      17408.614     -3950.396      -102.64263      0.44999999     97670.155    
      5300   298.94867      13834.412     -1073.5513     -366.54957      1829.5988      17397.669     -3860.4924     -92.262295      0.44999999     97670.155    
      5400   300.48471      13812.238     -1056.228      -288.21434      1812.8709      17346.18      -3904.8687     -97.502108      0.44999999     97670.155    
      5500   293.37564      13710.599     -1085.2329     -375.15586      1825.7299      17335.897     -3889.2481     -101.39156      0.44999999     97670.155    
      5600   295.27626      13726.331     -1089.3727     -338.81225      1788.6611      17375.221     -3912.8802     -96.485858      0.44999999     97670.155    
      5700   302.90031      13639.42      -1087.6175     -441.60239      1773.0438      17413.291     -3925.9941     -91.701324      0.44999999     97670.155    
      5800   295.87745      13592.019     -1092.7056     -414.76336      1791.3004      17321.436     -3920.0116     -93.237025      0.44999999     97670.155    
      5900   300.26684      13522.051     -1115.5985     -462.54732      1778.3539      17331.054     -3907.2049     -102.00592      0.44999999     97670.155    
      6000   301.78092      13604.088     -1081.3624     -434.48445      1741.5722      17350.379     -3874.1415     -97.875447      0.44999999     97670.155    
      6100   298.19662      13736.567     -1111.3173     -314.63566      1837.2266      17334.833     -3912.0454     -97.494108      0.44999999     97670.155    
      6200   300.30092      13667.875     -1109.438      -352.53334      1795.9512      17419.7       -3992.5141     -93.290806      0.44999999     97670.155    
      6300   302.42184      13661.442     -1098.6347     -431.57062      1810.766       17369.182     -3885.1221     -103.17853      0.44999999     97670.155    
      6400   304.20806      13687.45      -1079.3216     -421.26316      1830.1971      17368.201     -3913.4423     -96.920524      0.44999999     97670.155    
      6500   300.35703      13770.857     -1088.7129     -331.77094      1834.5773      17388.456     -3928.2917     -103.40054      0.44999999     97670.155    
      6600   298.84533      13600.63      -1112.0835     -377.28566      1785.2743      17389.624     -3992.8723     -92.027229      0.44999999     97670.155    
      6700   296.67598      13592.783     -1137.9203     -398.19364      1851.7058      17356.453     -3982.5914     -96.670927      0.44999999     97670.155    
      6800   298.93514      13677.459     -1097.6808     -343.43562      1804.1903      17367.537     -3948.1935     -104.95777      0.44999999     97670.155    
      6900   303.54377      13639.573     -1129.3918     -482.7658       1843.7766      17453.175     -3946.971      -98.249535      0.44999999     97670.155    
      7000   301.38535      13623.697     -1108.5862     -423.60247      1853.3163      17345.217     -3948.7561     -93.89233       0.44999999     97670.155    
      7100   298.4038       13631.776     -1095.059      -415.62408      1811.4563      17396.979     -3967.1838     -98.792884      0.44999999     97670.155    
      7200   300.87753      13668.866     -1107.1189     -393.4001       1803.4056      17328.059     -3871.1788     -90.900789      0.44999999     97670.155    
      7300   297.26815      13756.717     -1102.3507     -267.86873      1790.3462      17402.903     -3966.7682     -99.54437       0.44999999     97670.155    
      7400   301.1849       13732.219     -1112.5459     -333.96158      1784.0236      17472.801     -3980.7079     -97.390014      0.44999999     97670.155    
      7500   300.54451      13654.3       -1105.8154     -379.62022      1832.2339      17258.076     -3852.1123     -98.462458      0.44999999     97670.155    
      7600   302.53431      13700.243     -1089.3132     -350.05752      1782.3582      17394.77      -3933.3988     -104.11608      0.44999999     97670.155    
      7700   299.64084      13576.993     -1123.2328     -402.60332      1791.053       17282.642     -3869.7533     -101.11211      0.44999999     97670.155    
      7800   300.73396      13460.307     -1128.9584     -508.25247      1814.8171      17352.373     -3965.7244     -103.94747      0.44999999     97670.155    
      7900   292.74245      13470.409     -1124.5267     -431.24817      1818.1704      17282.816     -3972.5397     -102.26346      0.44999999     97670.155    
      8000   299.29387      13509.666     -1128.6969     -403.00582      1832.1489      17261.903     -3956.4482     -96.234902      0.44999999     97670.155    
      8100   304.57727      13601.121     -1113.6021     -443.90611      1865.0373      17374.402     -3978.2269     -102.58318      0.44999999     97670.155    
      8200   301.62676      13545.51      -1110.0448     -470.09312      1811.5924      17368.928     -3960.03       -94.842654      0.44999999     97670.155    
      8300   301.31961      13525.159     -1145.901      -478.55306      1823.3437      17351.991     -3933.522      -92.199572      0.44999999     97670.155    
      8400   299.87977      13458.36      -1122.6964     -477.87093      1763.0971      17319.961     -3926.3458     -97.784266      0.44999999     97670.155    
      8500   301.69705      13460.852     -1109.8421     -540.36267      1812.5746      17334.264     -3928.9037     -106.87902      0.44999999     97670.155    
      8600   294.98807      13549.886     -1131.9795     -448.39121      1828.4136      17333.124     -3930.0317     -101.24976      0.44999999     97670.155    
      8700   301.47768      13421.432     -1126.6273     -533.77357      1840.7255      17311.395     -3969.8266     -100.46086      0.44999999     97670.155    
      8800   302.61255      13462.379     -1116.7082     -517.47654      1777.9603      17398.919     -3984.1603     -96.155374      0.44999999     97670.155    
      8900   302.18068      13554.855     -1135.3458     -527.99815      1797.7597      17508.276     -3979.7171     -108.11997      0.44999999     97670.155    
      9000   296.56601      13560.75      -1117.2152     -459.54113      1793.4854      17409.041     -3967.4418     -97.577923      0.44999999     97670.155    
      9100   297.35982      13523.841     -1088.4233     -455.70463      1783.2752      17333.091     -3948.378      -100.01917      0.44999999     97670.155    
      9200   301.92808      13518.032     -1115.7079     -460.24833      1790.896       17322.639     -3919.9396     -99.606939      0.44999999     97670.155    
      9300   303.97592      13566.54      -1122.2222     -469.35056      1779.4573      17426.208     -3949.9396     -97.612771      0.44999999     97670.155    
      9400   297.58765      13625.213     -1106.9774     -413.58809      1799.0787      17390.832     -3946.3836     -97.748892      0.44999999     97670.155    
      9500   296.84773      13557.266     -1141.385      -412.4862       1794.6897      17318.015     -3900.3725     -101.19497      0.44999999     97670.155    
      9600   295.59428      13497.553     -1149.2354     -386.68591      1794.3161      17248.031     -3908.3277     -100.54558      0.44999999     97670.155    
      9700   298.7748       13512.225     -1117.3601     -353.23658      1727.5466      17332.596     -3975.078      -102.24295      0.44999999     97670.155    
      9800   299.76101      13561.381     -1123.9446     -360.75494      1824.3568      17315.399     -3991.0359     -102.63942      0.44999999     97670.155    
      9900   302.97674      13617.474     -1117.1585     -380.70321      1792.3628      17361.112     -3934.273      -103.8656       0.44999999     97670.155    
     10000   301.68256      13660.505     -1158.3859     -340.41511      1791.9169      17391.277     -3918.2623     -105.62529      0.44999999     97670.155    
     10100   295.15762      13612.879     -1126.5155     -372.5434       1792.6204      17392.676     -3970.922      -102.43664      0.44999999     97670.155    
     10200   297.11659      13604.085     -1095.7419     -394.34173      1808.9973      17304.17      -3915.0166     -103.983        0.44999999     97670.155    
     10300   300.41098      13483.039     -1115.1381     -449.55059      1729.301       17342.153     -3927.1322     -96.593728      0.44999999     97670.155    
     10400   303.9033       13394.251     -1117.4222     -498.01035      1776.4113      17315         -3985.8469     -95.880885      0.44999999     97670.155    
     10500   297.32504      13538.31      -1101.2589     -504.59665      1791.3604      17370.574     -3911.2016     -106.56736      0.44999999     97670.155    
     10600   296.64756      13457.429     -1117.6254     -568.32336      1815.8505      17380.113     -3958.2        -94.386238      0.44999999     97670.155    
     10700   305.33817      13360.68      -1113.9074     -541.4961       1804.6941      17338.893     -4016.5578     -110.94646      0.44999999     97670.155    
     10800   297.24726      13384.569     -1141.3285     -513.63887      1748.195       17310.356     -3920.6066     -98.407376      0.44999999     97670.155    
     10900   305.32732      13530.611     -1145.3318     -411.44884      1834.119       17266.267     -3910.1791     -102.81577      0.44999999     97670.155    
     11000   300.59124      13539.479     -1112.0909     -496.62348      1820.0004      17409.95      -3983.7717     -97.984748      0.44999999     97670.155    
     11100   299.97405      13505.234     -1109.9639     -451.24058      1793.7551      17299.199     -3930.807      -95.709378      0.44999999     97670.155    
     11200   301.08584      13556.686     -1139.0128     -389.91872      1777.2889      17344.299     -3928.0704     -107.89919      0.44999999     97670.155    
     11300   294.42738      13552.818     -1145.3597     -436.71225      1735.1566      17449.776     -3951.5959     -98.447042      0.44999999     97670.155    
     11400   301.26919      13412.151     -1165.7295     -517.67517      1765.5187      17322.915     -3895.9832     -96.894712      0.44999999     97670.155    
     11500   298.4601       13494.119     -1138.9038     -441.0839       1809.3817      17305.666     -3936.0681     -104.87317      0.44999999     97670.155    
     11600   297.33202      13464.865     -1148.6909     -465.56676      1776.8309      17249.423     -3846.9674     -100.16365      0.44999999     97670.155    
     11700   298.15101      13446.959     -1137.2765     -468.73264      1775.1795      17298.964     -3913.346      -107.82908      0.44999999     97670.155    
     11800   298.77655      13443.885     -1164.9236     -483.68141      1820.5428      17323.027     -3949.8076     -101.27227      0.44999999     97670.155    
     11900   302.24484      13379.922     -1155.6621     -485.65258      1774.3743      17294.306     -3962.206      -85.237506      0.44999999     97670.155    
     12000   306.62715      13428.958     -1128.704      -582.02347      1807.3348      17387.243     -3953.757      -101.13528      0.44999999     97670.155    
     12100   296.38689      13457.452     -1112.6949     -507.36771      1795.3509      17327.697     -3945.9575     -99.575368      0.44999999     97670.155    
     12200   297.5299       13492.957     -1161.1817     -442.97281      1789.3459      17321.999     -3909.0832     -105.1501       0.44999999     97670.155    
     12300   302.81754      13461.306     -1142.5221     -428.17297      1828.9467      17204.875     -3902.8845     -98.936014      0.44999999     97670.155    
     12400   309.19437      13485.055     -1160.4575     -456.01356      1804.2588      17343.699     -3944.095      -102.33692      0.44999999     97670.155    
     12500   304.22797      13521.827     -1135.0263     -505.11802      1818.8161      17341.218     -3889.3771     -108.68618      0.44999999     97670.155    
     12600   304.38312      13500.832     -1151.6669     -449.49281      1807.8344      17339.518     -3955.5202     -89.840877      0.44999999     97670.155    
     12700   302.32953      13412.55      -1135.8794     -490.02647      1731.1366      17331.942     -3927.8318     -96.790656      0.44999999     97670.155    
     12800   303.43601      13514.134     -1146.2474     -457.16262      1772.1837      17318.846     -3873.0662     -100.41926      0.44999999     97670.155    
     12900   296.76051      13599.282     -1159.0824     -337.12442      1792.2112      17362.44      -3957.5776     -101.58519      0.44999999     97670.155    
     13000   300.41321      13467.832     -1147.4721     -456.28751      1784.6733      17306.191     -3916.7917     -102.48051      0.44999999     97670.155    
     13100   299.93791      13699.577     -1156.0842     -397.51855      1866.2581      17371.884     -3885.322      -99.640223      0.44999999     97670.155    
     13200   304.80469      13592.839     -1153.7165     -396.67606      1772.1294      17387.967     -3930.544      -86.321019      0.44999999     97670.155    
     13300   300.00377      13511.582     -1136.7801     -433.03812      1775.8286      17317.231     -3907.2106     -104.44805      0.44999999     97670.155    
     13400   299.48667      13476.166     -1117.7605     -452.52529      1786.1796      17245.648     -3884.1395     -101.23669      0.44999999     97670.155    
     13500   304.13051      13476.423     -1157.7426     -439.76805      1799.5886      17316.735     -3947.989      -94.401558      0.44999999     97670.155    
     13600   300.35465      13546.613     -1143.5495     -459.46566      1852.7463      17358.675     -3963.5304     -98.262424      0.44999999     97670.155    
     13700   296.7575       13560.951     -1172.5393     -373.53649      1792.5522      17380.398     -3968.4165     -97.506057      0.44999999     97670.155    
     13800   304.26387      13461.486     -1144.2215     -472.15657      1848.7228      17330.917     -3997.0462     -104.72889      0.44999999     97670.155    
     13900   297.45341      13553.11      -1158.0618     -383.35507      1800.1859      17399.343     -4003.0293     -101.97266      0.44999999     97670.155    
     14000   298.23573      13474.316     -1152.0052     -402.29835      1803.3059      17216.573     -3893.1192     -98.139526      0.44999999     97670.155    
     14100   297.33563      13525.383     -1182.3201     -364.60139      1837.8715      17297.078     -3955.268      -107.37656      0.44999999     97670.155    
     14200   302.82109      13516.125     -1145.6367     -469.9919       1817.4048      17352.62      -3937.0011     -101.27072      0.44999999     97670.155    
     14300   299.54469      13406.07      -1169.1511     -572.32578      1794.1577      17400.074     -3941.0722     -105.61248      0.44999999     97670.155    
     14400   303.30962      13467.998     -1166.1436     -506.731        1860.4974      17262.095     -3880.7861     -100.93411      0.44999999     97670.155    
     14500   297.10176      13382.778     -1188.6266     -536.83082      1804.4345      17314.39      -3912.8509     -97.738288      0.44999999     97670.155    
     14600   302.60079      13348.038     -1162.6903     -508.06396      1801.2711      17329.41      -3999.0793     -112.80925      0.44999999     97670.155    
     14700   297.6898       13557.938     -1147.4494     -460.05893      1841.6723      17353.077     -3926.1078     -103.19531      0.44999999     97670.155    
     14800   298.47554      13441.446     -1142.2356     -421.14906      1780.44        17267.689     -3935.9921     -107.30653      0.44999999     97670.155    
     14900   295.69022      13608.2       -1138.1716     -434.59322      1860.9205      17366.961     -3959.0164     -87.900383      0.44999999     97670.155    
     15000   291.85639      13509.72      -1152.0158     -445.63222      1849.911       17297.97      -3938.5776     -101.93485      0.44999999     97670.155    
     15100   299.63691      13449.611     -1161.0596     -400.05926      1754.9986      17310.052     -3950.1419     -104.17909      0.44999999     97670.155    
     15200   301.11807      13449.962     -1135.9559     -429.07704      1777.0424      17288.467     -3947.8641     -102.64997      0.44999999     97670.155    
     15300   296.31697      13521.886     -1191.7024     -470.48219      1818.4367      17391.249     -3931.3528     -94.262495      0.44999999     97670.155    
     15400   295.78255      13432.552     -1185.7937     -437.81215      1805.7561      17327.46      -3974.4536     -102.60483      0.44999999     97670.155    
     15500   293.58907      13365.489     -1163.0693     -524.30766      1737.0479      17352.473     -3939.2654     -97.389543      0.44999999     97670.155    
     15600   304.97407      13317.173     -1175.2367     -524.67867      1735.7484      17368.828     -3991.5793     -95.908559      0.44999999     97670.155    
     15700   293.47788      13665.555     -1176.63       -377.95897      1845.6022      17428.305     -3961.0226     -92.740095      0.44999999     97670.155    
     15800   301.82752      13445.099     -1179.0973     -523.33096      1780.076       17411.335     -3931.8073     -112.07564      0.44999999     97670.155    
     15900   302.59317      13486.695     -1183.717      -453.26882      1763.1721      17378.678     -3927.136      -91.033333      0.44999999     97670.155    
     16000   296.76666      13450.191     -1194.1226     -452.52861      1834.975       17332.735     -3966.4642     -104.4031       0.44999999     97670.155    
     16100   302.15057      13517.416     -1176.5856     -387.92325      1773.3514      17387.747     -3967.3251     -111.84772      0.44999999     97670.155    
     16200   297.22056      13588.998     -1169.1146     -364.09024      1806.3321      17410.379     -3990.9952     -103.51293      0.44999999     97670.155    
     16300   298.74167      13609.448     -1164.122      -305.90628      1817.4013      17273.927     -3911.3032     -100.54887      0.44999999     97670.155    
     16400   301.8103       13563.336     -1167.481      -411.57778      1824.5322      17392.865     -3964.2656     -110.73631      0.44999999     97670.155    
     16500   304.34135      13394.947     -1192.4325     -409.53755      1808.6922      17305.713     -4009.1845     -108.30356      0.44999999     97670.155    
     16600   295.92594      13449.38      -1197.3829     -436.25401      1779.6135      17333.23      -3935.2        -94.626945      0.44999999     97670.155    
     16700   297.10947      13427.189     -1181.4358     -467.11228      1767.3803      17307.481     -3890.217      -108.90713      0.44999999     97670.155    
     16800   294.71611      13626.149     -1160.4833     -323.88358      1835.4778      17291.074     -3907.425      -108.61133      0.44999999     97670.155    
     16900   306.05377      13507.163     -1173.5357     -412.17364      1745.3629      17365.332     -3911.8001     -106.0225       0.44999999     97670.155    
     17000   296.8687       13478.938     -1179.4512     -427.63953      1772.1458      17391.161     -3974.4334     -102.84553      0.44999999     97670.155    
     17100   297.89907      13480.429     -1191.5829     -431.03607      1825.3167      17354.892     -3970.7902     -106.37044      0.44999999     97670.155    
     17200   298.76096      13544.44      -1174.0265     -384.52239      1831.3657      17312.704     -3947.6675     -93.413157      0.44999999     97670.155    
     17300   300.24309      13633.079     -1168.9332     -336.93561      1829.9816      17305.345     -3886.8421     -109.53651      0.44999999     97670.155    
     17400   300.51431      13579.075     -1158.8763     -382.64368      1835.0885      17288.307     -3910.5752     -92.226061      0.44999999     97670.155    
     17500   297.14798      13476.292     -1180.1198     -444.56896      1791.6113      17287.038     -3870.7689     -106.89939      0.44999999     97670.155    
     17600   305.18023      13458.709     -1176.9403     -386.7021       1797.6341      17271.174     -3938.178      -108.27836      0.44999999     97670.155    
     17700   294.98771      13423.672     -1150.9339     -481.63691      1790.8441      17298.997     -3921.8824     -111.71621      0.44999999     97670.155    
     17800   301.26289      13439.707     -1167.4234     -426.05625      1739.5238      17352.794     -3953.7588     -105.37186      0.44999999     97670.155    
     17900   307.82957      13353.31      -1183.0328     -496.23543      1805.507       17280.494     -3943.043      -110.37986      0.44999999     97670.155    
     18000   297.48525      13475.788     -1177.493      -502.18421      1811.6684      17416.43      -3969.4735     -103.15921      0.44999999     97670.155    
     18100   307.06804      13549.598     -1152.0087     -431.42779      1865.4079      17314.445     -3951.8051     -95.013837      0.44999999     97670.155    
     18200   308.18145      13381.636     -1176.1522     -376.49003      1775.3995      17152.072     -3901.067      -92.126122      0.44999999     97670.155    
     18300   300.16715      13523.352     -1176.2672     -337.5822       1762.9419      17289.767     -3915.6069     -99.901073      0.44999999     97670.155    
     18400   296.53277      13448.98      -1155.3802     -412.82674      1783.2091      17334.89      -3994.1701     -106.74214      0.44999999     97670.155    
     18500   304.31862      13556.381     -1155.9426     -435.26178      1832.4112      17313.092     -3896.9388     -100.97974      0.44999999     97670.155    
     18600   299.4734       13499.507     -1158.3109     -474.52284      1784.4538      17391.076     -3939.4877     -103.70168      0.44999999     97670.155    
     18700   300.74746      13423.081     -1168.1745     -463.85083      1789.6357      17361.526     -3997.6294     -98.426008      0.44999999     97670.155    
     18800   296.72912      13411.847     -1145.2536     -455.96407      1780.3059      17278.35      -3931.8546     -113.73698      0.44999999     97670.155    
     18900   290.95655      13389.591     -1181.9992     -468.42418      1851.0714      17240.701     -3960.2581     -91.499569      0.44999999     97670.155    
     19000   294.82917      13237.46      -1166.1988     -589.5832       1834.1352      17230.864     -3973.7567     -98.000463      0.44999999     97670.155    
     19100   299.94074      13397.354     -1169.007      -449.21799      1786.7944      17300.171     -3963.0356     -108.3503       0.44999999     97670.155    
     19200   303.65795      13375.787     -1169.3229     -488.41059      1767.2816      17417.742     -4047.2142     -104.28921      0.44999999     97670.155    
     19300   299.43954      13524.815     -1175.4336     -426.68033      1839.6259      17329.328     -3950.9664     -91.057583      0.44999999     97670.155    
     19400   309.05059      13424.657     -1173.6917     -539.75007      1796.3799      17365.807     -3925.1668     -98.92187       0.44999999     97670.155    
     19500   301.59401      13441.729     -1192.4582     -470.03286      1771.9471      17357.607     -3920.2478     -105.08652      0.44999999     97670.155    
     19600   299.34348      13401.169     -1175.3881     -474.6432       1788.3057      17353.225     -3981.8941     -108.43626      0.44999999     97670.155    
     19700   300.08967      13490.527     -1202.6154     -410.8829       1847.108       17333.924     -3970.9763     -106.03071      0.44999999     97670.155    
     19800   305.11066      13548.298     -1194.2299     -320.47566      1778.7896      17370.896     -3981.0409     -105.64164      0.44999999     97670.155    
     19900   302.26935      13535.35      -1173.8485     -431.36512      1844.9544      17314.859     -3918.3321     -100.91803      0.44999999     97670.155    
     20000   300.87487      13499.125     -1200.5489     -449.61851      1808.3671      17410.433     -3971.6723     -97.835417      0.44999999     97670.155    
     20041   297.25208      13588.362     -1188.9797     -355.73591      1813.5765      17339.456     -3921.0991     -98.856338      0.44999999     97670.155    
Loop time of 173.365 on 6 procs for 20000 steps with 4984 atoms

Performance: 9.967 ns/day, 2.408 hours/ns, 115.364 timesteps/s, 574.972 katom-step/s
98.5% CPU use with 6 MPI tasks x no OpenMP threads

MPI task timing breakdown:
Section |  min time  |  avg time  |  max time  |%varavg| %total
---------------------------------------------------------------
Pair    | 26.058     | 42.665     | 60.578     | 176.7 | 24.61
Bond    | 37.39      | 50.806     | 69.598     | 148.5 | 29.31
Neigh   | 5.2991     | 5.3135     | 5.3495     |   0.8 |  3.06
Comm    | 29.043     | 66.095     | 96.978     | 265.3 | 38.12
Output  | 0.21984    | 0.24072    | 0.27393    |   3.6 |  0.14
Modify  | 0.75551    | 1.0016     | 1.2355     |  16.9 |  0.58
Other   |            | 7.243      |            |       |  4.18

Nlocal:        830.667 ave        1079 max         605 min
Histogram: 1 1 0 0 1 1 1 0 0 1
Nghost:        6053.67 ave        6325 max        5762 min
Histogram: 1 0 0 2 0 0 1 0 1 1
Neighs:         165721 ave      239767 max      103544 min
Histogram: 1 1 0 1 1 0 0 1 0 1

Total # of neighbors = 994326
Ave neighs/atom = 199.50361
Ave special neighs/atom = 10.44382
Neighbor list builds = 653
Dangerous builds = 0
unfix Langevin
unfix moveLimit


fix 		relax all npt temp 300.0 300.0 100 iso 1.0 1.0 1000
run 10000
Generated 28 of 28 mixed pair_coeff terms from sixthpower/geometric mixing rule
Per MPI rank memory allocation (min/avg/max) = 27.5 | 27.64 | 27.9 Mbytes
   Step          Temp          PotEng         E_vdwl         E_coul         E_bond        E_angle        E_dihed        E_impro        Density         Volume    
     20041   297.25208      13588.362     -1188.9797     -355.73591      1813.5765      17339.456     -3921.0991     -98.856338      0.44999999     97670.155    
     20100   294.67774      13613.891     -1180.5921     -383.96721      1802.346       17403.414     -3917.2392     -110.07102      0.45016057     97635.315    
     20200   300.9649       13448.231     -1213.1671     -424.67572      1784.281       17371.218     -3973.937      -95.48818       0.45142369     97362.123    
     20300   296.99701      13286.378     -1225.2416     -519.29597      1690.4093      17336.173     -3882.3138     -113.35335      0.45381416     96849.267    
     20400   297.62037      13244.232     -1238.662      -506.98829      1767.5075      17277.248     -3953.5422     -101.33027      0.45753102     96062.491    
     20500   301.42655      13142.625     -1254.9662     -559.76563      1715.9715      17236.695     -3888.7191     -106.59118      0.46180881     95172.652    
     20600   306.01241      13260.923     -1245.4143     -470.01975      1753.0263      17273.395     -3939.9275     -110.13694      0.4663803      94239.764    
     20700   307.73167      13277.066     -1263.8411     -541.11064      1738.7167      17395.257     -3952.728      -99.227855      0.4692414      93665.157    
     20800   305.0025       13338.717     -1248.1592     -504.44023      1785.5116      17320.76      -3909.6848     -105.27036      0.4714198      93232.335    
     20900   303.72895      13321.203     -1277.9148     -463.07497      1762.6526      17391.033     -3987.448      -104.04436      0.47304072     92912.866    
     21000   300.64045      13264.904     -1282.7633     -501.23349      1781.6522      17331.012     -3954.5291     -109.23387      0.47537481     92456.664    
     21100   299.44053      13086.593     -1316.293      -633.72374      1801.9994      17259.592     -3922.5072     -102.47405      0.47781646     91984.209    
     21200   297.35456      13142.603     -1272.0502     -567.64884      1731.0099      17289.779     -3938.5385     -99.948765      0.48098444     91378.359    
     21300   299.09754      13208.481     -1275.5201     -490.2509       1773.6809      17184.071     -3882.752      -100.7479       0.48453681     90708.421    
     21400   296.62483      13341.218     -1276.9341     -490.60233      1819.5326      17324.987     -3940.8728     -94.89207       0.48858698     89956.489    
     21500   304.09111      13322.218     -1301.0708     -463.8681       1815.9414      17345.876     -3974.2263     -100.43391      0.49258179     89226.947    
     21600   299.28532      13373.31      -1286.3212     -439.26741      1775.9985      17350.535     -3926.692      -100.94312      0.49636905     88546.152    
     21700   299.27118      13358.113     -1309.3727     -360.26503      1746.394       17338.89      -3951.5437     -105.98985      0.49993311     87914.898    
     21800   294.7941       13296.615     -1332.2599     -478.39313      1785.4556      17405.218     -3977.0506     -106.35456      0.50343087     87304.079    
     21900   299.35576      13286.838     -1354.1199     -399.97458      1779.9669      17294.29      -3923.1298     -110.19386      0.50662335     86753.935    
     22000   301.73405      13225.595     -1327.5559     -415.92979      1766.32        17264.831     -3965.6727     -96.397608      0.50953045     86258.965    
     22100   297.64389      13037.836     -1363.8168     -567.79695      1781.7024      17210.46      -3913.072      -109.64065      0.51231569     85790.012    
     22200   292.7871       13075.379     -1387.863      -515.12449      1739.8129      17313.077     -3972.4839     -102.03948      0.51504777     85334.936    
     22300   299.15617      13183.758     -1370.3346     -409.26072      1709.7041      17287.04      -3923.4094     -109.9813       0.51808376     84834.87     
     22400   301.36394      13173.292     -1376.1238     -456.56067      1755.6584      17273.172     -3928.2522     -94.601393      0.52071505     84406.181    
     22500   305.33216      13107.4       -1406.1305     -472.57023      1751.5256      17278.299     -3934.9572     -108.7667       0.52337876     83976.6      
     22600   300.70747      13127.146     -1348.8283     -472.79421      1738.3742      17287.552     -3976.9326     -100.22521      0.52554684     83630.165    
     22700   295.3279       13139.1       -1386.2956     -464.38466      1716.189       17321.074     -3941.6347     -105.84802      0.52718357     83370.521    
     22800   293.53134      13145.557     -1392.8391     -387.3861       1702.0803      17245.169     -3924.3062     -97.160735      0.52893894     83093.842    
     22900   299.42581      13046.084     -1398.3402     -452.70662      1726.3951      17185.243     -3910.5177     -103.9896       0.53116122     82746.193    
     23000   302.9058       13136.75      -1390.4786     -460.31415      1754.8032      17242.929     -3908.6065     -101.58294      0.5338213      82333.861    
     23100   305.55073      13017.202     -1413.87       -589.00703      1772.5245      17235.494     -3889.1721     -98.767483      0.53639191     81939.284    
     23200   302.57518      13142.502     -1408.6314     -485.89818      1749.762       17374.586     -3983.2947     -104.02191      0.53889742     81558.321    
     23300   297.79305      13058.397     -1384.0647     -541.21314      1802.0034      17235.749     -3954.9606     -99.116862      0.54164535     81144.552    
     23400   299.12563      12904.308     -1406.0197     -652.15471      1773.6022      17201.967     -3920.0579     -93.028302      0.54435514     80740.615    
     23500   296.01672      13182.658     -1417.5099     -466.12786      1789.5499      17333.9       -3962.0158     -95.13806       0.54774966     80240.248    
     23600   299.52603      13169.745     -1416.2697     -486.11723      1776.3048      17357.482     -3964.8977     -96.75719       0.551237       79732.618    
     23700   300.15537      13108.146     -1421.4286     -536.07989      1759.8106      17286.609     -3879.2512     -101.5142       0.55484773     79213.749    
     23800   300.37584      13128.015     -1458.543      -491.23902      1754.113       17357.348     -3937.1342     -96.529846      0.55791965     78777.596    
     23900   298.91013      13199.197     -1405.9031     -396.3778       1738.3209      17331.488     -3964.6205     -103.71087      0.56144158     78283.423    
     24000   297.36377      13033.917     -1427.0478     -481.4204       1766.1385      17238.222     -3955.9991     -105.97558      0.56428668     77888.723    
     24100   299.21132      12892.903     -1431.5097     -566.80041      1679.3762      17296.153     -3975.5274     -108.7879       0.56663265     77566.248    
     24200   305.59008      13018.396     -1450.5988     -461.26768      1689.145       17311.833     -3967.7263     -102.98965      0.56814364     77359.96     
     24300   303.04723      13093.942     -1468.7194     -498.38662      1765.2484      17336.498     -3938.0747     -102.62375      0.57045655     77046.304    
     24400   299.20404      13133.732     -1435.2935     -491.58444      1761.3713      17324.167     -3916.4809     -108.447        0.57297034     76708.28     
     24500   298.70821      13117.467     -1431.3802     -477.35199      1759.3303      17316.86      -3941.5858     -108.40484      0.57520963     76409.654    
     24600   299.19389      13026.584     -1466.7399     -495.66064      1740.3011      17294.761     -3946.2664     -99.811082      0.5775935      76094.293    
     24700   295.41576      13048.464     -1476.8635     -425.52727      1739.3508      17236.253     -3915.6849     -109.06364      0.58050362     75712.824    
     24800   292.00669      13116.58      -1459.7507     -410.56738      1747.1213      17333.289     -3992.9892     -100.52316      0.58389704     75272.806    
     24900   303.15671      13079.036     -1502.3568     -418.74426      1786.3199      17292.917     -3983.2393     -95.860412      0.58772101     74783.049    
     25000   299.86625      13073.817     -1449.6178     -514.48414      1777.0146      17312.437     -3947.0705     -104.46166      0.5914969      74305.662    
     25100   303.53237      13010.636     -1493.3781     -488.91806      1794.696       17261.364     -3963.6234     -99.504815      0.59461656     73915.817    
     25200   299.44672      12890.416     -1506.7993     -565.15427      1749.5096      17323.046     -4010.535      -99.651486      0.59849756     73436.505    
     25300   293.64964      12985.005     -1508.0041     -492.37714      1693.9242      17329.062     -3929.0745     -108.52529      0.60175138     73039.415    
     25400   296.36493      13033.465     -1505.894      -454.44454      1709.3142      17335.984     -3944.8142     -106.67978      0.60482031     72668.804    
     25500   303.9143       12878.015     -1525.5669     -558.56926      1691.5255      17383.904     -4015.9034     -97.374383      0.60753881     72343.64     
     25600   300.45086      12918.638     -1521.6856     -566.14196      1712.5727      17317.126     -3919.4308     -103.80203      0.61066251     71973.583    
     25700   295.06505      13023.463     -1519.1486     -492.57003      1762.9021      17400.126     -4032.619      -95.226743      0.61391292     71592.514    
     25800   296.05391      13016.92      -1522.8845     -380.09682      1695.7141      17293.305     -3970.3723     -98.745439      0.6173872      71189.634    
     25900   297.47349      13066.67      -1505.4564     -326.2348       1737.1604      17210.043     -3937.2085     -111.63398      0.6206407      70816.446    
     26000   299.10414      12888.045     -1519.8896     -609.94802      1759.2841      17360.646     -3995.8007     -106.24631      0.62310981     70535.832    
     26100   299.89957      13071.596     -1514.686      -418.53575      1741.2112      17291.969     -3923.2358     -105.12716      0.62541367     70275.997    
     26200   299.64326      13052.966     -1537.4286     -390.46307      1752.0475      17296.819     -3967.3161     -100.69342      0.62728886     70065.917    
     26300   294.67866      13196.269     -1550.9062     -320.89503      1731.7476      17403.835     -3972.7299     -94.782118      0.62869545     69909.157    
     26400   297.78428      12999.213     -1554.8244     -456.45469      1763.1613      17290.707     -3937.7399     -105.63552      0.63017196     69745.358    
     26500   294.68186      12934.084     -1552.3519     -525.07698      1754.4092      17314.072     -3956.4938     -100.47393      0.63296501     69437.596    
     26600   298.73711      12886.866     -1556.0904     -570.54794      1711.3897      17351.687     -3951.2385     -98.334041      0.63577949     69130.208    
     26700   304.25874      12799.153     -1576.2098     -648.30429      1718.2056      17335.004     -3926.2144     -103.32763      0.63895114     68787.057    
     26800   299.79295      12941.069     -1556.7295     -578.8892       1764.2284      17355.88      -3940.5812     -102.83912      0.6423005      68428.358    
     26900   298.54105      12851.154     -1619.8609     -561.11876      1751.4599      17286.112     -3897.7016     -107.73677      0.64531858     68108.327    
     27000   294.21837      12843.204     -1623.5425     -551.17205      1738.3597      17307.671     -3918.8284     -109.2836       0.64893479     67728.791    
     27100   293.954        12894.402     -1610.7511     -514.50403      1750.4887      17352.067     -3979.6782     -103.22031      0.65315033     67291.658    
     27200   301.30408      12802.865     -1594.619      -558.90539      1678.5435      17361.331     -3980.767      -102.71833      0.6572024      66876.762    
     27300   305.06582      12837.267     -1604.8037     -582.56362      1734.5495      17366.344     -3977.7928     -98.465964      0.66013433     66579.735    
     27400   301.98569      12916.577     -1614.0444     -535.48289      1769.795       17313.061     -3913.2602     -103.49154      0.66226339     66365.693    
     27500   300.21634      12851.531     -1625.0946     -458.29791      1688.7172      17341.554     -3994.4222     -100.92562      0.66437796     66154.465    
     27600   293.39093      12912.438     -1639.4998     -452.86421      1746.1388      17288.784     -3922.5327     -107.58752      0.66689122     65905.154    
     27700   300.00612      12746.365     -1622.4305     -569.85858      1725.5447      17309.224     -3993.4921     -102.62181      0.67029381     65570.602    
     27800   299.05135      12812.434     -1613.028      -616.12001      1772.8854      17319.407     -3950.924      -99.786108      0.67317878     65289.593    
     27900   308.80418      12715.421     -1666.3681     -579.43941      1690.9052      17298.983     -3930.2154     -98.444372      0.67593593     65023.276    
     28000   300.64571      12845.072     -1669.5487     -451.06336      1739.7331      17273.805     -3950.1366     -97.71828       0.67950924     64681.341    
     28100   296.21101      12766.312     -1625.5981     -556.16725      1704.5681      17342.527     -3992.0588     -106.95811      0.68274652     64374.65     
     28200   302.15155      12683.442     -1663.7271     -565.40548      1681.5344      17226.956     -3897.7094     -98.205623      0.68451074     64208.735    
     28300   301.98194      12855.197     -1668.9339     -459.00171      1691.9059      17362.095     -3968.9632     -101.90564      0.6864991      64022.763    
     28400   300.9396       12967.073     -1644.61       -395.58414      1775.7607      17286.712     -3950.0194     -105.18575      0.68857593     63829.662    
     28500   308.66262      12832.312     -1695.4861     -413.62398      1714.9184      17267.942     -3936.2055     -105.23237      0.68988602     63708.45     
     28600   298.58149      12849.042     -1675.5993     -422.32207      1667.3553      17283.924     -3903.3433     -100.97341      0.69113813     63593.031    
     28700   299.19663      12726.834     -1690.1037     -502.23122      1694.5853      17269.722     -3932.7372     -112.40127      0.6924844      63469.399    
     28800   296.01514      12730.712     -1645.0022     -603.18169      1714.0438      17309.311     -3943.8069     -100.65198      0.69509259     63231.244    
     28900   305.52213      12786.077     -1678.138      -510.99755      1712.5571      17295.821     -3934.735      -98.431164      0.69656029     63098.011    
     29000   300.21654      12857.635     -1685.0128     -514.80146      1745.8691      17361.296     -3947.6569     -102.05929      0.69858054     62915.536    
     29100   302.43871      12812.965     -1686.677      -487.58789      1749.5463      17332.164     -3998.8526     -95.627742      0.70045874     62746.834    
     29200   300.20155      12798.099     -1680.815      -491.52337      1706.2931      17327.74      -3961.6885     -101.90727      0.70218031     62592.995    
     29300   299.3515       12940.62      -1704.6558     -347.12459      1738.7312      17311.609     -3954.0626     -103.87702      0.7034857      62476.848    
     29400   294.40791      12845.437     -1656.2731     -421.77421      1716.3006      17302.192     -3993.5177     -101.49031      0.70394797     62435.82     
     29500   292.52524      12777.331     -1691.1963     -443.00441      1657.3775      17306.029     -3956.1715     -95.703259      0.70374312     62453.994    
     29600   301.26739      12880.736     -1662.7328     -366.29384      1751.3914      17157.697     -3898.17       -101.15557      0.7040399      62427.667    
     29700   305.03885      12772.407     -1667.4461     -497.90322      1756.414       17239.827     -3955.9624     -102.5216       0.7047573      62364.12     
     29800   298.73924      13016.222     -1686.5625     -319.0082       1788.034       17278.773     -3940.4796     -104.53519      0.70610993     62244.655    
     29900   299.54288      12902.521     -1693.1904     -369.45204      1746.0483      17226.356     -3910.5413     -96.699472      0.70737614     62133.237    
     30000   292.4515       12988.158     -1709.2697     -331.0737       1750.2656      17356.709     -3978.2655     -100.20821      0.70940226     61955.778    
     30041   294.66525      12951.874     -1667.8274     -335.89664      1707.9019      17367.78      -4016.2865     -103.79762      0.71053527     61856.984    
Loop time of 78.2704 on 6 procs for 10000 steps with 4984 atoms

Performance: 11.039 ns/day, 2.174 hours/ns, 127.762 timesteps/s, 636.767 katom-step/s
99.1% CPU use with 6 MPI tasks x no OpenMP threads

MPI task timing breakdown:
Section |  min time  |  avg time  |  max time  |%varavg| %total
---------------------------------------------------------------
Pair    | 15.134     | 26.108     | 34.964     | 119.5 | 33.36
Bond    | 13.903     | 23.672     | 30.926     | 102.8 | 30.24
Neigh   | 2.824      | 2.8386     | 2.8501     |   0.6 |  3.63
Comm    | 6.072      | 22.131     | 42.726     | 230.7 | 28.27
Output  | 0.066311   | 0.07015    | 0.073448   |   1.0 |  0.09
Modify  | 2.6738     | 2.8344     | 2.9926     |   6.6 |  3.62
Other   |            | 0.6165     |            |       |  0.79

Nlocal:        830.667 ave         940 max         610 min
Histogram: 1 0 0 0 0 0 1 2 1 1
Nghost:         7685.5 ave        7844 max        7527 min
Histogram: 1 1 0 0 0 1 1 1 0 1
Neighs:         244401 ave      294273 max      157377 min
Histogram: 1 0 0 0 0 1 0 2 1 1

Total # of neighbors = 1466404
Ave neighs/atom = 294.22231
Ave special neighs/atom = 10.44382
Neighbor list builds = 366
Dangerous builds = 0
unfix relax


molecule 	pre cleaned_pre-mol
Read molecule template pre:
  1 molecules
  0 fragments
  24 atoms with max type 7
  23 bonds with max type 11
  40 angles with max type 26
  48 dihedrals with max type 37
  24 impropers with max type 24
molecule	post cleaned_post-mol
Read molecule template post:
  1 molecules
  0 fragments
  24 atoms with max type 7
  23 bonds with max type 9
  40 angles with max type 25
  51 dihedrals with max type 40
  24 impropers with max type 21

fix		fxrct all bond/react stabilization yes statted_grp .03 		 react rxn1 all 100 0.0 10.0 pre post semi.map stabilize_steps 1000 molecule inter
dynamic group bond_react_MASTER_group defined
dynamic group statted_grp_REACT defined
fix 		1 statted_grp_REACT npt temp 300.0 300.0 100 iso 1.0 1.0 1000

fix 		4 bond_react_MASTER_group temp/rescale 1 300.0 300.0 1 1



thermo_style custom step temp pe evdwl ecoul ebond eangle edihed eimp density vol f_fxrct[1]
thermo          100


compute 1 all property/local btype batom1 batom2

compute 2 all stress/atom NULL
fix 5 all ave/atom 1 500 1000 c_2[*]


dump DumpPos all custom 1000 dump.pos id type x y z mol  f_5[*]
dump DumpBond all local 1000 bonds.dump index c_1[*]


run 200000

CITE-CITE-CITE-CITE-CITE-CITE-CITE-CITE-CITE-CITE-CITE-CITE-CITE

Your simulation uses code contributions which should be cited:

- fix bond/react: reacter.org doi:10.1016/j.polymer.2017.09.038, doi:10.1021/acs.macromol.0c02012

@Article{Gissinger17,
 author = {J. R. Gissinger and B. D. Jensen and K. E. Wise},
 title = {Modeling Chemical Reactions in Classical Molecular Dynamics Simulations},
 journal = {Polymer},
 year =    2017,
 volume =  128,
 pages =   {211--217}
}

@Article{Gissinger20,
 author = {J. R. Gissinger, B. D. Jensen, K. E. Wise},
 title = {{REACTER}: A Heuristic Method for Reactive Molecular Dynamics},
 journal = {Macromolecules},
 year =    2020,
 volume =  53,
 number =  22,
 pages =   {9953--9961}
}

CITE-CITE-CITE-CITE-CITE-CITE-CITE-CITE-CITE-CITE-CITE-CITE-CITE

Generated 28 of 28 mixed pair_coeff terms from sixthpower/geometric mixing rule
Neighbor list info ...
  update: every = 1 steps, delay = 0 steps, check = yes
  max neighbors/atom: 2000, page size: 100000
  master list distance cutoff = 12
  ghost atom cutoff = 12
  binsize = 6, bins = 7 7 7
  2 neighbor lists, perpetual/occasional/extra = 1 1 0
  (1) pair lj/class2/coul/cut, perpetual
      attributes: half, newton on
      pair build: half/bin/newton
      stencil: half/bin/3d
      bin: standard
  (2) fix bond/react, occasional, copy from (1)
      attributes: half, newton on
      pair build: copy
      stencil: none
      bin: none
Per MPI rank memory allocation (min/avg/max) = 34.42 | 34.85 | 34.98 Mbytes
   Step          Temp          PotEng         E_vdwl         E_coul         E_bond        E_angle        E_dihed        E_impro        Density         Volume       f_fxrct[1]  
     30041   294.66525      12951.874     -1667.8274     -335.89664      1707.9019      17367.78      -4016.2865     -103.79762      0.71053527     61856.984      0            
     30100   294.90499      12921.813     -1685.0381     -369.73204      1762.549       17310.375     -3998.3914     -97.948957      0.71042889     61866.246      0            
     30200   301.14354      12894.006     -1701.6432     -414.98626      1793.8881      17231.525     -3907.3534     -107.42476      0.7103116      61876.462      0            
     30300   298.51172      12980.012     -1671.4553     -414.58873      1722.4707      17435.032     -3985.3618     -106.08567      0.71109394     61808.386      0            
     30400   304.56852      12799.592     -1719.0159     -492.27241      1724.8923      17327.697     -3942.84       -98.868987      0.71174923     61751.481      0            
     30500   295.33648      192564.84      309.83525     -533.93984      179573.34      17237.678     -3917.1444     -104.91968      0.71342        61606.864      1            
     30600   304.48122      12730.928     -1806.3778     -487.76775      1700.0755      17443.663     -4025.0345     -93.63104       0.76947685     57118.767      1            
     30700   300.33624      12589.162     -1779.574      -558.65688      1716.9545      17271.437     -3951.5182     -109.48031      0.76994928     57083.72       1            
     30800   300.15541      97959.13       726.57421     -473.86881      84651.514      17131.531     -3976.8674     -99.752915      0.76727856     57282.415      2            
     30900   305.8754       12521.6       -1891.0993     -326.75362      1670.0685      17170.884     -3994.5374     -106.96317      0.79876161     55024.639      2            
     31000   299.87433      12456.218     -1858.8777     -373.22232      1616.4968      17102.52      -3919.041      -111.65796      0.79686502     55155.601      2            
     31100   300.29929      64014.463      224.89392     -405.56686      51147.141      17056.13      -3909.5685     -98.565981      0.79360668     55382.055      3            
     31200   298.57883      12371.193     -1845.3365     -380.50468      1610.4598      17054.248     -3959.8733     -107.80042      0.81573533     53879.693      3            
     31300   305.95646      12326.385     -1833.7392     -426.95694      1632.5498      16978.002     -3914.9183     -108.55149      0.81340458     54034.081      3            
     31400   307.27527      12259.008     -1830.9968     -551.35798      1650.8705      16989.768     -3895.539      -103.73652      0.80821208     54381.232      3            
     31500   304.43804      12308.373     -1843.9644     -459.01026      1641.468       16926.343     -3856.921      -99.542448      0.80332165     54712.292      3            
     31600   300.3419       79626.009      551.2865      -493.23013      66651.613      16883.217     -3865.2429     -101.63449      0.7991923      54994.986      4            
     31700   303.32017      303956.33      449.2867      -244.41684      291087.41      16750.767     -3991.6208     -95.101407      0.82706661     53141.51       5            
     31800   312.95825      12439.137     -1901.424      -220.10836      1643.1156      16979.125     -3987.0815     -74.489271      0.88996779     49385.572      5            
     31900   306.9271       12162.521     -1904.4366     -301.57608      1589.8463      16746.334     -3871.1767     -96.470132      0.88316828     49765.792      5            
     32000   299.73633      12092.809     -1914.9041     -305.9682       1614.6976      16698.622     -3905.6334     -94.004207      0.8749379      50233.929      5            
     32100   301.36848      11970.237     -1916.7137     -287.88072      1545.2347      16643.274     -3922.0574     -91.619241      0.8668515      50702.536      5            
     32200   295.22429      12057.077     -1921.212      -307.9354       1568.8909      16655.626     -3848.1684     -90.123374      0.85863155     51187.927      5            
     32300   301.36737      11890.343     -1889.1027     -505.14834      1631.1359      16596.89      -3849.8405     -93.591656      0.85152685     51615.012      5            
     32400   298.57801      12077.561     -1874.7906     -416.37198      1632.2188      16697.403     -3862.9374     -97.961123      0.84504744     52010.771      5            
     32500   298.43495      12180.767     -1862.2598     -368.87161      1644.3108      16721.015     -3855.1807     -98.247158      0.8392155      52372.208      5            
     32600   306.35682      12097.352     -1904.4731     -366.55498      1631.8076      16767.629     -3930.3692     -100.68819      0.8329031      52769.126      5            
     32700   304.148        12070.16      -1856.0672     -417.72569      1630.5085      16663.349     -3849.8023     -100.10217      0.8277816      53095.61       5            
     32800   295.64419      12118.691     -1838.0547     -394.90055      1623.8589      16805.264     -3986.5463     -90.931105      0.82353324     53369.514      5            
     32900   293.53639      111223.18      212.86888     -500.72703      98861.021      16642.556     -3886.0185     -106.51795      0.81945468     53635.143      6            
     33000   295.89834      12077.028     -1901.0911     -415.82001      1665.5465      16726.754     -3911.6781     -86.683489      0.85431008     51446.857      6            
     33100   301.6134       11917.493     -1891.7023     -494.23053      1656.0965      16643.689     -3895.5714     -100.78777      0.85187443     51593.953      6            
     33200   300.02241      11806.506     -1874.1072     -502.97173      1588.5921      16646.505     -3944.0772     -107.4342       0.84806178     51825.905      6            
     33300   295.33329      11764.589     -1857.4813     -571.79519      1628.2938      16598.46      -3935.4709     -97.417613      0.84263908     52159.424      6            
     33400   297.6014       11770.624     -1885.682      -590.15616      1627.7995      16637.123     -3928.3714     -90.089379      0.83831165     52428.674      6            
     33500   299.64921      11838.667     -1834.3038     -593.46756      1631.7401      16666.987     -3925.2258     -107.06313      0.83468655     52656.376      6            
     33600   301.53732      11938.825     -1885.2261     -465.44632      1675.4289      16633.565     -3925.4357     -94.060954      0.83060137     52915.358      6            
     33700   301.36618      11836.132     -1836.5311     -553.62156      1603.6912      16679.167     -3957.235      -99.33909       0.82614336     53200.898      6            
     33800   301.1787       11897.314     -1839.1024     -461.53851      1649.8395      16568.045     -3922.0634     -97.866118      0.82188524     53476.528      6            
     33900   297.68724      11945.713     -1854.2354     -459.73728      1643.267       16615.665     -3910.7797     -88.467327      0.81740001     53769.964      6            
     34000   300.33759      11899.191     -1855.5759     -539.56834      1635.1284      16716.396     -3958.2742     -98.915238      0.81400457     53994.253      6            
     34100   303.33921      11918.588     -1833.6354     -556.99431      1655.7644      16682.891     -3935.3902     -94.047315      0.81112739     54185.779      6            
     34200   308.27298      11903.115     -1805.1056     -484.70709      1585.7304      16635.187     -3929.1981     -98.792292      0.80872705     54346.604      6            
     34300   298.31277      11997.604     -1829.6807     -426.60094      1644.235       16633.508     -3934.9343     -88.922565      0.80635105     54506.742      6            
     34400   295.66215      11954.27      -1803.9572     -490.27272      1655.2184      16614.473     -3923.7835     -97.407783      0.80432153     54644.278      6            
     34500   297.98388      11960.373     -1813.3289     -461.25234      1655.6743      16715.917     -4039.2064     -97.430401      0.80193859     54806.652      6            
     34600   299.80567      12007.149     -1799.4631     -453.5385       1688.9643      16567.241     -3907.3248     -88.730078      0.79990466     54946.009      6            
     34700   302.93506      12122.518     -1770.3292     -402.68638      1639.2756      16650.438     -3905.0592     -89.120874      0.79831227     55055.61       6            
     34800   297.69911      12213.041     -1828.7455     -428.95562      1787.5422      16808.234     -4028.0441     -96.989494      0.79602641     55213.707      6            
     34900   304.59293      11982.252     -1773.5804     -498.44945      1651.0092      16599.856     -3901.1108     -95.472977      0.79515462     55274.242      6            
     35000   303.35541      12032.839     -1805.9113     -423.15762      1653.344       16611.473     -3907.839      -95.069863      0.79387853     55363.09       6            
     35100   294.43964      54186.95       1039.1402     -331.85672      40896.426      16681.217     -3997.6272     -100.34819      0.79322633     55408.611      7            
     35200   302.64248      11761.773     -1850.105      -486.86266      1618.4378      16588.809     -4014.3497     -94.156216      0.81541762     53900.686      7            
     35300   298.81412      11696.392     -1803.8957     -534.06344      1638.0924      16499.249     -4015.0728     -87.91716       0.81732332     53775.009      7            
     35400   300.84295      11486.689     -1859.0939     -597.84191      1588.7532      16495.962     -4043.4402     -97.649938      0.8155293      53893.304      7            
     35500   291.91351      11595.06      -1824.3146     -625.47627      1622.8272      16518.494     -4004.6371     -91.832935      0.81347717     54029.259      7            
     35600   293.01616      11693.274     -1858.7169     -586.64595      1625.8348      16525.166     -3918.4647     -93.898524      0.81123106     54178.853      7            
     35700   295.1962       11811.174     -1830.9585     -540.3901       1675.3327      16584.206     -3989.1424     -87.87377       0.80949737     54294.888      7            
     35800   299.56342      11879.243     -1780.0641     -502.63379      1716.964       16518.745     -3976.3596     -97.408535      0.80702963     54460.911      7            
     35900   302.2607       11919.571     -1813.8905     -422.59391      1671.1685      16513.494     -3933.4172     -95.190406      0.80336162     54709.57       7            
     36000   298.32274      11844.034     -1806.2293     -480.47482      1644.7948      16529.145     -3945.3181     -97.884228      0.80065129     54894.77       7            
     36100   295.1907       11897.684     -1827.5074     -406.29732      1659.8218      16575.837     -4011.4205     -92.749194      0.79899888     55008.299      7            
     36200   301.81622      11829.924     -1801.8688     -453.83659      1670.2553      16430.576     -3924.911      -90.290521      0.79769408     55098.276      7            
     36300   306.04974      11774.547     -1781.2298     -593.38573      1649.6634      16528.547     -3929.7249     -99.322175      0.79590913     55221.842      7            
     36400   300.7781       12001.933     -1792.7325     -422.45645      1689.531       16578.59      -3947.9233     -103.07591      0.79380351     55368.323      7            
     36500   304.94361      11782.608     -1831.8235     -494.70831      1688.2049      16527.269     -4020.0171     -86.316452      0.79230854     55472.795      7            
     36600   299.25143      11856.568     -1774.1783     -445.22896      1657.4874      16591.628     -4073.9321     -99.208147      0.79162785     55520.493      7            
     36700   293.1157       11858.103     -1798.7223     -517.63626      1699.7808      16557.033     -3997.8468     -84.504699      0.79063433     55590.261      7            
     36800   301.38939      11840.856     -1813.3656     -556.67707      1638.3308      16573.839     -3902.1428     -99.129036      0.7901929      55621.316      7            
     36900   302.57857      12004.808     -1808.3787     -427.50075      1701.0702      16590.126     -3961.3349     -89.174427      0.79051467     55598.676      7            
     37000   305.5902       11880.281     -1783.2462     -459.54637      1668.0979      16494.338     -3936.3141     -103.04833      0.79086173     55574.277      7            
     37100   294.81683      12001.591     -1795.5095     -397.72127      1653.7583      16599.612     -3963.7209     -94.828387      0.78962904     55661.034      7            
     37200   297.593        11884.471     -1811.7409     -453.36993      1634.7209      16619.175     -4005.3829     -98.930409      0.78862265     55732.065      7            
     37300   298.23223      11837.619     -1808.0272     -532.99311      1643.4515      16555.418     -3921.6836     -98.546636      0.78895835     55708.351      7            
     37400   308.31692      11815.208     -1801.7146     -544.65888      1664.6469      16589.451     -3990.2749     -102.24184      0.79027848     55615.292      7            
     37500   306.29942      11949.887     -1758.9876     -413.83807      1680.7528      16542.049     -3995.8224     -104.26647      0.79074355     55582.583      7            
     37600   302.70946      11797.51      -1799.1587     -515.37521      1682.5429      16511.706     -3982.8798     -99.325315      0.78954391     55667.035      7            
     37700   297.90811      11916.689     -1803.4164     -448.19111      1659.0674      16582.961     -3976.6015     -97.130592      0.78808749     55769.911      7            
     37800   296.94413      11958.959     -1781.6971     -451.50244      1674.5998      16633.433     -4031.8876     -83.986112      0.78770323     55797.117      7            
     37900   301.26194      12038.169     -1798.4116     -381.10334      1720.1888      16561.293     -3959.914      -103.88417      0.7888606      55715.254      7            
     38000   304.79885      11857.066     -1795.9202     -605.36634      1747.6921      16572.753     -3963.7644     -98.328193      0.79003545     55632.401      7            
     38100   302.2475       11903.972     -1794.929      -541.64         1687.2185      16592.919     -3951.4488     -88.147592      0.79147152     55531.46       7            
     38200   300.25178      128146.1       284.88289     -580.12407      116105.28      16427.505     -4000.3038     -91.146746      0.79254876     55455.981      8            
     38300   300.06653      11781.223     -1884.9699     -500.51804      1706.489       16551.07      -4007.5921     -83.255147      0.8318676      52834.813      8            
     38400   296.00347      11829.34      -1868.1987     -411.03974      1699.8735      16472.512     -3959.896      -103.91084      0.83059391     52915.833      8            
     38500   297.03952      11633.311     -1868.3098     -532.55809      1675.8692      16400.343     -3945.1887     -96.844597      0.82859019     53043.796      8            
     38600   295.46925      11629.069     -1902.48       -539.76758      1698.5764      16385.412     -3915.984      -96.6884        0.82710023     53139.35       8            
     38700   295.69717      11732.339     -1855.4367     -476.64073      1662.5313      16462.191     -3969.5279     -90.778168      0.82483888     53285.036      8            
     38800   301.97415      11789.432     -1846.061      -445.1017       1686.2262      16491.201     -3998.0289     -98.803395      0.82245737     53439.327      8            
     38900   303.84053      11655.6       -1864.1013     -542.44423      1668.7317      16409.024     -3922.644      -92.965685      0.81956966     53627.618      8            
     39000   297.43893      11594.118     -1852.1569     -600.65914      1726.2648      16400.935     -3986.7827     -93.482638      0.81775807     53746.42       8            
     39100   295.05329      11623.644     -1843.5648     -575.34346      1632.5014      16468.24      -3961.3266     -96.862003      0.81604352     53859.344      8            
     39200   296.72219      11654.524     -1810.6199     -529.26234      1678.2042      16408.013     -3996.698      -95.112029      0.81375755     54010.643      8            
     39300   298.79523      11479.023     -1899.4543     -697.41882      1678.3801      16379.448     -3901.6089     -80.323163      0.81127937     54175.627      8            
     39400   300.50284      11596.912     -1824.5249     -583.91667      1679.1604      16404.171     -3981.554      -96.424211      0.81020713     54247.324      8            
     39500   304.82997      11708.242     -1820.6647     -465.18532      1649.2828      16400.792     -3969.1901     -86.792715      0.80857092     54357.098      8            
     39600   302.01861      11639.369     -1802.1148     -584.36703      1672.5669      16400.96      -3956.0511     -91.625001      0.80696266     54465.431      8            
     39700   302.15751      11730.729     -1874.5275     -441.55497      1674.9841      16412.258     -3946.6387     -93.791684      0.80464366     54622.401      8            
     39800   295.98426      11659.202     -1820.8614     -518.62695      1680.2507      16433.725     -4016.3096     -98.975166      0.80406865     54661.463      8            
     39900   295.40283      11579.184     -1862.0496     -604.93983      1669.0042      16488.882     -4021.2407     -90.471513      0.80338085     54708.26       8            
     40000   306.01377      11542.092     -1834.869      -635.04824      1652.3494      16465.278     -4004.8281     -100.79035      0.80354382     54697.165      8            
     40100   303.74693      11619.449     -1840.7325     -601.93319      1675.4646      16462.579     -3976.86       -99.068657      0.80331084     54713.029      8            
     40200   300.71784      11527.558     -1858.0595     -675.41933      1748.4217      16370.688     -3959.0507     -99.021342      0.8031172      54726.22       8            
     40300   303.73187      11422.78      -1848.7271     -686.41244      1676.8557      16377.562     -3993.2911     -103.20724      0.80298393     54735.303      8            
     40400   299.95277      11569.47      -1803.4069     -614.68577      1674.4827      16419.441     -4008.7583     -97.603206      0.80317019     54722.61       8            
     40500   298.24091      11766.366     -1796.0162     -584.65293      1746.412       16483.474     -3993.4828     -89.367847      0.80215518     54791.853      8            
     40600   306.10833      11749.591     -1836.5513     -524.80065      1736.9878      16491.742     -4017.6391     -100.14852      0.80156023     54832.522      8            
     40700   299.43943      11802.375     -1840.8774     -460.66342      1748.0133      16475.996     -4024.7976     -95.29613       0.80183516     54813.721      8            
     40800   294.58266      11765.389     -1849.0787     -515.81136      1735.8739      16470.224     -3978.2573     -97.561641      0.80274495     54751.598      8            
     40900   297.57848      11749.68      -1830.2741     -500.2324       1709.787       16447.501     -3968.2763     -108.82526      0.80325349     54716.935      8            
     41000   301.54618      11648.695     -1865.2347     -609.13911      1750.6893      16512.905     -4048.9513     -91.573812      0.80301277     54733.338      8            
     41100   302.95624      11675.153     -1846.3669     -506.32798      1683.7695      16437.519     -4000.6282     -92.812899      0.8033827      54708.135      8            
     41200   297.77735      11527.797     -1843.1257     -604.64737      1669.6261      16461.185     -4069.2274     -86.013719      0.80381519     54678.699      8            
     41300   299.8489       11526.125     -1855.3775     -591.32274      1664.8091      16412.261     -4007.7485     -96.496701      0.80403039     54664.064      8            
     41400   302.10676      11534.864     -1839.9295     -648.07537      1734.3395      16334.56      -3945.6055     -100.42452      0.80398479     54667.165      8            
     41500   302.7393       11545.273     -1854.7933     -668.68609      1735.0988      16429.571     -3997.8199     -98.097437      0.80333924     54711.094      8            
     41600   300.38566      11693.985     -1855.7366     -536.81244      1737.0397      16425.468     -3975.5901     -100.38411      0.80373793     54683.955      8            
     41700   298.43361      11630.6       -1865.9905     -556.15012      1694.9793      16416.907     -3969.7237     -89.421643      0.8047452      54615.509      8            
     41800   291.51932      11656.152     -1850.8253     -516.01296      1755.5225      16376.108     -4017.4031     -91.237881      0.80558119     54558.832      8            
     41900   295.3218       11721.461     -1842.6542     -406.16629      1663.9035      16426.264     -4021.2369     -98.649694      0.80700011     54462.904      8            
     42000   298.14998      11871.491     -1839.2797     -278.07162      1690.7126      16397.47      -4010.5089     -88.831565      0.80827356     54377.096      8            
     42100   299.98024      11808.67      -1854.8871     -372.32705      1717.2347      16380.032     -3958.4526     -102.93016      0.80876093     54344.327      8            
     42200   302.82956      11739.656     -1851.0577     -440.73767      1736.4476      16449.42      -4061.9768     -92.438704      0.80775223     54412.191      8            
     42300   296.9336       11726.014     -1843.0109     -542.42264      1722.0411      16464.945     -3984.3238     -91.215109      0.80588971     54537.945      8            
     42400   303.99664      11532.93      -1894.5508     -527.81422      1715.4219      16358.398     -4018.6382     -99.886314      0.80407075     54661.321      8            
     42500   294.78842      11551.101     -1855.1626     -580.77641      1724.0241      16405.268     -4041.2002     -101.05199      0.80415283     54655.741      8            
     42600   295.96646      11696.48      -1839.6157     -508.27823      1726.8814      16374.259     -3963.8826     -92.88327       0.80434067     54642.977      8            
     42700   299.81456      11726.26      -1835.1868     -510.76244      1721.9522      16455.303     -4004.0525     -100.99346      0.80355508     54696.399      8            
     42800   301.25034      11625.59      -1872.7487     -602.76733      1747.9554      16412.23      -3962.8017     -96.277588      0.80332878     54711.806      8            
     42900   300.55751      11789.076     -1840.8529     -443.08966      1740.4962      16419.991     -3987.5238     -99.945189      0.80419134     54653.124      8            
     43000   299.35927      11663.837     -1847.0653     -590.56483      1763.3133      16486.301     -4048.4592     -99.6879        0.80411724     54658.16       8            
     43100   298.63324      11804.721     -1857.4844     -420.07771      1716.23        16484.767     -4019.9135     -98.799985      0.80371165     54685.743      8            
     43200   300.87699      11627.123     -1871.7193     -510.09871      1648.3141      16492.693     -4040.2913     -91.774324      0.80390241     54672.766      8            
     43300   294.38304      11775.967     -1868.9884     -455.03759      1744.8227      16437.966     -3989.0248     -93.770172      0.80470843     54618.005      8            
     43400   296.36563      11711.796     -1839.8717     -540.35955      1734.8638      16468.254     -4011.0887     -100.0016       0.80608336     54524.844      8            
     43500   301.24164      11713.847     -1839.1243     -569.03212      1750.6651      16491.08      -4027.9797     -91.761579      0.80707205     54458.049      8            
     43600   298.06452      11827.027     -1844.619      -482.65384      1759.5257      16461.913     -3968.088      -99.050818      0.80780079     54408.92       8            
     43700   301.72137      11669.457     -1889.2327     -446.56703      1689.8389      16455.1       -4035.9479     -103.73431      0.8087726      54343.543      8            
     43800   296.53566      11797.065     -1840.4603     -375.4017       1734.4996      16396.756     -4026.4004     -91.927993      0.81023146     54245.695      8            
     43900   297.9406       11701.792     -1870.8573     -501.29977      1708.8295      16458.787     -3995.4411     -98.225971      0.81075274     54210.818      8            
     44000   301.6324       11657.373     -1885.0838     -540.07179      1754.4004      16451.272     -4027.6023     -95.541954      0.81150399     54160.632      8            
     44100   300.87919      11784.603     -1887.4344     -458.8952       1770.9981      16469.73      -4015.1702     -94.625573      0.81160478     54153.906      8            
     44200   307.86352      11658.226     -1859.8871     -458.4221       1743.5039      16355.531     -4024.7004     -97.800137      0.81101253     54193.452      8            
     44300   293.95831      11604.044     -1883.391      -597.78876      1777.4902      16489.864     -4092.1744     -89.955861      0.80946231     54297.24       8            
     44400   295.14155      11464.853     -1862.011      -688.03428      1734.4152      16364.328     -3991.3094     -92.53543       0.80862621     54353.381      8            
     44500   298.79365      11616.647     -1863.798      -531.88386      1745.6414      16369.95      -4018.5473     -84.715238      0.8084749      54363.554      8            
     44600   301.50411      217655.16     -439.92458     -487.42154      206437.17      16331.595     -4091.934      -94.32317       0.80876859     54343.813      9            
     44700   309.74047      11676.094     -1989.3847     -496.16499      1727.7514      16592.671     -4068.3566     -90.422648      0.86145615     51020.088      9            
     44800   305.25053      11627.847     -1994.9745     -429.23063      1686.8627      16444.323     -3988.2043     -90.929941      0.85874763     51181.007      9            
     44900   301.59218      11590.575     -1926.4859     -390.98303      1706.0586      16310.791     -4008.1393     -100.66559      0.85594758     51348.435      9            
     45000   295.77409      11496.558     -1945.2354     -488.4038       1659.5018      16381.635     -4021.4857     -89.453589      0.85214735     51577.428      9            
     45100   294.69988      11549.682     -1964.1047     -449.46261      1698.3642      16356.02      -4002.7254     -88.409105      0.84859754     51793.185      9            
     45200   301.17959      11460.644     -1934.8597     -494.90113      1672.2572      16332.834     -4019.4004     -95.286121      0.8457464      51967.787      9            
     45300   303.86378      11520.766     -1938.726      -500.15247      1735.4496      16361.9       -4049.9026     -87.802442      0.84232008     52179.178      9            
     45400   298.94463      11626.583     -1917.7374     -483.26404      1727.6922      16409.227     -4010.3745     -98.960381      0.83956202     52350.592      9            
     45500   302.0018       11660.329     -1891.0753     -294.84818      1735.8453      16254.129     -4050.3635     -93.358031      0.83670759     52529.187      9            
     45600   297.06055      11507.197     -1927.2275     -427.00734      1667.2538      16254.787     -3972.5276     -88.081582      0.83392219     52704.64       9            
     45700   301.84581      11540.324     -1941.755      -400.7687       1675.2692      16238.976     -3933.0351     -98.362447      0.83213992     52817.522      9            
     45800   301.52779      11444.504     -1908.797      -573.23328      1750.3911      16307.701     -4039.0406     -92.516842      0.82957952     52980.538      9            
     45900   303.85436      11449.032     -1906.1397     -570.63595      1717.9159      16348.941     -4044.902      -96.14724       0.8277102      53100.19       9            
     46000   298.99694      11532.553     -1899.7836     -502.90391      1733.7778      16355.994     -4057.3111     -97.219907      0.82566488     53231.729      9            
     46100   300.53925      11410.914     -1908.7311     -523.94262      1689.7075      16298.029     -4050.1667     -93.982011      0.82476595     53289.747      9            
     46200   295.82348      11477.197     -1902.8347     -500.83633      1681.6716      16288.989     -3998.2995     -91.493429      0.82378826     53352.993      9            
     46300   294.3149       11382.645     -1914.6677     -530.61657      1651.9118      16264.865     -3984.1137     -104.73368      0.82387285     53347.515      9            
     46400   293.63087      11453.675     -1890.7139     -508.62173      1671.83        16283.534     -4002.1053     -100.24788      0.82311114     53396.882      9            
     46500   299.15388      11505.228     -1887.523      -476.4609       1705.4255      16280.51      -4018.0491     -98.674272      0.82222        53454.755      9            
     46600   300.96405      11487.981     -1888.5354     -547.12659      1678.1793      16423.28      -4089.0688     -88.747075      0.82094619     53537.698      9            
     46700   300.96758      11505.689     -1874.8627     -550.30116      1684.8378      16303.171     -3961.8357     -95.320194      0.82013663     53590.545      9            
     46800   301.17619      11376.905     -1867.6012     -682.11355      1720.4507      16284.576     -3979.2139     -99.193086      0.81931852     53644.057      9            
     46900   302.94857      11316.517     -1889.6108     -691.99711      1667.7163      16346.005     -4018.689      -96.907714      0.81823698     53714.962      9            
     47000   298.99129      11489.89      -1902.8568     -541.57843      1680.8805      16358.377     -4006.1292     -98.802193      0.81731474     53775.574      9            
     47100   298.17527      202912.08      323.13683     -593.90448      190729.43      16612.607     -4057.9283     -101.25654      0.8175145      53762.433      10           
     47200   299.65086      11507.069     -2006.7794     -430.50579      1643.637       16477.558     -4085.9013     -90.939673      0.86445964     50842.823      10           
     47300   297.58869      11328.146     -1962.8659     -509.10503      1739.8583      16145.993     -3977.8029     -107.93115      0.86210134     50981.905      10           
     47400   298.73356      11248.91      -1925.2007     -533.06353      1653.7696      16267.959     -4116.7892     -97.765203      0.85950708     51135.785      10           
     47500   299.61733      11237.293     -1950.6736     -482.3546       1576.2622      16176.872     -3984.374      -98.439248      0.85632375     51325.879      10           
     47600   297.68053      11184.91      -1967.4294     -578.45629      1642.6886      16175.027     -3986.7241     -100.19639      0.85298193     51526.964      10           
     47700   300.82249      11367.951     -1939.9297     -472.46713      1694.3601      16204.626     -4023.7883     -94.850085      0.85001684     51706.704      10           
     47800   302.62051      11287.546     -1943.5199     -563.74759      1674.8571      16146.859     -3929.1968     -97.705853      0.84689525     51897.291      10           
     47900   300.10568      11213.34      -1960.5874     -615.53526      1709.6306      16209.91      -4042.4817     -87.596377      0.84378194     52088.777      10           
     48000   298.31158      11222.865     -1961.2294     -617.62932      1638.9341      16248.895     -3991.6253     -94.479328      0.84126926     52244.354      10           
     48100   296.73978      11296.729     -1910.3784     -536.81965      1652.4439      16202.518     -4020.168      -90.867259      0.83860779     52410.16       10           
     48200   300.0195       11348.504     -1914.3997     -454.94506      1665.7552      16185.588     -4043.0771     -90.417391      0.83556348     52601.113      10           
     48300   305.82503      11171.628     -1908.6369     -639.47496      1697.6108      16110.883     -3990.0578     -98.69594       0.83229081     52807.947      10           
     48400   302.76957      11243.515     -1905.6468     -659.45756      1728.3382      16178.575     -4004.0412     -94.251976      0.8289557      53020.407      10           
     48500   301.74301      11213.788     -1901.8182     -696.86408      1712.1013      16148.817     -3949.6051     -98.842706      0.82643632     53182.039      10           
     48600   294.28925      11233.837     -1894.7551     -640.75068      1675.0811      16224.941     -4045.8676     -84.811539      0.82493625     53278.746      10           
     48700   297.85005      11165.688     -1910.3129     -625.37684      1704.7666      16183.73      -4087.1413     -99.977562      0.82348293     53372.774      10           
     48800   298.25898      11217.782     -1938.906      -632.09316      1680.3303      16177.733     -3973.0002     -96.281653      0.82246608     53438.762      10           
     48900   297.11847      11433.795     -1906.5937     -524.77807      1768.6979      16234.303     -4038.5991     -99.234752      0.82180824     53481.538      10           
     49000   302.62305      11340.66      -1875.633      -558.13891      1728.615       16186.221     -4039.0574     -101.34677      0.82140747     53507.633      10           
     49100   302.7578       215921.37     -238.04897     -462.4353       204627.55      16093.222     -4004.1795     -94.732609      0.82060719     53559.815      11           
     49200   308.22373      11392.364     -2003.349      -422.8474       1680.4956      16385.275     -4165.9536     -81.256965      0.87163619     50424.213      11           
     49300   302.78748      11189.974     -1946.5605     -522.7328       1687.8993      16065.736     -3990.3853     -103.98244      0.86899055     50577.729      11           
     49400   300.34986      11172.252     -1970.3908     -513.93997      1660.1509      16077.735     -3985.0684     -96.234333      0.86589059     50758.802      11           
     49500   299.27587      11163.525     -2000.7965     -490.36683      1655.9174      16151.032     -4056.3614     -95.899032      0.8624331      50962.294      11           
     49600   300.18479      11140.732     -1937.7796     -460.20933      1621.5814      16071.035     -4060.3937     -93.50167       0.85901387     51165.144      11           
     49700   298.68482      11003.288     -1966.9304     -597.47126      1691.6449      16002.973     -4031.438      -95.49068       0.85575442     51360.025      11           
     49800   300.49132      11114.234     -1936.8803     -575.76681      1608.6619      16141.821     -4025.7545     -97.847747      0.85226115     51570.542      11           
     49900   302.3205       11124.968     -1957.8881     -619.31092      1691.2751      16134.869     -4030.5618     -93.41535       0.84822604     51815.868      11           
     50000   302.41201      11053.68      -1937.1101     -659.98657      1673.3878      16023.516     -3952.6303     -93.497133      0.84484575     52023.188      11           
     50100   293.04403      11146.612     -1925.8245     -646.34543      1680.7211      16157.111     -4025.616      -93.434286      0.84141521     52235.292      11           
     50200   295.13827      11097.78      -1904.5874     -710.04881      1676.4282      16109.114     -3970.1734     -102.95205      0.83841525     52422.196      11           
     50300   300.48983      11265.402     -1895.9782     -566.25501      1707.72        16128.913     -4027.8411     -81.156404      0.83574539     52589.663      11           
     50400   301.43268      11175.434     -1887.1291     -693.61296      1735.2314      16129.415     -4012.2035     -96.267117      0.83309359     52757.06       11           
     50500   300.9776       11116.5       -1891.3323     -670.84242      1754.2678      16075.414     -4060.0857     -90.921109      0.83030153     52934.467      11           
     50600   297.11443      11020.844     -1850.3807     -729.78081      1665.1419      16094.6       -4067.5896     -91.146743      0.828433       53053.861      11           
     50700   297.02684      11112.374     -1893.7732     -629.47144      1671.6261      16118.795     -4055.7656     -99.036826      0.82577727     53224.484      11           
     50800   300.83535      11023.95      -1857.3069     -743.04362      1672.5837      16091.885     -4042.7555     -97.413092      0.82377261     53354.006      11           
     50900   301.61705      11113.157     -1857.277      -713.85315      1742.851       16067.826     -4029.1594     -97.230285      0.82122033     53519.826      11           
     51000   302.89498      11147.178     -1855.4187     -645.60124      1721.0951      15972.244     -3948.7645     -96.376676      0.81960222     53625.488      11           
     51100   298.00214      11308.07      -1859.9023     -511.56812      1711.3226      16040.334     -3978.0545     -94.062055      0.8180553      53726.892      11           
     51200   299.46576      11234.93      -1846.9121     -560.44507      1731.9537      15959.892     -3964.0893     -85.46878       0.81659958     53822.669      11           
     51300   301.13958      11246.114     -1886.8219     -625.4908       1768.915       16076.022     -3995.2756     -91.234579      0.81517289     53916.868      11           
     51400   305.23658      11296.336     -1856.7675     -611.11595      1730.5634      16172.59      -4043.1312     -95.803069      0.81423722     53978.825      11           
     51500   304.58708      11263.124     -1842.4165     -548.49103      1679.8255      16083.049     -4023.9872     -84.855734      0.81337884     54035.791      11           
     51600   295.83021      11327.579     -1880.6501     -553.78926      1774.1539      16137.302     -4048.4894     -100.94806      0.812169       54116.284      11           
     51700   300.89737      11285.48      -1905.1428     -506.99382      1723.4305      16087.948     -4030.1816     -83.580209      0.81099308     54194.752      11           
     51800   295.17655      11404.508     -1867.9837     -465.63018      1678.7839      16201.109     -4043.3806     -98.390224      0.81095293     54197.435      11           
     51900   295.13007      11433.974     -1869.1925     -399.32328      1727.9756      16093.756     -4021.7435     -97.498201      0.81007382     54256.251      11           
     52000   298.97766      11218.427     -1877.677      -589.93957      1724.3428      16132.229     -4081.4054     -89.122351      0.80864254     54352.284      11           
     52100   302.4968       11252.807     -1843.6328     -570.95411      1683.5073      16098.454     -4017.6909     -96.876923      0.80838142     54369.84       11           
     52200   300.0801       306819.07      657.39704     -539.13732      294872.89      15974.159     -4057.031      -89.205178      0.80876434     54344.098      12           
     52300   311.80313      11275.93      -1968.9014     -474.01701      1677.3171      16182.376     -4057.3321     -83.512701      0.8676532      50655.687      12           
     52400   304.00764      11164.766     -1923.2023     -487.33896      1718.261       15923.632     -3961.5197     -105.06599      0.86479874     50822.888      12           
     52500   300.78737      11220.725     -1938.6227     -335.89714      1652.402       15942.252     -4005.2662     -94.142946      0.86160706     51011.152      12           
     52600   298.04359      11053.321     -1959.0461     -468.45094      1653.5439      15963.013     -4047.2788     -88.459855      0.8575948      51249.808      12           
     52700   296.61552      11032.718     -1931.3475     -516.65562      1687.6643      15928.67      -4041.1887     -94.424544      0.8535083      51495.186      12           
     52800   301.62714      10974.825     -1960.6559     -573.43139      1693.8564      15945.509     -4032.7699     -97.683207      0.85052933     51675.547      12           
     52900   300.91514      11010.039     -1932.521      -606.3455       1691.1982      15965.402     -4010.5201     -97.174575      0.84724476     51875.882      12           
     53000   297.3258       11109.788     -1919.733      -572.64692      1707.4098      16005.897     -4017.4368     -93.702089      0.84402801     52073.59       12           
     53100   296.53381      11124.052     -1908.8856     -476.50473      1690.2801      15963.352     -4057.4817     -86.708291      0.84109174     52255.38       12           
     53200   294.40488      11085.141     -1919.6963     -469.37988      1659.3733      15981.865     -4070.1703     -96.850301      0.8382279      52433.913      12           
     53300   300.58161      166305.56      138.71281     -646.46584      155183.77      15741.523     -4025.6386     -86.336597      0.83633885     52552.347      13           
     53400   302.01549      11173.295     -1999.3587     -427.94384      1663.8245      16074.288     -4049.2369     -88.278484      0.87955275     49970.362      13           
     53500   294.51372      11043.378     -1999.5597     -426.54635      1693.3989      15952.335     -4081.9139     -94.335937      0.87670682     50132.573      13           
     53600   299.34219      10922.326     -1975.3625     -425.42076      1626.4454      15884.962     -4090.1347     -98.163385      0.87365042     50307.958      13           
     53700   297.5017       10866.728     -2006.1088     -517.7792       1604.7874      15908.874     -4022.4565     -100.58963      0.87032626     50500.106      13           
     53800   302.57564      10764.766     -1991.2043     -587.86673      1567.6282      15925.295     -4057.5008     -91.585627      0.86655554     50719.852      13           
     53900   300.68849      11015.842     -1957.3324     -465.10585      1690.1974      15884.571     -4041.4877     -95.000537      0.8626551      50949.179      13           
     54000   303.30449      11031.222     -1959.6825     -401.3667       1653.8164      15879.728     -4051.032      -90.240556      0.85870671     51183.447      13           
     54100   298.32613      10877.652     -1950.1658     -491.23732      1608.3302      15871.56      -4070.6627     -90.172385      0.8553167      51386.31       13           
     54200   298.12933      10907.122     -1979.7633     -433.03622      1629.0727      15801.032     -4011.8297     -98.353956      0.85175191     51601.374      13           
     54300   292.86943      10984.772     -1900.5551     -509.60218      1664.6087      15830.982     -4010.5829     -90.078278      0.84830603     51810.983      13           
     54400   301.73353      11008.503     -1893.8403     -428.68085      1659.2362      15799.245     -4034.787      -92.670346      0.84452879     52042.712      13           
     54500   294.59866      10953.453     -1905.5586     -602.07806      1697.6051      15882.664     -4030.7612     -88.417898      0.84107909     52256.167      13           
     54600   304.12357      10852.494     -1939.8769     -585.75982      1661.3865      15836.489     -4021.3863     -98.359162      0.83735591     52488.516      13           
     54700   301.33197      11029.173     -1904.9155     -499.21433      1713.009       15869.537     -4052.5037     -96.739091      0.83476882     52651.187      13           
     54800   299.29795      11074.34      -1916.9266     -485.31362      1674.0007      15965.487     -4066.0726     -96.835078      0.83176704     52841.201      13           
     54900   301.51966      11110.365     -1894.6628     -401.33358      1645.045       15890.876     -4032.5458     -97.013951      0.82910766     53010.69       13           
     55000   298.79764      11123.915     -1913.7872     -381.36686      1682.9675      15877.162     -4050.369      -90.690864      0.82661857     53170.314      13           
     55100   295.85842      11010.722     -1883.308      -553.27754      1701.5155      15900.683     -4067.8538     -87.03771       0.82484142     53284.871      13           
     55200   302.90348      11034.501     -1884.8373     -520.07845      1724.9052      15871.431     -4064.1953     -92.724397      0.82300415     53403.824      13           
     55300   302.12466      184217.78      812.91366     -621.51853      172439.33      15716.619     -4040.2227     -89.336963      0.82225535     53452.457      14           
     55400   309.73315      10938.908     -2001.4102     -465.42659      1657.1305      15963.49      -4124.7794     -90.096282      0.86743929     50668.179      14           
     55500   302.80829      10874.089     -1970.3867     -501.29778      1672.3366      15815.121     -4036.1759     -105.50843      0.86520148     50799.23       14           
     55600   292.64564      10905.15      -1933.1032     -509.96195      1663.5933      15830.978     -4050.6794     -95.676947      0.8631555      50919.642      14           
     55700   301.73856      10779.552     -1979.7046     -473.31858      1573.4983      15746.047     -3991.3506     -95.618718      0.86008174     51101.619      14           
     55800   300.44755      10758.192     -1968.323      -550.83618      1628.0533      15804.484     -4059.7635     -95.422397      0.85721724     51272.381      14           
     55900   303.48097      10915.34      -1968.5959     -420.96         1615.9544      15732.83      -3946.333      -97.556102      0.85503779     51403.072      14           
     56000   302.92212      11037.184     -1934.4957     -384.43172      1693.5125      15788.44      -4034.4698     -91.371117      0.85181354     51597.64       14           
     56100   306.99673      10894.912     -1936.5828     -529.52324      1665.4203      15833.106     -4047.9423     -89.565651      0.84748418     51861.226      14           
     56200   300.69635      10937.808     -1917.4468     -491.06108      1652.0167      15788.96      -4004.0008     -90.659707      0.84429069     52057.389      14           
     56300   302.0681       10963.322     -1927.4147     -354.14421      1680.9735      15682.769     -4028.8594     -90.002274      0.84137064     52238.059      14           
     56400   296.71654      10860.753     -1926.1247     -494.31344      1704.2006      15662.846     -3995.9974     -89.858048      0.8394675      52356.487      14           
     56500   297.51283      10932.505     -1944.6049     -449.41382      1660.9248      15821.811     -4070.9881     -85.224315      0.83753883     52477.052      14           
     56600   297.73956      10965.697     -1945.7468     -524.76847      1744.3535      15808.211     -4020.6919     -95.660724      0.83575973     52588.761      14           
     56700   305.69932      147874.9      -320.97405     -404.90441      137041.17      15674.277     -4027.8552     -86.816283      0.83410978     52692.787      15           
     56800   308.18669      10902.022     -1988.6403     -415.30702      1696.7174      15824.113     -4121.4019     -93.459896      0.8739677      50289.695      15           
     56900   302.88607      10829.354     -1979.087      -431.76604      1636.6687      15662.668     -3965.1187     -94.011188      0.87129378     50444.029      15           
     57000   298.89728      10692.133     -1996.7224     -514.04633      1648.104       15654.971     -4008.5516     -91.621207      0.8687673      50590.727      15           
     57100   296.54617      10727.49      -1997.6473     -482.75937      1651.4929      15670.64      -4023.0066     -91.230577      0.86613908     50744.24       15           
     57200   298.34775      10674.249     -1978.9041     -518.71891      1601.1202      15673.867     -3999.6478     -103.46695      0.86293656     50932.561      15           
     57300   301.74426      10712.638     -1964.4833     -537.55298      1634.1214      15647.31      -3976.0195     -90.73748       0.85906559     51162.064      15           
     57400   304.06571      10749.59      -1968.4872     -456.31271      1627.4753      15628.74      -3978.1986     -103.62688      0.85639281     51321.74       15           
     57500   297.92857      10626.885     -1930.5986     -622.31675      1656.2631      15590.986     -3975.712      -91.736788      0.85274385     51541.35       15           
     57600   295.23675      10633.3       -1962.0883     -629.28452      1660.6685      15686.681     -4029.0936     -93.582442      0.84913683     51760.29       15           
     57700   295.47221      10596.592     -1935.1937     -596.91484      1668.2042      15540.55      -3985.536      -94.51813       0.84616748     51941.926      15           
     57800   293.09304      10659.985     -1912.2331     -531.62162      1626.4345      15603.607     -4030.6695     -95.53248       0.84322914     52122.924      15           
     57900   301.41198      10722.236     -1934.4418     -479.98317      1637.4351      15565.409     -3973.6299     -92.553841      0.84007566     52318.584      15           
     58000   306.58939      10647.671     -1960.5982     -533.00614      1627.1121      15616.203     -4010.5229     -91.51689       0.8374048      52485.451      15           
     58100   298.22409      10804.88      -1919.0505     -461.02678      1585.478       15688.916     -3990.6024     -98.834151      0.83513366     52628.185      15           
     58200   304.78893      10740.642     -1929.2767     -446.19824      1612.0092      15624.527     -4025.0735     -95.346089      0.83244459     52798.191      15           
     58300   301.3727       10816.883     -1902.4976     -530.70395      1702.7047      15675.122     -4041.0656     -86.676684      0.83057538     52917.014      15           
     58400   304.19321      10734.139     -1887.0929     -628.08437      1691.4503      15657.338     -4005.3632     -94.10866       0.82871118     53036.052      15           
     58500   301.79531      10827.597     -1888.4514     -516.0188       1697.6767      15619.419     -3994.2009     -90.827292      0.8271971      53133.128      15           
     58600   303.24706      10718.753     -1886.7707     -483.78404      1606.7243      15611.078     -4044.8215     -83.673071      0.82526155     53257.745      15           
     58700   295.73811      43709.226      471.70772     -490.75016      32244.656      15615.305     -4024.2        -107.49231      0.82389035     53346.382      16           
     58800   299.67036      10791.422     -1896.6812     -419.67864      1644.4333      15571.652     -4014.4112     -93.891673      0.84129004     52243.064      16           
     58900   302.8625       10747.422     -1903.3817     -465.51317      1657.5076      15623.536     -4063.6969     -101.0291       0.84184745     52208.472      16           
     59000   302.62372      10729.728     -1922.1949     -424.68048      1633.1691      15521.239     -3978.5742     -99.230509      0.8391238      52377.931      16           
     59100   296.86222      10649.157     -1940.1625     -477.92869      1636.8547      15520.06      -3993.9415     -95.724305      0.83614221     52564.705      16           
     59200   300.98684      10623.313     -1925.7988     -474.84669      1654.9601      15461.526     -3999.4841     -93.043459      0.83408069     52694.625      16           
     59300   298.71548      10807.675     -1899.0493     -392.46458      1678.5752      15617.32      -4101.8495     -94.856717      0.83228495     52808.319      16           
     59400   304.83188      10806.779     -1879.424      -410.46731      1708.235       15543.629     -4056.7758     -98.41732       0.82951961     52984.364      16           
     59500   303.17506      10827.916     -1907.3131     -448.64728      1669.2349      15665.316     -4061.0602     -89.613981      0.82713992     53136.801      16           
     59600   293.29295      10737.135     -1887.368      -520.94052      1685.4508      15607.467     -4046.9792     -100.49515      0.82504537     53271.699      16           
     59700   293.53185      10621.849     -1892.7455     -595.05749      1643.4645      15595.702     -4031.0783     -98.436563      0.82354115     53369.002      16           
     59800   295.52723      10784.63      -1867.138      -484.04345      1698.4522      15567.807     -4042.4592     -87.988597      0.8217642      53484.405      16           
     59900   303.74234      10683.967     -1900.1541     -555.3629       1710.7613      15591.584     -4062.7356     -100.12619      0.82009023     53593.577      16           
     60000   298.84774      10760.842     -1878.7031     -541.86836      1690.1764      15576.284     -3986.1167     -98.929495      0.81862287     53689.642      16           
     60100   299.93959      10652.386     -1869.7172     -526.31874      1695.6959      15511.947     -4075.2575     -83.964181      0.81703743     53793.825      16           
     60200   296.17401      10565.365     -1880.0569     -631.79001      1694.9735      15537.187     -4065.4975     -89.45095       0.81587453     53870.5        16           
     60300   301.29162      10662.795     -1873.4459     -586.09166      1733.2947      15554.675     -4071.4477     -94.189111      0.8153812      53903.093      16           
     60400   306.58245      10688.72      -1833.0249     -573.39301      1727.1953      15484.373     -4027.8491     -88.58108       0.81432259     53973.167      16           
     60500   300.72848      10763.798     -1849.5407     -505.20649      1685.3427      15567.466     -4043.152      -91.111072      0.81274798     54077.734      16           
     60600   295.90107      10619.622     -1851.8413     -641.86345      1748.6026      15561.177     -4105.9286     -90.523724      0.81140225     54167.423      16           
     60700   294.44696      10626.1       -1846.9811     -644.45928      1668.7066      15523.157     -3988.546      -85.776951      0.810975       54195.96       16           
     60800   302.91603      10655.102     -1882.9003     -587.22961      1731.3489      15460.1       -3984.133      -82.084834      0.81215777     54117.033      16           
     60900   308.12277      10662.886     -1871.8616     -563.03272      1684.4079      15537.63      -4034.7424     -89.515651      0.81286091     54070.221      16           
     61000   302.05707      10605.002     -1841.6397     -676.86079      1686.3147      15587.857     -4063.4545     -87.215155      0.81296295     54063.434      16           
     61100   305.40271      10582.818     -1852.6837     -622.26585      1663.8883      15446.733     -3959.3658     -93.487881      0.81215741     54117.057      16           
     61200   302.49458      10529.452     -1863.4472     -650.95322      1679.0162      15496.638     -4043.418      -88.383699      0.8120932      54121.336      16           
     61300   298.20695      10654.982     -1833.0895     -572.38073      1677.5573      15556.347     -4080.9275     -92.525436      0.81271089     54080.202      16           
     61400   293.14567      10696.969     -1891.1823     -532.11215      1663.0662      15572.845     -4022.1981     -93.44987       0.81231873     54106.309      16           
     61500   290.63193      10656.507     -1855.9864     -535.3468       1670.2434      15538.279     -4066.5868     -94.095106      0.81288643     54068.523      16           
     61600   298.76954      10709.692     -1842.577      -453.53942      1648.7649      15507.877     -4065.9157     -84.917751      0.8130019      54060.844      16           
     61700   299.16452      10696.076     -1881.4103     -568.07372      1740.2505      15510.883     -4014.7453     -90.828574      0.81159868     54154.313      16           
     61800   302.129        10839.368     -1850.0263     -418.76174      1696.3013      15605.72      -4114.0733     -79.792194      0.81113037     54185.579      16           
     61900   299.20689      10650.604     -1875.0159     -621.08718      1647.0515      15574.562     -3980.1479     -94.758618      0.81023948     54245.158      16           
     62000   298.21689      10557.881     -1887.7169     -658.91706      1671.817       15540.112     -4011.0345     -96.379557      0.80917109     54316.781      16           
     62100   300.62795      10523.028     -1859.7129     -595.13838      1617.3528      15448.62      -3995.8268     -92.267381      0.80898156     54329.507      16           
     62200   296.19702      10660.489     -1851.1195     -497.28606      1688.474       15505.565     -4101.0775     -84.06649       0.80990444     54267.598      16           
     62300   302.18557      10655.688     -1856.6352     -520.29456      1734.3742      15464.459     -4072.6202     -93.595543      0.81013443     54252.192      16           
     62400   301.51625      10867.034     -1825.8897     -401.25781      1675.3904      15570.074     -4060.5635     -90.719502      0.81020879     54247.213      16           
     62500   300.35283      10884.315     -1826.6021     -419.9032       1727.587       15507.365     -4013.9618     -90.169214      0.80882226     54340.207      16           
     62600   300.65775      10769.085     -1866.115      -468.08909      1703.8054      15566.741     -4070.7733     -96.483653      0.80775421     54412.058      16           
     62700   296.39008      10593.861     -1835.686      -587.78331      1665.0127      15563.189     -4117.3524     -93.518943      0.80731986     54441.332      16           
     62800   296.25022      10685.959     -1840.6035     -516.38513      1665.5467      15531.309     -4059.2249     -94.68369       0.80756761     54424.631      16           
     62900   298.10506      10557.822     -1852.6749     -689.44072      1713.3947      15512.149     -4032.5365     -93.06947       0.8082845      54376.36       16           
     63000   306.06353      10582.999     -1862.575      -607.25155      1709.3423      15498.703     -4070.0943     -85.124962      0.80952223     54293.22       16           
     63100   297.15257      10669.977     -1872.6202     -641.37137      1728.1953      15616.162     -4076.3976     -83.991227      0.80992699     54266.088      16           
     63200   297.28258      10690.684     -1880.2618     -605.03826      1758.2118      15580.658     -4069.4674     -93.418617      0.81153214     54158.753      16           
     63300   300.0676       10788.349     -1847.7843     -456.43863      1756.9928      15516.624     -4090.6964     -90.34783       0.81257531     54089.225      16           
     63400   301.1943       10782.995     -1849.492      -417.71507      1714.8212      15477.057     -4045.2415     -96.435467      0.81301056     54060.268      16           
     63500   297.22064      10550.65      -1901.0048     -704.7129       1767.5777      15506.602     -4029.8271     -87.984435      0.81264489     54084.594      16           
     63600   301.12419      93505.44       1142.5227     -635.59708      81734.621      15501.588     -4140.7397     -96.95479       0.81410997     53987.263      17           
     63700   307.64179      10701.66      -1954.9633     -498.01749      1756.3094      15598.313     -4114.3481     -85.6331        0.84919807     51756.558      17           
     63800   301.53929      10602.205     -1903.9352     -529.08506      1714.3203      15493.22      -4088.2717     -84.043245      0.8477266      51846.396      17           
     63900   303.70562      10453.396     -1911.3702     -564.51068      1764.6421      15321.155     -4064.588      -91.931715      0.84576211     51966.822      17           
     64000   298.8641       10481.309     -1923.5229     -518.06296      1658.4183      15464.645     -4109.8832     -90.284747      0.84450185     52044.373      17           
     64100   298.85557      10461.845     -1932.7364     -522.4123       1666.8042      15345.616     -4006.408      -89.018         0.84181587     52210.431      17           
     64200   298.16838      10474.046     -1945.1638     -538.06101      1672.3277      15388.961     -4010.8685     -93.149972      0.84027201     52306.359      17           
     64300   300.74145      147051.79      798.74632     -546.68721      135606.62      15338.115     -4053.3832     -91.622013      0.83891808     52390.776      18           
     64400   309.67961      10547.617     -1993.4854     -379.50583      1735.0918      15314.679     -4046.0733     -83.089418      0.87882548     50011.714      18           
     64500   304.58381      10481.731     -1951.2006     -415.62193      1697.4884      15251.174     -4009.8983     -90.210497      0.87594055     50176.429      18           
     64600   299.97498      10529.792     -1971.3981     -350.16722      1707.1323      15294.512     -4056.4825     -93.804477      0.87280921     50356.445      18           
     64700   299.75209      10275.714     -1950.2734     -516.60667      1663.3715      15224.431     -4054.9198     -90.288055      0.86890601     50582.65       18           
     64800   293.50015      10357.205     -1994.8158     -474.8028       1670.4758      15291.978     -4047.2864     -88.34372       0.86497666     50812.433      18           
     64900   294.46793      10395.048     -1949.5414     -450.90068      1654.5975      15281.692     -4047.3317     -93.46735       0.86180999     50999.141      18           
     65000   301.28144      54212.57       302.5674      -385.39006      43151.873      15282.387     -4055.6801     -83.18715       0.8584192      51200.589      19           
     65100   302.02688      10361.591     -1948.4038     -436.3728       1632.1328      15286.928     -4090.9098     -81.78378       0.87676818     50129.065      19           
     65200   298.85309      10359.812     -1973.1043     -428.29915      1676.4597      15278.787     -4099.8435     -94.187962      0.87379707     50299.515      19           
     65300   297.64912      10327.831     -1949.2748     -405.59081      1611.8732      15196.539     -4042.3188     -83.397387      0.86935956     50556.261      19           
     65400   299.41706      10269.192     -1998.5385     -421.16935      1667.0479      15160.504     -4037.9026     -100.74906      0.86470281     50828.525      19           
     65500   295.30453      10259.669     -1952.835      -509.28157      1586.1759      15230.597     -3999.0943     -95.893671      0.86044164     51080.244      19           
     65600   300.68592      10344.545     -1915.8672     -402.99595      1617.3589      15173.145     -4043.0977     -83.997866      0.8565135      51314.508      19           
     65700   308.13931      10224.513     -1950.9549     -476.65255      1654.4379      15156.011     -4055.8656     -102.46273      0.85203867     51584.007      19           
     65800   302.3865       10270.956     -1939.3169     -519.41544      1673.7141      15169.843     -4017.764      -96.104812      0.84834124     51808.832      19           
     65900   296.39998      10326.803     -1916.3044     -506.41305      1672.2255      15171.651     -4006.7412     -87.614518      0.84476632     52028.079      19           
     66000   292.96697      10233.688     -1973.557      -495.67882      1641.6027      15126.468     -3977.0596     -88.086742      0.84201219     52198.257      19           
     66100   294.3007       10273.948     -1928.9078     -445.12074      1643.1111      15238.951     -4144.4076     -89.677499      0.84056614     52288.055      19           
     66200   297.78092      10227.383     -1909.6859     -540.71951      1677.0612      15135.888     -4040.2453     -94.915328      0.8385902      52411.26       19           
     66300   296.39115      10168.492     -1927.2925     -676.34648      1698.8031      15201.112     -4051.776      -76.007947      0.83666896     52531.612      19           
     66400   301.90487      10279.86      -1904.1538     -531.72365      1713.9927      15140.744     -4052.4879     -86.510974      0.83483897     52646.762      19           
     66500   299.25353      10467.774     -1936.2982     -439.78131      1690.545       15212.547     -3971.3208     -87.917282      0.8325533      52791.297      19           
     66600   299.02851      10474.897     -1873.7032     -491.4961       1730.3027      15218.545     -4021.4726     -87.278533      0.83033955     52932.043      19           
     66700   303.43563      10324.071     -1905.3327     -586.21909      1724.5566      15219.724     -4041.0585     -87.599841      0.82790968     53087.396      19           
     66800   298.28461      10305.01      -1883.5631     -584.90462      1712.9619      15245.725     -4101.5192     -83.689702      0.82665139     53168.203      19           
     66900   298.02538      95801.667      13.978479     -509.98654      85313.536      15198.432     -4134.8042     -79.488819      0.82424547     53323.397      20           
     67000   297.94183      10280.488     -1999.831      -434.33569      1672.1749      15260.73      -4133.8685     -84.381653      0.85726465     51269.545      20           
     67100   299.58171      10206.258     -1956.7572     -430.38756      1613.9109      15148.034     -4077.6486     -90.893751      0.85629367     51327.682      20           
     67200   299.49134      10116.619     -1965.6225     -501.46244      1681.7945      15072.701     -4085.1839     -85.607444      0.85463816     51427.108      20           
     67300   302.05666      10113.965     -1943.0392     -474.42855      1660.8356      15106.463     -4150.7368     -85.12946       0.85269561     51544.265      20           
     67400   295.35109      10155.889     -1950.6191     -554.52695      1683.7598      15159.968     -4090.5489     -92.143778      0.85047489     51678.856      20           
     67500   298.83314      10276.54      -1933.0219     -426.38698      1713.6661      15119.037     -4114.6907     -82.063281      0.8484109      51804.578      20           
     67600   310.74177      10033.089     -1936.9764     -578.72364      1652.7472      15026.217     -4042.9391     -87.235929      0.84611497     51945.15       20           
     67700   301.13501      10038.428     -1911.9093     -675.49226      1678.8173      15158.032     -4115.9331     -95.086443      0.84432946     52054.998      20           
     67800   300.87103      10032.611     -1959.2791     -580.2372       1663.4703      15094.702     -4098.5397     -87.504506      0.84184368     52208.706      20           
     67900   299.69171      10247.976     -1966.4465     -344.53448      1665.2916      15062.798     -4075.4128     -93.719719      0.84024994     52307.732      20           
     68000   298.24312      10103.207     -1899.8386     -537.14933      1703.1257      15053.111     -4125.6164     -90.42615       0.8388363      52395.883      20           
     68100   298.26823      10238.454     -1954.5497     -440.34315      1685.3428      15153.908     -4111.5812     -94.32251       0.83660707     52535.497      20           
     68200   296.83018      10280.166     -1915.8128     -407.12767      1707.9591      15080.493     -4099.3943     -85.951043      0.83639973     52548.521      20           
     68300   296.23235      10087.119     -1928.201      -591.85491      1691.6295      15125.869     -4120.5413     -89.78203       0.83595798     52576.29       20           
     68400   298.30657      10110.37      -1890.0684     -549.20689      1657.2029      15065.904     -4079.8683     -93.593072      0.83509913     52630.361      20           
     68500   302.00544      9972.8973     -1942.861      -763.24845      1677.4847      15214.111     -4127.5001     -85.08874       0.83359609     52725.258      20           
     68600   307.21154      10217.306     -1935.4083     -461.94146      1697.6847      15133.206     -4124.9377     -91.296754      0.83292206     52767.925      20           
     68700   300.62358      10207.975     -1906.1522     -463.41757      1641.1368      15077.624     -4047.4275     -93.78874       0.83164982     52848.648      20           
     68800   302.75865      9961.3972     -1902.4315     -629.23204      1667.7336      15005.832     -4096.5749     -83.929558      0.8312898      52871.536      20           
     68900   297.78643      336744.53      509.568       -582.465        326119.39      14929.409     -4147.0702     -84.300569      0.83025946     52937.149      21           
     69000   312.91745      10208.684     -1973.3481     -581.51624      1696.0466      15340.941     -4194.0517     -79.388268      0.89326175     49203.46       21           
     69100   300.56229      10165.871     -1959.634      -460.48941      1689.5316      15079.283     -4084.1449     -98.674882      0.88931931     49421.584      21           
     69200   300.60326      9921.9932     -1989.7781     -498.62912      1625.5969      14950.593     -4083.4249     -82.365052      0.88545343     49637.358      21           
     69300   297.64403      9988.0145     -1994.4311     -398.35473      1566.5742      14975.143     -4076.7171     -84.200272      0.88156484     49856.309      21           
     69400   291.019        9989.7367     -1982.6613     -540.00753      1669.7783      14986.133     -4057.2406     -86.264952      0.87663896     50136.454      21           
     69500   303.61626      10050.947     -1991.3938     -408.10882      1600.0142      14998.001     -4063.3234     -84.242152      0.87240342     50379.868      21           
     69600   298.79409      10062.926     -1974.6615     -496.41382      1651.4309      15017.277     -4049.9917     -84.714706      0.86891126     50582.345      21           
     69700   301.6441       10057.151     -2008.7171     -399.48479      1664.3926      14949.591     -4059.7431     -88.887976      0.86521782     50798.271      21           
     69800   298.18336      10020.195     -1974.2004     -395.58651      1592.3537      14957.415     -4063.7637     -96.022458      0.86229165     50970.654      21           
     69900   298.43853      9939.9238     -1950.571      -475.36783      1599.4578      14946.075     -4099.179      -80.490558      0.85846643     51197.772      21           
     70000   306.51204      9901.7023     -1945.693      -558.25067      1631.1013      14918.254     -4058.9695     -84.739697      0.85489216     51411.828      21           
     70100   302.4268       9929.5356     -1950.5804     -586.05891      1590.5159      15048.989     -4093.6714     -79.658663      0.85253185     51554.166      21           
     70200   296.82993      10067.325     -1937.8335     -486.00423      1656.0894      14971.189     -4055.993      -80.123142      0.85015078     51698.557      21           
     70300   297.0354       9995.2632     -1943.3545     -475.85635      1634.0795      15024.537     -4166.3258     -77.816532      0.84878946     51781.473      21           
     70400   297.33659      159630         408.31761     -535.67702      149073.49      14837.227     -4061.4195     -91.937885      0.84668109     51910.418      22           
     70500   309.06707      10149.076     -1999.4352     -335.97517      1630.6666      15034.506     -4096.8512     -83.835451      0.88861853     49460.559      22           
     70600   304.0345       9934.9355     -1967.3001     -483.49912      1692.7101      14843.323     -4053.921      -96.37755       0.88550959     49634.21       22           
     70700   299.51729      10085.854     -1974.3833     -295.51617      1656.2774      14843.8       -4061.8089     -82.514982      0.88226729     49816.614      22           
     70800   297.9671       9777.6965     -1939.7398     -557.697        1617.3999      14846.352     -4100.5327     -88.085849      0.87839807     50036.049      22           
     70900   300.25943      9701.3592     -1995.4063     -574.20313      1592.8825      14841.94      -4086.3045     -77.54979       0.87363861     50308.638      22           
     71000   301.0758       9800.4844     -1985.5146     -510.08495      1601.3453      14831.803     -4054.9561     -82.107786      0.87006037     50515.539      22           
     71100   299.86713      9901.1713     -1940.7769     -516.4326       1698.621       14844.251     -4102.1243     -82.367173      0.86670661     50711.012      22           
     71200   297.63001      9948.3958     -1952.9841     -520.62049      1659.2546      14945.009     -4098.9996     -83.263726      0.86376815     50883.526      22           
     71300   297.65548      9899.2067     -1981.1615     -543.28281      1657.6557      14910.802     -4060.8509     -83.95616       0.85991612     51111.461      22           
     71400   292.36726      9789.0583     -1923.8972     -600.81767      1630.6077      14921.342     -4155.6662     -82.510399      0.8569901      51285.97       22           
     71500   296.22565      9613.6512     -1971.5073     -704.9837       1665.4882      14819.961     -4111.0168     -84.290454      0.85389042     51472.142      22           
     71600   299.96924      9635.3419     -1968.9777     -703.63826      1616.6386      14909.558     -4135.4827     -82.756427      0.85174988     51601.497      22           
     71700   301.93891      9742.2382     -1924.5577     -646.3781       1643.1608      14819.88      -4068.8338     -81.033036      0.84924487     51753.706      22           
     71800   301.4573       9791.6066     -1945.9956     -635.71226      1671.6698      14878.52      -4090.427      -86.447918      0.84623208     51937.961      22           
     71900   299.12809      9944.5701     -1910.2031     -504.52851      1654.7236      14989.385     -4199.6283     -85.178188      0.8429971      52137.272      22           
     72000   300.8354       9812.8151     -1908.5452     -584.81774      1658.4138      14806.451     -4068.8206     -89.866522      0.8397846      52336.717      22           
     72100   296.01312      9904.4949     -1901.5158     -513.69474      1663.7506      14884.014     -4145.9485     -82.110321      0.83717183     52500.057      22           
     72200   295.19399      334026.37      276.71672     -505.49361      323768.97      14694.202     -4120.1703     -87.846786      0.83525644     52620.449      23           
     72300   303.35611      10090.665     -2002.2505     -506.50433      1691.7148      15100.998     -4111.6119     -81.68045       0.89645845     49028.004      23           
     72400   299.92491      9872.5142     -2006.9338     -351.24439      1663.8088      14815.229     -4157.7615     -90.583886      0.89292029     49222.276      23           
     72500   300.45748      9702.0774     -1965.3465     -437.00069      1580.83        14740.397     -4128.3412     -88.461143      0.88912742     49432.25       23           
     72600   300.8037       9606.43       -1978.9975     -516.05267      1596.1859      14707.768     -4114.1176     -88.356388      0.88445394     49693.452      23           
     72700   297.44492      9701.1285     -1962.1013     -527.83816      1616.1433      14767.889     -4113.0933     -79.870773      0.87974608     49959.38       23           
     72800   302.07836      9667.7706     -1955.0909     -577.48846      1649.0208      14710.8       -4074.3576     -85.113215      0.87567798     50191.475      23           
     72900   301.92267      9632.5967     -1943.2116     -650.81531      1639.4836      14784.474     -4107.1836     -90.150827      0.87179145     50415.233      23           
     73000   294.89625      9633.0756     -1962.5802     -661.07217      1658.7366      14752.257     -4074.6289     -79.636362      0.86783097     50645.31       23           
     73100   295.28689      9526.8607     -1930.4765     -656.65763      1619.2333      14621.322     -4038.4479     -88.112807      0.86468377     50829.645      23           
     73200   295.19216      9760.4751     -1946.818      -467.85655      1604.1974      14776.075     -4130.1567     -74.966291      0.86131529     51028.432      23           
     73300   303.08258      9589.1942     -1938.5676     -578.99588      1585.0289      14720.539     -4120.081      -78.729202      0.85811692     51218.625      23           
     73400   302.77556      9633.8689     -1977.6436     -596.40512      1605.2515      14765.017     -4080.0118     -82.338761      0.85480919     51416.819      23           
     73500   301.37098      9761.5845     -1959.3349     -516.12796      1637.3043      14808.415     -4125.9265     -82.745501      0.85216048     51576.633      23           
     73600   301.64284      9766.948      -1932.4882     -496.77211      1613.7041      14786.826     -4121.6016     -82.720237      0.85023498     51693.438      23           
     73700   301.03024      9741.3015     -1906.3651     -518.97317      1679.2934      14686.367     -4114.5591     -84.461156      0.84780662     51841.502      23           
     73800   296.37168      9604.8739     -1945.2296     -635.85936      1635.1204      14742.513     -4119.1312     -72.539279      0.84484158     52023.444      23           
     73900   299.60623      9432.1167     -1923.4092     -763.3095       1659.8922      14669.344     -4121.0106     -89.389816      0.84262624     52160.219      23           
     74000   300.89755      9636.3803     -1908.9013     -653.65192      1675.4797      14684.763     -4077.6761     -83.63263       0.84103988     52258.602      23           
     74100   303.03895      9787.1591     -1908.81       -530.8864       1635.8193      14771.838     -4096.812      -83.989944      0.83985216     52332.507      23           
     74200   308.69405      9723.9148     -1900.1195     -529.23852      1599.9895      14700.986     -4060.5339     -87.16879       0.83818644     52436.507      23           
     74300   303.09642      9604.7587     -1921.2424     -677.35356      1660.1233      14756.918     -4127.9262     -85.760079      0.83613218     52565.336      23           
     74400   297.66313      9676.983      -1898.2702     -552.44768      1586.9313      14755.902     -4124.9078     -90.224931      0.83392892     52704.215      23           
     74500   300.75784      9630.2043     -1923.8858     -579.29147      1633.5343      14657.694     -4067.0232     -90.82379       0.83211698     52818.978      23           
     74600   301.90949      9816.3673     -1904.3517     -437.30022      1637.8192      14753.255     -4149.8982     -83.156421      0.83093844     52893.893      23           
     74700   299.36054      9799.2281     -1893.8436     -545.29816      1672.8956      14737.257     -4082.3911     -89.391746      0.82976439     52968.733      23           
     74800   296.51036      9893.8704     -1889.1227     -544.76131      1693.4352      14732.615     -4019.5163     -78.77918       0.8279387      53085.535      23           
     74900   302.52567      9735.9119     -1901.8722     -628.45638      1699.0983      14734.294     -4079.8711     -87.281096      0.82737926     53121.429      23           
     75000   302.96253      9828.5395     -1868.5469     -573.96689      1723.6774      14750.354     -4114.4134     -88.56433       0.82748902     53114.383      23           
     75100   300.75259      9864.2428     -1894.505      -516.14792      1662.947       14795.498     -4103.6027     -79.946471      0.82725203     53129.6        23           
     75200   293.92851      9975.5694     -1850.6554     -434.80943      1740.8002      14692.377     -4083.8685     -88.274807      0.82635505     53187.27       23           
     75300   297.45631      9745.2339     -1863.5826     -612.13319      1646.4677      14782.291     -4118.5814     -89.227768      0.82485716     53283.855      23           
     75400   299.39411      9777.0109     -1896.519      -613.81464      1772.856       14733.913     -4142.9665     -76.458237      0.82365078     53361.898      23           
     75500   307.39878      9817.27       -1888.576      -545.11162      1699.4267      14758.559     -4126.3234     -80.704583      0.82394751     53342.681      23           
     75600   298.99062      9973.7619     -1895.6854     -460.36027      1652.9315      14918.434     -4157.9517     -83.606078      0.823278       53386.06       23           
     75700   294.89787      9855.2627     -1908.4596     -500.36092      1708.7873      14755.847     -4111.8317     -88.719702      0.82300225     53403.947      23           
     75800   295.22922      9871.6322     -1898.2473     -489.36         1706.5014      14761.557     -4127.214      -81.604822      0.82329267     53385.109      23           
     75900   300.24784      9789.9025     -1884.6414     -600.56796      1705.0868      14806.081     -4149.0632     -86.992823      0.82359283     53365.653      23           
     76000   300.49198      9895.681      -1847.2936     -555.63937      1675.5207      14839.919     -4124.3691     -92.456827      0.82274477     53420.66       23           
     76100   304.49798      9859.4914     -1888.3772     -507.25634      1675.8176      14737.581     -4082.4547     -75.81942       0.82119938     53521.191      23           
     76200   300.18396      9915.0561     -1860.6564     -437.34815      1691.7349      14696.063     -4082.9024     -91.834394      0.82066151     53556.269      23           
     76300   292.96204      9800.9899     -1870.1826     -506.03068      1692.6377      14688.593     -4121.7752     -82.252649      0.81960705     53625.172      23           
     76400   294.47083      9678.7987     -1874.406      -606.73091      1652.2127      14686.822     -4101.497      -77.602553      0.81926405     53647.623      23           
     76500   297.46493      9733.8054     -1882.3847     -566.12         1745.114       14658.904     -4144.6555     -77.052131      0.8193476      53642.152      23           
     76600   303.66328      9734.4337     -1894.8348     -576.13677      1654.6807      14759.163     -4123.4035     -85.034495      0.81954579     53629.18       23           
     76700   300.60892      9814.1326     -1875.98       -593.31785      1694.933       14837.941     -4168.5078     -80.935677      0.82027007     53581.827      23           
     76800   299.84608      9848.6474     -1853.3058     -574.37945      1767.1455      14738.693     -4146.3614     -83.144068      0.82045116     53570          23           
     76900   300.85056      9722.2305     -1895.3651     -624.34294      1734.3654      14748.48      -4157.2529     -83.653743      0.81980109     53612.479      23           
     77000   294.97083      9759.9165     -1899.8925     -586.54389      1684.2229      14797.707     -4151.8028     -83.774209      0.82032358     53578.332      23           
     77100   295.02235      9799.1371     -1882.3065     -552.67832      1716.3064      14790.015     -4182.6907     -89.509131      0.82131931     53513.376      23           
     77200   300.99643      9793.5485     -1885.0045     -577.87795      1694.9208      14769.216     -4123.4969     -84.208987      0.82147715     53503.094      23           
     77300   304.68557      9792.3752     -1867.2692     -592.27438      1726.4067      14728.757     -4122.8019     -80.442677      0.82073455     53551.503      23           
     77400   298.70623      9770.7984     -1857.9419     -655.15124      1698.9955      14870.628     -4192.0488     -93.683112      0.81993621     53603.644      23           
     77500   299.05133      9577.1561     -1877.1564     -755.42424      1696.1674      14708.031     -4112.8043     -81.65777       0.81899386     53665.321      23           
     77600   295.30527      9804.8234     -1880.8731     -573.22594      1692.4264      14791.171     -4136.0601     -88.614398      0.818195       53717.719      23           
     77700   294.17382      9769.5154     -1874.9739     -672.00353      1752.6571      14763.036     -4118.3701     -80.83018       0.81816199     53719.886      23           
     77800   298.16769      9757.057      -1864.2305     -674.64952      1689.541       14801.828     -4105.7046     -89.72763       0.81828951     53711.515      23           
     77900   304.70952      9775.4679     -1872.2405     -574.8023       1721.2785      14738.17      -4146.3134     -90.624175      0.81891326     53670.603      23           
     78000   300.83378      9710.0265     -1903.2227     -627.56639      1711.893       14805.85      -4188.2766     -88.650436      0.81945306     53635.249      23           
     78100   292.46664      9703.2147     -1846.2619     -649.40789      1669.6327      14686.801     -4072.8238     -84.725283      0.81974362     53616.238      23           
     78200   296.31188      144322.38      1156.4316     -684.76949      133319.31      14777.097     -4167.583      -78.111692      0.81900251     53664.755      24           
     78300   305.15501      9829.0299     -1985.9883     -400.85188      1710.6628      14788.687     -4211.068      -72.411711      0.85971963     51123.142      24           
     78400   303.58887      9655.3836     -1926.2579     -517.23605      1660.3495      14570.03      -4035.371      -96.131034      0.85791114     51230.911      24           
     78500   302.09151      9733.7298     -1948.6384     -394.47464      1656.0291      14593.405     -4092.6721     -79.918773      0.85602276     51343.926      24           
     78600   302.64938      9642.6278     -1968.5886     -500.14781      1707.4046      14604.923     -4116.4204     -84.543467      0.85416037     51455.875      24           
     78700   301.32842      9711.8824     -1966.5292     -465.9716       1665.8456      14644.791     -4070.2739     -95.979569      0.8529364      51529.714      24           
     78800   301.62805      9730.5491     -1956.1952     -485.01345      1686.6483      14626.241     -4059.879      -81.252889      0.85149559     51616.907      24           
     78900   298.44437      9747.8421     -1935.0824     -513.42951      1686.3766      14698.805     -4104.8089     -84.018276      0.85010448     51701.373      24           
     79000   298.09597      9755.4093     -1932.8857     -487.17287      1726.8573      14639.01      -4107.86       -82.539861      0.8481904      51818.046      24           
     79100   298.07103      9480.7176     -1949.268      -702.34698      1650.1292      14708.93      -4140.7262     -86.00007       0.8458415      51961.944      24           
     79200   298.08481      9472.8088     -1922.6051     -647.15331      1640.6134      14628.628     -4135.5929     -91.080728      0.84428693     52057.621      24           
     79300   295.03683      9657.4082     -1925.4609     -490.90422      1647.8337      14662.647     -4142.3249     -94.382013      0.84236602     52176.332      24           
     79400   303.33923      9786.7552     -1944.4945     -390.1573       1681.4161      14682.275     -4160.0479     -82.235827      0.84020276     52310.67       24           
     79500   299.18728      9759.6773     -1901.8096     -502.32873      1758.6434      14582.9       -4086.9256     -90.802422      0.8386062      52410.26       24           
     79600   295.71968      9854.4014     -1894.0327     -411.10476      1742.3141      14605.401     -4102.9133     -85.263427      0.83610657     52566.946      24           
     79700   300.47514      9702.0337     -1939.8667     -438.8544       1667.0839      14668.531     -4163.3225     -91.538012      0.83420904     52686.517      24           
     79800   292.67148      9757.1312     -1942.6825     -429.20079      1691.8134      14620.749     -4091.9529     -91.594776      0.83330911     52743.416      24           
     79900   293.40931      9603.0857     -1903.5668     -566.39764      1689.6988      14566.16      -4104.7835     -78.025409      0.83272051     52780.697      24           
     80000   300.69761      9729.131      -1949.0598     -436.14154      1694.3443      14633.338     -4127.605      -85.745053      0.83194797     52829.709      24           
     80100   298.63057      9736.0543     -1895.9801     -550.69286      1730.6907      14674.055     -4121.9899     -100.0288       0.83131728     52869.789      24           
     80200   302.44337      9754.8427     -1927.8732     -488.44383      1719.8937      14631.954     -4099.8034     -80.884528      0.83045751     52924.524      24           
     80300   302.41967      9576.6773     -1924.85       -604.2473       1674.8606      14613.437     -4098.8455     -83.677489      0.82994196     52957.401      24           
     80400   298.4769       9573.9635     -1910.744      -543.63002      1701.3263      14586.076     -4167.2976     -91.767411      0.82958855     52979.961      24           
     80500   298.82491      9472.4375     -1908.6696     -657.70509      1658.3942      14589.692     -4122.264      -87.009933      0.82923578     53002.499      24           
     80600   295.35465      9660.775      -1924.8791     -586.42556      1693.5443      14709.815     -4149.118      -82.161767      0.82828988     53063.028      24           
     80700   304.0126       9509.7677     -1921.3045     -669.06765      1643.4721      14680.823     -4142.0415     -82.113495      0.82784442     53091.58       24           
     80800   301.45224      9544.9518     -1903.0218     -689.60749      1704.8636      14684.318     -4162.3696     -89.231305      0.82657773     53172.941      24           
     80900   300.74131      9530.3338     -1911.8391     -654.53649      1693.8365      14632.313     -4143.6289     -85.811153      0.82584677     53220.005      24           
     81000   296.71704      9586.0241     -1910.4185     -545.86815      1690.3922      14627.743     -4190.7481     -85.076474      0.82476759     53289.641      24           
     81100   288.32457      9585.6336     -1895.3878     -566.07043      1708.7341      14584.22      -4152.4379     -93.424289      0.82430337     53319.652      24           
     81200   293.74164      9571.8469     -1927.0756     -614.54756      1700.7857      14657.917     -4167.3029     -77.92994       0.82401661     53338.207      24           
     81300   300.47874      9682.1498     -1877.6376     -510.71427      1683.0507      14627.369     -4141.0098     -98.908069      0.82457559     53302.049      24           
     81400   301.11617      9647.6018     -1891.3644     -620.00763      1720.5157      14694.217     -4176.2555     -79.503662      0.82365963     53361.325      24           
     81500   302.9739       9677.9155     -1900.3138     -580.80113      1709.5018      14692.434     -4150.6008     -92.304501      0.82308354