LAMMPS (22 Dec 2022)
WARNING: Using I/O redirection is unreliable with parallel runs. Better to use the -in switch to read input files. (../lammps.cpp:531)
# PREREQUISITES:
#
#     You must use moltemplate.sh to create 3 files:
#        system.data  system.in.init  system.in.settings
#     (Follow the instructions in README_setup.sh,
#      or run the file as a script using ./README_setup.sh)

# ------------------------------- Initialization Section --------------------

units real
atom_style full
pair_style lj/class2/coul/cut 10.0
bond_style class2
angle_style class2
dihedral_style class2
improper_style class2


# ------------------------------- Atom Definition Section -------------------

read_data       "pre_mol.data" extra/bond/per/atom 1 extra/angle/per/atom 12 extra/dihedral/per/atom 12 extra/improper/per/atom 12 extra/special/per/atom 12
Reading data file ...
  orthogonal box = (0 0 0) to (93.650681 93.650681 93.650681)
  1 by 2 by 3 MPI processor grid
  reading atoms ...
  74 atoms
  scanning bonds ...
  5 = max bonds/atom
  scanning angles ...
  18 = max angles/atom
  scanning dihedrals ...
  30 = max dihedrals/atom
  scanning impropers ...
  16 = max impropers/atom
  reading bonds ...
  85 bonds
  reading angles ...
  186 angles
  reading dihedrals ...
  345 dihedrals
  reading impropers ...
  120 impropers
Finding 1-2 1-3 1-4 neighbors ...
  special bond factors lj:    0        0        0       
  special bond factors coul:  0        0        0       
     4 = max # of 1-2 neighbors
     9 = max # of 1-3 neighbors
    25 = max # of 1-4 neighbors
    34 = max # of special neighbors
  special bonds CPU = 0.001 seconds
  read_data CPU = 0.009 seconds

include calc.pram

# Masses

mass		1    12.01115  # c
mass		2    12.01115  # c1
mass		3    12.01115  # c3h
mass		4     1.00797  # h
mass		5     1.00797  # hc
mass		6    15.99940  # o3e
mass		7    15.99940  # oc
mass		8    15.99940  # oh

# Potentials

pair_coeff	 1  1    0.05400    4.01000  # c,c
pair_coeff	 2  2    0.05400    4.01000  # c1,c1
pair_coeff	 3  3    0.05400    4.01000  # c3h,c3h
pair_coeff	 4  4    0.02000    2.99500  # h,h
pair_coeff	 5  5    0.02000    2.99500  # hc,hc
pair_coeff	 6  6    0.24000    3.53500  # o3e,o3e
pair_coeff	 7  7    0.24000    3.53500  # oc,oc
pair_coeff	 8  8    0.24000    3.53500  # oh,oh

# Bond Coeffs

bond_coeff	 1    1.53000  299.67000 -501.77000  679.81000  # c,c
bond_coeff	 2    1.53000  299.67000 -501.77000  679.81000  # c,c1
bond_coeff	 3    1.53000  299.67000 -501.77000  679.81000  # c,c3h
bond_coeff	 4    1.10100  345.00000 -691.89000  844.60000  # c,hc
bond_coeff	 5    1.53000  299.67000 -501.77000  679.81000  # c1,c1
bond_coeff	 6    1.53000  299.67000 -501.77000  679.81000  # c1,c3h
bond_coeff	 7    1.10100  345.00000 -691.89000  844.60000  # c1,hc
bond_coeff	 8    1.42000  400.39540 -835.19510 1313.01420  # c1,o3e
bond_coeff	 9    1.42000  400.39540 -835.19510 1313.01420  # c1,oc
bond_coeff	10    1.42000  400.39540 -835.19510 1313.01420  # c1,oh
bond_coeff	11    1.53000  299.67000 -501.77000  679.81000  # c3h,c3h
bond_coeff	12    1.10100  345.00000 -691.89000  844.60000  # c3h,hc
bond_coeff	13    1.42000  400.39540 -835.19510 1313.01420  # c3h,o3e
bond_coeff	14    0.96000  493.84800    0.00000    0.00000  # h,oh

# Angle Coeffs

angle_coeff	 1  112.67000   39.51600   -7.44300   -9.55830  # c,c,c1
angle_coeff	 2  110.77000   41.45300  -10.60400    5.12900  # c,c,hc
angle_coeff	 3  112.67000   39.51600   -7.44300   -9.55830  # c,c1,c
angle_coeff	 4  112.67000   39.51600   -7.44300   -9.55830  # c,c1,c1
angle_coeff	 5  110.77000   41.45300  -10.60400    5.12900  # c,c1,hc
angle_coeff	 6  111.27000   54.53810   -8.36420  -13.08380  # c,c1,o3e
angle_coeff	 7  111.27000   54.53810   -8.36420  -13.08380  # c,c1,oc
angle_coeff	 8  112.67000   39.51600   -7.44300   -9.55830  # c,c3h,c3h
angle_coeff	 9  110.77000   41.45300  -10.60400    5.12900  # c,c3h,hc
angle_coeff	10  111.27000   54.53810   -8.36420  -13.08380  # c,c3h,o3e
angle_coeff	11  112.67000   39.51600   -7.44300   -9.55830  # c1,c,c1
angle_coeff	12  112.67000   39.51600   -7.44300   -9.55830  # c1,c,c3h
angle_coeff	13  110.77000   41.45300  -10.60400    5.12900  # c1,c,hc
angle_coeff	14  112.67000   39.51600   -7.44300   -9.55830  # c1,c1,c1
angle_coeff	15  112.67000   39.51600   -7.44300   -9.55830  # c1,c1,c3h
angle_coeff	16  110.77000   41.45300  -10.60400    5.12900  # c1,c1,hc
angle_coeff	17  111.27000   54.53810   -8.36420  -13.08380  # c1,c1,o3e
angle_coeff	18  111.27000   54.53810   -8.36420  -13.08380  # c1,c1,oc
angle_coeff	19  111.27000   54.53810   -8.36420  -13.08380  # c1,c1,oh
angle_coeff	20  112.67000   39.51600   -7.44300   -9.55830  # c1,c3h,c3h
angle_coeff	21  110.77000   41.45300  -10.60400    5.12900  # c1,c3h,hc
angle_coeff	22  111.27000   54.53810   -8.36420  -13.08380  # c1,c3h,o3e
angle_coeff	23  104.50000   35.74540  -10.00670   -6.27290  # c1,o3e,c1
angle_coeff	24  104.50000   35.74540  -10.00670   -6.27290  # c1,oc,c1
angle_coeff	25  109.00000   58.50000    0.00000    0.00000  # c1,oh,h
angle_coeff	26  110.77000   41.45300  -10.60400    5.12900  # c3h,c,hc
angle_coeff	27  110.77000   41.45300  -10.60400    5.12900  # c3h,c1,hc
angle_coeff	28  110.77000   41.45300  -10.60400    5.12900  # c3h,c3h,hc
angle_coeff	29  111.27000   54.53810   -8.36420  -13.08380  # c3h,c3h,o3e
angle_coeff	30  104.50000   35.74540  -10.00670   -6.27290  # c3h,o3e,c3h
angle_coeff	31  107.66000   39.64100  -12.92100   -2.43180  # hc,c,hc
angle_coeff	32  108.72800   58.54460  -10.80880  -12.40060  # hc,c1,o3e
angle_coeff	33  108.72800   58.54460  -10.80880  -12.40060  # hc,c1,oc
angle_coeff	34  108.72800   58.54460  -10.80880  -12.40060  # hc,c1,oh
angle_coeff	35  108.72800   58.54460  -10.80880  -12.40060  # hc,c3h,o3e

# BondBond Coeffs

angle_coeff	 1 bb    0.00000    1.53000    1.53000  # c,c,c1
angle_coeff	 2 bb    3.38720    1.53000    1.10100  # c,c,hc
angle_coeff	 3 bb    0.00000    1.53000    1.53000  # c,c1,c
angle_coeff	 4 bb    0.00000    1.53000    1.53000  # c,c1,c1
angle_coeff	 5 bb    3.38720    1.53000    1.10100  # c,c1,hc
angle_coeff	 6 bb   11.43180    1.53000    1.42000  # c,c1,o3e
angle_coeff	 7 bb   11.43180    1.53000    1.42000  # c,c1,oc
angle_coeff	 8 bb    0.00000    1.53000    1.53000  # c,c3h,c3h
angle_coeff	 9 bb    3.38720    1.53000    1.10100  # c,c3h,hc
angle_coeff	10 bb   11.43180    1.53000    1.42000  # c,c3h,o3e
angle_coeff	11 bb    0.00000    1.53000    1.53000  # c1,c,c1
angle_coeff	12 bb    0.00000    1.53000    1.53000  # c1,c,c3h
angle_coeff	13 bb    3.38720    1.53000    1.10100  # c1,c,hc
angle_coeff	14 bb    0.00000    1.53000    1.53000  # c1,c1,c1
angle_coeff	15 bb    0.00000    1.53000    1.53000  # c1,c1,c3h
angle_coeff	16 bb    3.38720    1.53000    1.10100  # c1,c1,hc
angle_coeff	17 bb   11.43180    1.53000    1.42000  # c1,c1,o3e
angle_coeff	18 bb   11.43180    1.53000    1.42000  # c1,c1,oc
angle_coeff	19 bb   11.43180    1.53000    1.42000  # c1,c1,oh
angle_coeff	20 bb    0.00000    1.53000    1.53000  # c1,c3h,c3h
angle_coeff	21 bb    3.38720    1.53000    1.10100  # c1,c3h,hc
angle_coeff	22 bb   11.43180    1.53000    1.42000  # c1,c3h,o3e
angle_coeff	23 bb   -7.11310    1.42000    1.42000  # c1,o3e,c1
angle_coeff	24 bb   -7.11310    1.42000    1.42000  # c1,oc,c1
angle_coeff	25 bb    0.00000    1.42000    0.96000  # c1,oh,h
angle_coeff	26 bb    3.38720    1.53000    1.10100  # c3h,c,hc
angle_coeff	27 bb    3.38720    1.53000    1.10100  # c3h,c1,hc
angle_coeff	28 bb    3.38720    1.53000    1.10100  # c3h,c3h,hc
angle_coeff	29 bb   11.43180    1.53000    1.42000  # c3h,c3h,o3e
angle_coeff	30 bb   -7.11310    1.42000    1.42000  # c3h,o3e,c3h
angle_coeff	31 bb    5.33160    1.10100    1.10100  # hc,c,hc
angle_coeff	32 bb   23.19790    1.10100    1.42000  # hc,c1,o3e
angle_coeff	33 bb   23.19790    1.10100    1.42000  # hc,c1,oc
angle_coeff	34 bb   23.19790    1.10100    1.42000  # hc,c1,oh
angle_coeff	35 bb   23.19790    1.10100    1.42000  # hc,c3h,o3e

# BondAngle Coeffs

angle_coeff	 1 ba    8.01600    8.01600    1.53000    1.53000  # c,c,c1
angle_coeff	 2 ba   11.42100   20.75400    1.53000    1.10100  # c,c,hc
angle_coeff	 3 ba    8.01600    8.01600    1.53000    1.53000  # c,c1,c
angle_coeff	 4 ba    8.01600    8.01600    1.53000    1.53000  # c,c1,c1
angle_coeff	 5 ba   11.42100   20.75400    1.53000    1.10100  # c,c1,hc
angle_coeff	 6 ba    2.68680   20.40330    1.53000    1.42000  # c,c1,o3e
angle_coeff	 7 ba   20.40330    2.68680    1.53000    1.42000  # c,c1,oc
angle_coeff	 8 ba    8.01600    8.01600    1.53000    1.53000  # c,c3h,c3h
angle_coeff	 9 ba   11.42100   20.75400    1.53000    1.10100  # c,c3h,hc
angle_coeff	10 ba    2.68680   20.40330    1.53000    1.42000  # c,c3h,o3e
angle_coeff	11 ba    8.01600    8.01600    1.53000    1.53000  # c1,c,c1
angle_coeff	12 ba    8.01600    8.01600    1.53000    1.53000  # c1,c,c3h
angle_coeff	13 ba   20.75400   11.42100    1.53000    1.10100  # c1,c,hc
angle_coeff	14 ba    8.01600    8.01600    1.53000    1.53000  # c1,c1,c1
angle_coeff	15 ba    8.01600    8.01600    1.53000    1.53000  # c1,c1,c3h
angle_coeff	16 ba   20.75400   11.42100    1.53000    1.10100  # c1,c1,hc
angle_coeff	17 ba    2.68680   20.40330    1.53000    1.42000  # c1,c1,o3e
angle_coeff	18 ba    2.68680   20.40330    1.53000    1.42000  # c1,c1,oc
angle_coeff	19 ba   20.40330    2.68680    1.53000    1.42000  # c1,c1,oh
angle_coeff	20 ba    8.01600    8.01600    1.53000    1.53000  # c1,c3h,c3h
angle_coeff	21 ba   20.75400   11.42100    1.53000    1.10100  # c1,c3h,hc
angle_coeff	22 ba    2.68680   20.40330    1.53000    1.42000  # c1,c3h,o3e
angle_coeff	23 ba   -2.81120   -2.81120    1.42000    1.42000  # c1,o3e,c1
angle_coeff	24 ba   -2.81120   -2.81120    1.42000    1.42000  # c1,oc,c1
angle_coeff	25 ba    0.00000    0.00000    1.42000    0.96000  # c1,oh,h
angle_coeff	26 ba   11.42100   20.75400    1.53000    1.10100  # c3h,c,hc
angle_coeff	27 ba   11.42100   20.75400    1.53000    1.10100  # c3h,c1,hc
angle_coeff	28 ba   11.42100   20.75400    1.53000    1.10100  # c3h,c3h,hc
angle_coeff	29 ba   20.40330    2.68680    1.53000    1.42000  # c3h,c3h,o3e
angle_coeff	30 ba   -2.81120   -2.81120    1.42000    1.42000  # c3h,o3e,c3h
angle_coeff	31 ba   18.10300   18.10300    1.10100    1.10100  # hc,c,hc
angle_coeff	32 ba    4.61890   55.32700    1.10100    1.42000  # hc,c1,o3e
angle_coeff	33 ba    4.61890   55.32700    1.10100    1.42000  # hc,c1,oc
angle_coeff	34 ba   55.32700    4.61890    1.10100    1.42000  # hc,c1,oh
angle_coeff	35 ba    4.61890   55.32700    1.10100    1.42000  # hc,c3h,o3e

# Dihedral Coeffs

dihedral_coeff	 1    0.00000    0.00000    0.05140    0.00000   -0.14300    0.00000  # c,c,c1,c1
dihedral_coeff	 2    0.00000    0.00000    0.03160    0.00000   -0.16810    0.00000  # c,c,c1,hc
dihedral_coeff	 3    0.71370    0.00000    0.26600    0.00000   -0.25450    0.00000  # c,c,c1,oc
dihedral_coeff	 4    0.00000    0.00000    0.05140    0.00000   -0.14300    0.00000  # c,c1,c,c1
dihedral_coeff	 5    0.00000    0.00000    0.03160    0.00000   -0.16810    0.00000  # c,c1,c,hc
dihedral_coeff	 6    0.00000    0.00000    0.05140    0.00000   -0.14300    0.00000  # c,c1,c1,c
dihedral_coeff	 7    0.00000    0.00000    0.05140    0.00000   -0.14300    0.00000  # c,c1,c1,c1
dihedral_coeff	 8    0.00000    0.00000    0.05140    0.00000   -0.14300    0.00000  # c,c1,c1,c3h
dihedral_coeff	 9    0.00000    0.00000    0.03160    0.00000   -0.16810    0.00000  # c,c1,c1,hc
dihedral_coeff	10    0.71370    0.00000    0.26600    0.00000   -0.25450    0.00000  # c,c1,c1,o3e
dihedral_coeff	11    0.71370    0.00000    0.26600    0.00000   -0.25450    0.00000  # c,c1,c1,oc
dihedral_coeff	12    0.71370    0.00000    0.26600    0.00000   -0.25450    0.00000  # c,c1,c1,oh
dihedral_coeff	13   -0.52030    0.00000   -0.30280    0.00000   -0.34500    0.00000  # c,c1,o3e,c1
dihedral_coeff	14   -0.52030    0.00000   -0.30280    0.00000   -0.34500    0.00000  # c,c1,oc,c1
dihedral_coeff	15    0.00000    0.00000    0.05140    0.00000   -0.14300    0.00000  # c,c3h,c3h,c1
dihedral_coeff	16    0.00000    0.00000    0.03160    0.00000   -0.16810    0.00000  # c,c3h,c3h,hc
dihedral_coeff	17    0.71370    0.00000    0.26600    0.00000   -0.25450    0.00000  # c,c3h,c3h,o3e
dihedral_coeff	18   -0.52030    0.00000   -0.30280    0.00000   -0.34500    0.00000  # c,c3h,o3e,c3h
dihedral_coeff	19    0.00000    0.00000    0.05140    0.00000   -0.14300    0.00000  # c1,c,c,c1
dihedral_coeff	20    0.00000    0.00000    0.03160    0.00000   -0.16810    0.00000  # c1,c,c,hc
dihedral_coeff	21    0.00000    0.00000    0.05140    0.00000   -0.14300    0.00000  # c1,c,c1,c1
dihedral_coeff	22    0.00000    0.00000    0.03160    0.00000   -0.16810    0.00000  # c1,c,c1,hc
dihedral_coeff	23    0.71370    0.00000    0.26600    0.00000   -0.25450    0.00000  # c1,c,c1,o3e
dihedral_coeff	24    0.71370    0.00000    0.26600    0.00000   -0.25450    0.00000  # c1,c,c1,oc
dihedral_coeff	25    0.00000    0.00000    0.05140    0.00000   -0.14300    0.00000  # c1,c,c3h,c3h
dihedral_coeff	26    0.00000    0.00000    0.03160    0.00000   -0.16810    0.00000  # c1,c,c3h,hc
dihedral_coeff	27    0.71370    0.00000    0.26600    0.00000   -0.25450    0.00000  # c1,c,c3h,o3e
dihedral_coeff	28    0.00000    0.00000    0.05140    0.00000   -0.14300    0.00000  # c1,c1,c,c3h
dihedral_coeff	29    0.00000    0.00000    0.03160    0.00000   -0.16810    0.00000  # c1,c1,c,hc
dihedral_coeff	30    0.00000    0.00000    0.05140    0.00000   -0.14300    0.00000  # c1,c1,c1,c1
dihedral_coeff	31    0.00000    0.00000    0.05140    0.00000   -0.14300    0.00000  # c1,c1,c1,c3h
dihedral_coeff	32    0.00000    0.00000    0.03160    0.00000   -0.16810    0.00000  # c1,c1,c1,hc
dihedral_coeff	33    0.71370    0.00000    0.26600    0.00000   -0.25450    0.00000  # c1,c1,c1,o3e
dihedral_coeff	34    0.71370    0.00000    0.26600    0.00000   -0.25450    0.00000  # c1,c1,c1,oc
dihedral_coeff	35    0.71370    0.00000    0.26600    0.00000   -0.25450    0.00000  # c1,c1,c1,oh
dihedral_coeff	36    0.00000    0.00000    0.05140    0.00000   -0.14300    0.00000  # c1,c1,c3h,c3h
dihedral_coeff	37    0.00000    0.00000    0.03160    0.00000   -0.16810    0.00000  # c1,c1,c3h,hc
dihedral_coeff	38    0.71370    0.00000    0.26600    0.00000   -0.25450    0.00000  # c1,c1,c3h,o3e
dihedral_coeff	39   -0.52030    0.00000   -0.30280    0.00000   -0.34500    0.00000  # c1,c1,o3e,c1
dihedral_coeff	40   -0.52030    0.00000   -0.30280    0.00000   -0.34500    0.00000  # c1,c1,oc,c1
dihedral_coeff	41    0.00000    0.00000    0.00000    0.00000    0.13000  180.00000  # c1,c1,oh,h
dihedral_coeff	42    0.00000    0.00000    0.03160    0.00000   -0.16810    0.00000  # c1,c3h,c3h,hc
dihedral_coeff	43    0.71370    0.00000    0.26600    0.00000   -0.25450    0.00000  # c1,c3h,c3h,o3e
dihedral_coeff	44   -0.52030    0.00000   -0.30280    0.00000   -0.34500    0.00000  # c1,c3h,o3e,c3h
dihedral_coeff	45    0.53020    0.00000    0.00000    0.00000   -0.39660    0.00000  # c1,o3e,c1,hc
dihedral_coeff	46    0.53020    0.00000    0.00000    0.00000   -0.39660    0.00000  # c1,oc,c1,hc
dihedral_coeff	47    0.00000    0.00000    0.03160    0.00000   -0.16810    0.00000  # c3h,c,c1,hc
dihedral_coeff	48    0.00000    0.00000    0.03160    0.00000   -0.16810    0.00000  # c3h,c1,c1,hc
dihedral_coeff	49    0.00000    0.00000    0.03160    0.00000   -0.16810    0.00000  # c3h,c3h,c,hc
dihedral_coeff	50    0.00000    0.00000    0.03160    0.00000   -0.16810    0.00000  # c3h,c3h,c1,hc
dihedral_coeff	51    0.53020    0.00000    0.00000    0.00000   -0.39660    0.00000  # c3h,o3e,c3h,hc
dihedral_coeff	52    0.00000    0.00000    0.00000    0.00000    0.13000  180.00000  # h,oh,c1,hc
dihedral_coeff	53   -0.14320    0.00000    0.06170    0.00000   -0.10830    0.00000  # hc,c,c,hc
dihedral_coeff	54   -0.14320    0.00000    0.06170    0.00000   -0.10830    0.00000  # hc,c,c1,hc
dihedral_coeff	55   -0.14350    0.00000    0.25300    0.00000   -0.09050    0.00000  # hc,c,c1,o3e
dihedral_coeff	56   -0.14350    0.00000    0.25300    0.00000   -0.09050    0.00000  # hc,c,c1,oc
dihedral_coeff	57   -0.14320    0.00000    0.06170    0.00000   -0.10830    0.00000  # hc,c,c3h,hc
dihedral_coeff	58   -0.14350    0.00000    0.25300    0.00000   -0.09050    0.00000  # hc,c,c3h,o3e
dihedral_coeff	59   -0.14320    0.00000    0.06170    0.00000   -0.10830    0.00000  # hc,c1,c1,hc
dihedral_coeff	60   -0.14350    0.00000    0.25300    0.00000   -0.09050    0.00000  # hc,c1,c1,o3e
dihedral_coeff	61   -0.14350    0.00000    0.25300    0.00000   -0.09050    0.00000  # hc,c1,c1,oc
dihedral_coeff	62   -0.14350    0.00000    0.25300    0.00000   -0.09050    0.00000  # hc,c1,c1,oh
dihedral_coeff	63   -0.14320    0.00000    0.06170    0.00000   -0.10830    0.00000  # hc,c1,c3h,hc
dihedral_coeff	64   -0.14350    0.00000    0.25300    0.00000   -0.09050    0.00000  # hc,c1,c3h,o3e
dihedral_coeff	65   -0.14320    0.00000    0.06170    0.00000   -0.10830    0.00000  # hc,c3h,c3h,hc
dihedral_coeff	66   -0.14350    0.00000    0.25300    0.00000   -0.09050    0.00000  # hc,c3h,c3h,o3e
dihedral_coeff	67   -0.18200    0.00000   -0.10840    0.00000   -0.70470    0.00000  # oc,c1,c1,oc
dihedral_coeff	68   -0.18200    0.00000   -0.10840    0.00000   -0.70470    0.00000  # oc,c1,c1,oh

# MiddleBondTorsion Coeffs

dihedral_coeff	 1 mbt  -17.78700   -7.18770    0.00000    1.53000  # c,c,c1,c1
dihedral_coeff	 2 mbt  -14.87900   -3.65810   -0.31380    1.53000  # c,c,c1,hc
dihedral_coeff	 3 mbt  -21.88420   -7.67640   -0.68680    1.53000  # c,c,c1,oc
dihedral_coeff	 4 mbt  -17.78700   -7.18770    0.00000    1.53000  # c,c1,c,c1
dihedral_coeff	 5 mbt  -14.87900   -3.65810   -0.31380    1.53000  # c,c1,c,hc
dihedral_coeff	 6 mbt  -17.78700   -7.18770    0.00000    1.53000  # c,c1,c1,c
dihedral_coeff	 7 mbt  -17.78700   -7.18770    0.00000    1.53000  # c,c1,c1,c1
dihedral_coeff	 8 mbt  -17.78700   -7.18770    0.00000    1.53000  # c,c1,c1,c3h
dihedral_coeff	 9 mbt  -14.87900   -3.65810   -0.31380    1.53000  # c,c1,c1,hc
dihedral_coeff	10 mbt  -21.88420   -7.67640   -0.68680    1.53000  # c,c1,c1,o3e
dihedral_coeff	11 mbt  -21.88420   -7.67640   -0.68680    1.53000  # c,c1,c1,oc
dihedral_coeff	12 mbt  -21.88420   -7.67640   -0.68680    1.53000  # c,c1,c1,oh
dihedral_coeff	13 mbt   -5.92880   -2.70070   -0.31750    1.42000  # c,c1,o3e,c1
dihedral_coeff	14 mbt   -5.92880   -2.70070   -0.31750    1.42000  # c,c1,oc,c1
dihedral_coeff	15 mbt  -17.78700   -7.18770    0.00000    1.53000  # c,c3h,c3h,c1
dihedral_coeff	16 mbt  -14.87900   -3.65810   -0.31380    1.53000  # c,c3h,c3h,hc
dihedral_coeff	17 mbt  -21.88420   -7.67640   -0.68680    1.53000  # c,c3h,c3h,o3e
dihedral_coeff	18 mbt   -5.92880   -2.70070   -0.31750    1.42000  # c,c3h,o3e,c3h
dihedral_coeff	19 mbt  -17.78700   -7.18770    0.00000    1.53000  # c1,c,c,c1
dihedral_coeff	20 mbt  -14.87900   -3.65810   -0.31380    1.53000  # c1,c,c,hc
dihedral_coeff	21 mbt  -17.78700   -7.18770    0.00000    1.53000  # c1,c,c1,c1
dihedral_coeff	22 mbt  -14.87900   -3.65810   -0.31380    1.53000  # c1,c,c1,hc
dihedral_coeff	23 mbt  -21.88420   -7.67640   -0.68680    1.53000  # c1,c,c1,o3e
dihedral_coeff	24 mbt  -21.88420   -7.67640   -0.68680    1.53000  # c1,c,c1,oc
dihedral_coeff	25 mbt  -17.78700   -7.18770    0.00000    1.53000  # c1,c,c3h,c3h
dihedral_coeff	26 mbt  -14.87900   -3.65810   -0.31380    1.53000  # c1,c,c3h,hc
dihedral_coeff	27 mbt  -21.88420   -7.67640   -0.68680    1.53000  # c1,c,c3h,o3e
dihedral_coeff	28 mbt  -17.78700   -7.18770    0.00000    1.53000  # c1,c1,c,c3h
dihedral_coeff	29 mbt  -14.87900   -3.65810   -0.31380    1.53000  # c1,c1,c,hc
dihedral_coeff	30 mbt  -17.78700   -7.18770    0.00000    1.53000  # c1,c1,c1,c1
dihedral_coeff	31 mbt  -17.78700   -7.18770    0.00000    1.53000  # c1,c1,c1,c3h
dihedral_coeff	32 mbt  -14.87900   -3.65810   -0.31380    1.53000  # c1,c1,c1,hc
dihedral_coeff	33 mbt  -21.88420   -7.67640   -0.68680    1.53000  # c1,c1,c1,o3e
dihedral_coeff	34 mbt  -21.88420   -7.67640   -0.68680    1.53000  # c1,c1,c1,oc
dihedral_coeff	35 mbt  -21.88420   -7.67640   -0.68680    1.53000  # c1,c1,c1,oh
dihedral_coeff	36 mbt  -17.78700   -7.18770    0.00000    1.53000  # c1,c1,c3h,c3h
dihedral_coeff	37 mbt  -14.87900   -3.65810   -0.31380    1.53000  # c1,c1,c3h,hc
dihedral_coeff	38 mbt  -21.88420   -7.67640   -0.68680    1.53000  # c1,c1,c3h,o3e
dihedral_coeff	39 mbt   -5.92880   -2.70070   -0.31750    1.42000  # c1,c1,o3e,c1
dihedral_coeff	40 mbt   -5.92880   -2.70070   -0.31750    1.42000  # c1,c1,oc,c1
dihedral_coeff	41 mbt    0.00000    0.00000    0.00000    1.42000  # c1,c1,oh,h
dihedral_coeff	42 mbt  -14.87900   -3.65810   -0.31380    1.53000  # c1,c3h,c3h,hc
dihedral_coeff	43 mbt  -21.88420   -7.67640   -0.68680    1.53000  # c1,c3h,c3h,o3e
dihedral_coeff	44 mbt   -5.92880   -2.70070   -0.31750    1.42000  # c1,c3h,o3e,c3h
dihedral_coeff	45 mbt   -6.80070   -4.65460   -1.41010    1.42000  # c1,o3e,c1,hc
dihedral_coeff	46 mbt   -6.80070   -4.65460   -1.41010    1.42000  # c1,oc,c1,hc
dihedral_coeff	47 mbt  -14.87900   -3.65810   -0.31380    1.53000  # c3h,c,c1,hc
dihedral_coeff	48 mbt  -14.87900   -3.65810   -0.31380    1.53000  # c3h,c1,c1,hc
dihedral_coeff	49 mbt  -14.87900   -3.65810   -0.31380    1.53000  # c3h,c3h,c,hc
dihedral_coeff	50 mbt  -14.87900   -3.65810   -0.31380    1.53000  # c3h,c3h,c1,hc
dihedral_coeff	51 mbt   -6.80070   -4.65460   -1.41010    1.42000  # c3h,o3e,c3h,hc
dihedral_coeff	52 mbt    0.00000    0.00000    0.00000    1.42000  # h,oh,c1,hc
dihedral_coeff	53 mbt  -14.26100   -0.53220   -0.48640    1.53000  # hc,c,c,hc
dihedral_coeff	54 mbt  -14.26100   -0.53220   -0.48640    1.53000  # hc,c,c1,hc
dihedral_coeff	55 mbt  -16.79750   -1.22960   -0.27500    1.53000  # hc,c,c1,o3e
dihedral_coeff	56 mbt  -16.79750   -1.22960   -0.27500    1.53000  # hc,c,c1,oc
dihedral_coeff	57 mbt  -14.26100   -0.53220   -0.48640    1.53000  # hc,c,c3h,hc
dihedral_coeff	58 mbt  -16.79750   -1.22960   -0.27500    1.53000  # hc,c,c3h,o3e
dihedral_coeff	59 mbt  -14.26100   -0.53220   -0.48640    1.53000  # hc,c1,c1,hc
dihedral_coeff	60 mbt  -16.79750   -1.22960   -0.27500    1.53000  # hc,c1,c1,o3e
dihedral_coeff	61 mbt  -16.79750   -1.22960   -0.27500    1.53000  # hc,c1,c1,oc
dihedral_coeff	62 mbt  -16.79750   -1.22960   -0.27500    1.53000  # hc,c1,c1,oh
dihedral_coeff	63 mbt  -14.26100   -0.53220   -0.48640    1.53000  # hc,c1,c3h,hc
dihedral_coeff	64 mbt  -16.79750   -1.22960   -0.27500    1.53000  # hc,c1,c3h,o3e
dihedral_coeff	65 mbt  -14.26100   -0.53220   -0.48640    1.53000  # hc,c3h,c3h,hc
dihedral_coeff	66 mbt  -16.79750   -1.22960   -0.27500    1.53000  # hc,c3h,c3h,o3e
dihedral_coeff	67 mbt  -17.25850   -3.61570   -0.83640    1.53000  # oc,c1,c1,oc
dihedral_coeff	68 mbt  -17.25850   -3.61570   -0.83640    1.53000  # oc,c1,c1,oh

# EndBondTorsion Coeffs

dihedral_coeff	 1 ebt   -0.07320    0.00000    0.00000   -0.07320    0.00000    0.00000    1.53000    1.53000  # c,c,c1,c1
dihedral_coeff	 2 ebt    0.08140    0.05910    0.22190    0.24860    0.24220   -0.09250    1.53000    1.10100  # c,c,c1,hc
dihedral_coeff	 3 ebt    1.15380    0.84090   -0.91380   -0.31900    0.44110   -0.71740    1.53000    1.42000  # c,c,c1,oc
dihedral_coeff	 4 ebt   -0.07320    0.00000    0.00000   -0.07320    0.00000    0.00000    1.53000    1.53000  # c,c1,c,c1
dihedral_coeff	 5 ebt    0.08140    0.05910    0.22190    0.24860    0.24220   -0.09250    1.53000    1.10100  # c,c1,c,hc
dihedral_coeff	 6 ebt   -0.07320    0.00000    0.00000   -0.07320    0.00000    0.00000    1.53000    1.53000  # c,c1,c1,c
dihedral_coeff	 7 ebt   -0.07320    0.00000    0.00000   -0.07320    0.00000    0.00000    1.53000    1.53000  # c,c1,c1,c1
dihedral_coeff	 8 ebt   -0.07320    0.00000    0.00000   -0.07320    0.00000    0.00000    1.53000    1.53000  # c,c1,c1,c3h
dihedral_coeff	 9 ebt    0.08140    0.05910    0.22190    0.24860    0.24220   -0.09250    1.53000    1.10100  # c,c1,c1,hc
dihedral_coeff	10 ebt   -0.31900    0.44110   -0.71740    1.15380    0.84090   -0.91380    1.53000    1.42000  # c,c1,c1,o3e
dihedral_coeff	11 ebt    1.15380    0.84090   -0.91380   -0.31900    0.44110   -0.71740    1.53000    1.42000  # c,c1,c1,oc
dihedral_coeff	12 ebt    1.15380    0.84090   -0.91380   -0.31900    0.44110   -0.71740    1.53000    1.42000  # c,c1,c1,oh
dihedral_coeff	13 ebt    0.47410    1.26350    0.55760   -0.24560    1.05170   -0.77950    1.53000    1.42000  # c,c1,o3e,c1
dihedral_coeff	14 ebt    0.47410    1.26350    0.55760   -0.24560    1.05170   -0.77950    1.53000    1.42000  # c,c1,oc,c1
dihedral_coeff	15 ebt   -0.07320    0.00000    0.00000   -0.07320    0.00000    0.00000    1.53000    1.53000  # c,c3h,c3h,c1
dihedral_coeff	16 ebt    0.08140    0.05910    0.22190    0.24860    0.24220   -0.09250    1.53000    1.10100  # c,c3h,c3h,hc
dihedral_coeff	17 ebt   -0.31900    0.44110   -0.71740    1.15380    0.84090   -0.91380    1.53000    1.42000  # c,c3h,c3h,o3e
dihedral_coeff	18 ebt   -0.24560    1.05170   -0.77950    0.47410    1.26350    0.55760    1.53000    1.42000  # c,c3h,o3e,c3h
dihedral_coeff	19 ebt   -0.07320    0.00000    0.00000   -0.07320    0.00000    0.00000    1.53000    1.53000  # c1,c,c,c1
dihedral_coeff	20 ebt    0.24860    0.24220   -0.09250    0.08140    0.05910    0.22190    1.53000    1.10100  # c1,c,c,hc
dihedral_coeff	21 ebt   -0.07320    0.00000    0.00000   -0.07320    0.00000    0.00000    1.53000    1.53000  # c1,c,c1,c1
dihedral_coeff	22 ebt    0.24860    0.24220   -0.09250    0.08140    0.05910    0.22190    1.53000    1.10100  # c1,c,c1,hc
dihedral_coeff	23 ebt   -0.31900    0.44110   -0.71740    1.15380    0.84090   -0.91380    1.53000    1.42000  # c1,c,c1,o3e
dihedral_coeff	24 ebt   -0.31900    0.44110   -0.71740    1.15380    0.84090   -0.91380    1.53000    1.42000  # c1,c,c1,oc
dihedral_coeff	25 ebt   -0.07320    0.00000    0.00000   -0.07320    0.00000    0.00000    1.53000    1.53000  # c1,c,c3h,c3h
dihedral_coeff	26 ebt    0.24860    0.24220   -0.09250    0.08140    0.05910    0.22190    1.53000    1.10100  # c1,c,c3h,hc
dihedral_coeff	27 ebt   -0.31900    0.44110   -0.71740    1.15380    0.84090   -0.91380    1.53000    1.42000  # c1,c,c3h,o3e
dihedral_coeff	28 ebt   -0.07320    0.00000    0.00000   -0.07320    0.00000    0.00000    1.53000    1.53000  # c1,c1,c,c3h
dihedral_coeff	29 ebt    0.24860    0.24220   -0.09250    0.08140    0.05910    0.22190    1.53000    1.10100  # c1,c1,c,hc
dihedral_coeff	30 ebt   -0.07320    0.00000    0.00000   -0.07320    0.00000    0.00000    1.53000    1.53000  # c1,c1,c1,c1
dihedral_coeff	31 ebt   -0.07320    0.00000    0.00000   -0.07320    0.00000    0.00000    1.53000    1.53000  # c1,c1,c1,c3h
dihedral_coeff	32 ebt    0.24860    0.24220   -0.09250    0.08140    0.05910    0.22190    1.53000    1.10100  # c1,c1,c1,hc
dihedral_coeff	33 ebt   -0.31900    0.44110   -0.71740    1.15380    0.84090   -0.91380    1.53000    1.42000  # c1,c1,c1,o3e
dihedral_coeff	34 ebt   -0.31900    0.44110   -0.71740    1.15380    0.84090   -0.91380    1.53000    1.42000  # c1,c1,c1,oc
dihedral_coeff	35 ebt    1.15380    0.84090   -0.91380   -0.31900    0.44110   -0.71740    1.53000    1.42000  # c1,c1,c1,oh
dihedral_coeff	36 ebt   -0.07320    0.00000    0.00000   -0.07320    0.00000    0.00000    1.53000    1.53000  # c1,c1,c3h,c3h
dihedral_coeff	37 ebt    0.24860    0.24220   -0.09250    0.08140    0.05910    0.22190    1.53000    1.10100  # c1,c1,c3h,hc
dihedral_coeff	38 ebt   -0.31900    0.44110   -0.71740    1.15380    0.84090   -0.91380    1.53000    1.42000  # c1,c1,c3h,o3e
dihedral_coeff	39 ebt   -0.24560    1.05170   -0.77950    0.47410    1.26350    0.55760    1.53000    1.42000  # c1,c1,o3e,c1
dihedral_coeff	40 ebt   -0.24560    1.05170   -0.77950    0.47410    1.26350    0.55760    1.53000    1.42000  # c1,c1,oc,c1
dihedral_coeff	41 ebt    0.00000    0.00000    0.00000    0.00000    0.00000    0.00000    1.53000    0.96000  # c1,c1,oh,h
dihedral_coeff	42 ebt    0.24860    0.24220   -0.09250    0.08140    0.05910    0.22190    1.53000    1.10100  # c1,c3h,c3h,hc
dihedral_coeff	43 ebt   -0.31900    0.44110   -0.71740    1.15380    0.84090   -0.91380    1.53000    1.42000  # c1,c3h,c3h,o3e
dihedral_coeff	44 ebt   -0.24560    1.05170   -0.77950    0.47410    1.26350    0.55760    1.53000    1.42000  # c1,c3h,o3e,c3h
dihedral_coeff	45 ebt   -0.16200    0.15640   -1.14080   -0.60540    1.33390    0.96480    1.42000    1.10100  # c1,o3e,c1,hc
dihedral_coeff	46 ebt   -0.16200    0.15640   -1.14080   -0.60540    1.33390    0.96480    1.42000    1.10100  # c1,oc,c1,hc
dihedral_coeff	47 ebt    0.08140    0.05910    0.22190    0.24860    0.24220   -0.09250    1.53000    1.10100  # c3h,c,c1,hc
dihedral_coeff	48 ebt    0.08140    0.05910    0.22190    0.24860    0.24220   -0.09250    1.53000    1.10100  # c3h,c1,c1,hc
dihedral_coeff	49 ebt    0.08140    0.05910    0.22190    0.24860    0.24220   -0.09250    1.53000    1.10100  # c3h,c3h,c,hc
dihedral_coeff	50 ebt    0.08140    0.05910    0.22190    0.24860    0.24220   -0.09250    1.53000    1.10100  # c3h,c3h,c1,hc
dihedral_coeff	51 ebt   -0.60540    1.33390    0.96480   -0.16200    0.15640   -1.14080    1.42000    1.10100  # c3h,o3e,c3h,hc
dihedral_coeff	52 ebt    0.00000    0.00000    0.00000    0.00000    0.00000    0.00000    0.96000    1.10100  # h,oh,c1,hc
dihedral_coeff	53 ebt    0.21300    0.31200    0.07770    0.21300    0.31200    0.07770    1.10100    1.10100  # hc,c,c,hc
dihedral_coeff	54 ebt    0.21300    0.31200    0.07770    0.21300    0.31200    0.07770    1.10100    1.10100  # hc,c,c1,hc
dihedral_coeff	55 ebt    0.96810    0.95510    0.04360    0.59030    0.66690    0.85840    1.10100    1.42000  # hc,c,c1,o3e
dihedral_coeff	56 ebt    0.96810    0.95510    0.04360    0.59030    0.66690    0.85840    1.10100    1.42000  # hc,c,c1,oc
dihedral_coeff	57 ebt    0.21300    0.31200    0.07770    0.21300    0.31200    0.07770    1.10100    1.10100  # hc,c,c3h,hc
dihedral_coeff	58 ebt    0.96810    0.95510    0.04360    0.59030    0.66690    0.85840    1.10100    1.42000  # hc,c,c3h,o3e
dihedral_coeff	59 ebt    0.21300    0.31200    0.07770    0.21300    0.31200    0.07770    1.10100    1.10100  # hc,c1,c1,hc
dihedral_coeff	60 ebt    0.96810    0.95510    0.04360    0.59030    0.66690    0.85840    1.10100    1.42000  # hc,c1,c1,o3e
dihedral_coeff	61 ebt    0.96810    0.95510    0.04360    0.59030    0.66690    0.85840    1.10100    1.42000  # hc,c1,c1,oc
dihedral_coeff	62 ebt    0.59030    0.66690    0.85840    0.96810    0.95510    0.04360    1.10100    1.42000  # hc,c1,c1,oh
dihedral_coeff	63 ebt    0.21300    0.31200    0.07770    0.21300    0.31200    0.07770    1.10100    1.10100  # hc,c1,c3h,hc
dihedral_coeff	64 ebt    0.96810    0.95510    0.04360    0.59030    0.66690    0.85840    1.10100    1.42000  # hc,c1,c3h,o3e
dihedral_coeff	65 ebt    0.21300    0.31200    0.07770    0.21300    0.31200    0.07770    1.10100    1.10100  # hc,c3h,c3h,hc
dihedral_coeff	66 ebt    0.96810    0.95510    0.04360    0.59030    0.66690    0.85840    1.10100    1.42000  # hc,c3h,c3h,o3e
dihedral_coeff	67 ebt    1.01650    0.75530   -0.46090    1.01650    0.75530   -0.46090    1.42000    1.42000  # oc,c1,c1,oc
dihedral_coeff	68 ebt    1.01650    0.75530   -0.46090    1.01650    0.75530   -0.46090    1.42000    1.42000  # oc,c1,c1,oh

# AngleTorsion Coeffs

dihedral_coeff	 1 at    0.38860   -0.31390    0.13890    0.38860   -0.31390    0.13890  112.67000  112.67000  # c,c,c1,c1
dihedral_coeff	 2 at    0.31130    0.45160   -0.19880   -0.24540    0.00000   -0.11360  112.67000  110.77000  # c,c,c1,hc
dihedral_coeff	 3 at    0.96720   -0.75660   -1.23310    0.56230   -0.30410   -0.40150  112.67000  111.27000  # c,c,c1,oc
dihedral_coeff	 4 at    0.38860   -0.31390    0.13890    0.38860   -0.31390    0.13890  112.67000  112.67000  # c,c1,c,c1
dihedral_coeff	 5 at    0.31130    0.45160   -0.19880   -0.24540    0.00000   -0.11360  112.67000  110.77000  # c,c1,c,hc
dihedral_coeff	 6 at    0.38860   -0.31390    0.13890    0.38860   -0.31390    0.13890  112.67000  112.67000  # c,c1,c1,c
dihedral_coeff	 7 at    0.38860   -0.31390    0.13890    0.38860   -0.31390    0.13890  112.67000  112.67000  # c,c1,c1,c1
dihedral_coeff	 8 at    0.38860   -0.31390    0.13890    0.38860   -0.31390    0.13890  112.67000  112.67000  # c,c1,c1,c3h
dihedral_coeff	 9 at    0.31130    0.45160   -0.19880   -0.24540    0.00000   -0.11360  112.67000  110.77000  # c,c1,c1,hc
dihedral_coeff	10 at    0.56230   -0.30410   -0.40150    0.96720   -0.75660   -1.23310  112.67000  111.27000  # c,c1,c1,o3e
dihedral_coeff	11 at    0.96720   -0.75660   -1.23310    0.56230   -0.30410   -0.40150  112.67000  111.27000  # c,c1,c1,oc
dihedral_coeff	12 at    0.96720   -0.75660   -1.23310    0.56230   -0.30410   -0.40150  112.67000  111.27000  # c,c1,c1,oh
dihedral_coeff	13 at    0.56760    0.94500    0.07030   -2.74660    1.48770   -0.89550  111.27000  104.50000  # c,c1,o3e,c1
dihedral_coeff	14 at    0.56760    0.94500    0.07030   -2.74660    1.48770   -0.89550  111.27000  104.50000  # c,c1,oc,c1
dihedral_coeff	15 at    0.38860   -0.31390    0.13890    0.38860   -0.31390    0.13890  112.67000  112.67000  # c,c3h,c3h,c1
dihedral_coeff	16 at    0.31130    0.45160   -0.19880   -0.24540    0.00000   -0.11360  112.67000  110.77000  # c,c3h,c3h,hc
dihedral_coeff	17 at    0.56230   -0.30410   -0.40150    0.96720   -0.75660   -1.23310  112.67000  111.27000  # c,c3h,c3h,o3e
dihedral_coeff	18 at   -2.74660    1.48770   -0.89550    0.56760    0.94500    0.07030  111.27000  104.50000  # c,c3h,o3e,c3h
dihedral_coeff	19 at    0.38860   -0.31390    0.13890    0.38860   -0.31390    0.13890  112.67000  112.67000  # c1,c,c,c1
dihedral_coeff	20 at   -0.24540    0.00000   -0.11360    0.31130    0.45160   -0.19880  112.67000  110.77000  # c1,c,c,hc
dihedral_coeff	21 at    0.38860   -0.31390    0.13890    0.38860   -0.31390    0.13890  112.67000  112.67000  # c1,c,c1,c1
dihedral_coeff	22 at   -0.24540    0.00000   -0.11360    0.31130    0.45160   -0.19880  112.67000  110.77000  # c1,c,c1,hc
dihedral_coeff	23 at    0.56230   -0.30410   -0.40150    0.96720   -0.75660   -1.23310  112.67000  111.27000  # c1,c,c1,o3e
dihedral_coeff	24 at    0.56230   -0.30410   -0.40150    0.96720   -0.75660   -1.23310  112.67000  111.27000  # c1,c,c1,oc
dihedral_coeff	25 at    0.38860   -0.31390    0.13890    0.38860   -0.31390    0.13890  112.67000  112.67000  # c1,c,c3h,c3h
dihedral_coeff	26 at   -0.24540    0.00000   -0.11360    0.31130    0.45160   -0.19880  112.67000  110.77000  # c1,c,c3h,hc
dihedral_coeff	27 at    0.56230   -0.30410   -0.40150    0.96720   -0.75660   -1.23310  112.67000  111.27000  # c1,c,c3h,o3e
dihedral_coeff	28 at    0.38860   -0.31390    0.13890    0.38860   -0.31390    0.13890  112.67000  112.67000  # c1,c1,c,c3h
dihedral_coeff	29 at   -0.24540    0.00000   -0.11360    0.31130    0.45160   -0.19880  112.67000  110.77000  # c1,c1,c,hc
dihedral_coeff	30 at    0.38860   -0.31390    0.13890    0.38860   -0.31390    0.13890  112.67000  112.67000  # c1,c1,c1,c1
dihedral_coeff	31 at    0.38860   -0.31390    0.13890    0.38860   -0.31390    0.13890  112.67000  112.67000  # c1,c1,c1,c3h
dihedral_coeff	32 at   -0.24540    0.00000   -0.11360    0.31130    0.45160   -0.19880  112.67000  110.77000  # c1,c1,c1,hc
dihedral_coeff	33 at    0.56230   -0.30410   -0.40150    0.96720   -0.75660   -1.23310  112.67000  111.27000  # c1,c1,c1,o3e
dihedral_coeff	34 at    0.56230   -0.30410   -0.40150    0.96720   -0.75660   -1.23310  112.67000  111.27000  # c1,c1,c1,oc
dihedral_coeff	35 at    0.96720   -0.75660   -1.23310    0.56230   -0.30410   -0.40150  112.67000  111.27000  # c1,c1,c1,oh
dihedral_coeff	36 at    0.38860   -0.31390    0.13890    0.38860   -0.31390    0.13890  112.67000  112.67000  # c1,c1,c3h,c3h
dihedral_coeff	37 at   -0.24540    0.00000   -0.11360    0.31130    0.45160   -0.19880  112.67000  110.77000  # c1,c1,c3h,hc
dihedral_coeff	38 at    0.56230   -0.30410   -0.40150    0.96720   -0.75660   -1.23310  112.67000  111.27000  # c1,c1,c3h,o3e
dihedral_coeff	39 at   -2.74660    1.48770   -0.89550    0.56760    0.94500    0.07030  111.27000  104.50000  # c1,c1,o3e,c1
dihedral_coeff	40 at   -2.74660    1.48770   -0.89550    0.56760    0.94500    0.07030  111.27000  104.50000  # c1,c1,oc,c1
dihedral_coeff	41 at    0.00000    0.00000    0.00000    0.00000    0.00000    0.00000  111.27000  109.00000  # c1,c1,oh,h
dihedral_coeff	42 at   -0.24540    0.00000   -0.11360    0.31130    0.45160   -0.19880  112.67000  110.77000  # c1,c3h,c3h,hc
dihedral_coeff	43 at    0.56230   -0.30410   -0.40150    0.96720   -0.75660   -1.23310  112.67000  111.27000  # c1,c3h,c3h,o3e
dihedral_coeff	44 at   -2.74660    1.48770   -0.89550    0.56760    0.94500    0.07030  111.27000  104.50000  # c1,c3h,o3e,c3h
dihedral_coeff	45 at   -0.77770    0.43400   -0.66530   -1.82340    1.63930    0.51440  104.50000  108.72800  # c1,o3e,c1,hc
dihedral_coeff	46 at   -0.77770    0.43400   -0.66530   -1.82340    1.63930    0.51440  104.50000  108.72800  # c1,oc,c1,hc
dihedral_coeff	47 at    0.31130    0.45160   -0.19880   -0.24540    0.00000   -0.11360  112.67000  110.77000  # c3h,c,c1,hc
dihedral_coeff	48 at    0.31130    0.45160   -0.19880   -0.24540    0.00000   -0.11360  112.67000  110.77000  # c3h,c1,c1,hc
dihedral_coeff	49 at    0.31130    0.45160   -0.19880   -0.24540    0.00000   -0.11360  112.67000  110.77000  # c3h,c3h,c,hc
dihedral_coeff	50 at    0.31130    0.45160   -0.19880   -0.24540    0.00000   -0.11360  112.67000  110.77000  # c3h,c3h,c1,hc
dihedral_coeff	51 at   -1.82340    1.63930    0.51440   -0.77770    0.43400   -0.66530  104.50000  108.72800  # c3h,o3e,c3h,hc
dihedral_coeff	52 at    0.00000    0.00000    0.00000    0.00000    0.00000    0.00000  109.00000  108.72800  # h,oh,c1,hc
dihedral_coeff	53 at   -0.80850    0.55690   -0.24660   -0.80850    0.55690   -0.24660  110.77000  110.77000  # hc,c,c,hc
dihedral_coeff	54 at   -0.80850    0.55690   -0.24660   -0.80850    0.55690   -0.24660  110.77000  110.77000  # hc,c,c1,hc
dihedral_coeff	55 at    2.36680    2.49200   -1.01220   -0.18920    0.49180    0.72730  110.77000  111.27000  # hc,c,c1,o3e
dihedral_coeff	56 at    2.36680    2.49200   -1.01220   -0.18920    0.49180    0.72730  110.77000  111.27000  # hc,c,c1,oc
dihedral_coeff	57 at   -0.80850    0.55690   -0.24660   -0.80850    0.55690   -0.24660  110.77000  110.77000  # hc,c,c3h,hc
dihedral_coeff	58 at    2.36680    2.49200   -1.01220   -0.18920    0.49180    0.72730  110.77000  111.27000  # hc,c,c3h,o3e
dihedral_coeff	59 at   -0.80850    0.55690   -0.24660   -0.80850    0.55690   -0.24660  110.77000  110.77000  # hc,c1,c1,hc
dihedral_coeff	60 at    2.36680    2.49200   -1.01220   -0.18920    0.49180    0.72730  110.77000  111.27000  # hc,c1,c1,o3e
dihedral_coeff	61 at    2.36680    2.49200   -1.01220   -0.18920    0.49180    0.72730  110.77000  111.27000  # hc,c1,c1,oc
dihedral_coeff	62 at   -0.18920    0.49180    0.72730    2.36680    2.49200   -1.01220  110.77000  111.27000  # hc,c1,c1,oh
dihedral_coeff	63 at   -0.80850    0.55690   -0.24660   -0.80850    0.55690   -0.24660  110.77000  110.77000  # hc,c1,c3h,hc
dihedral_coeff	64 at    2.36680    2.49200   -1.01220   -0.18920    0.49180    0.72730  110.77000  111.27000  # hc,c1,c3h,o3e
dihedral_coeff	65 at   -0.80850    0.55690   -0.24660   -0.80850    0.55690   -0.24660  110.77000  110.77000  # hc,c3h,c3h,hc
dihedral_coeff	66 at    2.36680    2.49200   -1.01220   -0.18920    0.49180    0.72730  110.77000  111.27000  # hc,c3h,c3h,o3e
dihedral_coeff	67 at    0.55110    0.97370   -0.66730    0.55110    0.97370   -0.66730  111.27000  111.27000  # oc,c1,c1,oc
dihedral_coeff	68 at    0.55110    0.97370   -0.66730    0.55110    0.97370   -0.66730  111.27000  111.27000  # oc,c1,c1,oh

# AngleAngleTorsion Coeffs

dihedral_coeff	 1 aat  -22.04500  112.67000  112.67000  # c,c,c1,c1
dihedral_coeff	 2 aat  -16.16400  112.67000  110.77000  # c,c,c1,hc
dihedral_coeff	 3 aat  -29.04200  112.67000  111.27000  # c,c,c1,oc
dihedral_coeff	 4 aat  -22.04500  112.67000  112.67000  # c,c1,c,c1
dihedral_coeff	 5 aat  -16.16400  112.67000  110.77000  # c,c1,c,hc
dihedral_coeff	 6 aat  -22.04500  112.67000  112.67000  # c,c1,c1,c
dihedral_coeff	 7 aat  -22.04500  112.67000  112.67000  # c,c1,c1,c1
dihedral_coeff	 8 aat  -22.04500  112.67000  112.67000  # c,c1,c1,c3h
dihedral_coeff	 9 aat  -16.16400  112.67000  110.77000  # c,c1,c1,hc
dihedral_coeff	10 aat  -29.04200  112.67000  111.27000  # c,c1,c1,o3e
dihedral_coeff	11 aat  -29.04200  112.67000  111.27000  # c,c1,c1,oc
dihedral_coeff	12 aat  -29.04200  112.67000  111.27000  # c,c1,c1,oh
dihedral_coeff	13 aat  -19.00590  111.27000  104.50000  # c,c1,o3e,c1
dihedral_coeff	14 aat  -19.00590  111.27000  104.50000  # c,c1,oc,c1
dihedral_coeff	15 aat  -22.04500  112.67000  112.67000  # c,c3h,c3h,c1
dihedral_coeff	16 aat  -16.16400  112.67000  110.77000  # c,c3h,c3h,hc
dihedral_coeff	17 aat  -29.04200  112.67000  111.27000  # c,c3h,c3h,o3e
dihedral_coeff	18 aat  -19.00590  111.27000  104.50000  # c,c3h,o3e,c3h
dihedral_coeff	19 aat  -22.04500  112.67000  112.67000  # c1,c,c,c1
dihedral_coeff	20 aat  -16.16400  112.67000  110.77000  # c1,c,c,hc
dihedral_coeff	21 aat  -22.04500  112.67000  112.67000  # c1,c,c1,c1
dihedral_coeff	22 aat  -16.16400  112.67000  110.77000  # c1,c,c1,hc
dihedral_coeff	23 aat  -29.04200  112.67000  111.27000  # c1,c,c1,o3e
dihedral_coeff	24 aat  -29.04200  112.67000  111.27000  # c1,c,c1,oc
dihedral_coeff	25 aat  -22.04500  112.67000  112.67000  # c1,c,c3h,c3h
dihedral_coeff	26 aat  -16.16400  112.67000  110.77000  # c1,c,c3h,hc
dihedral_coeff	27 aat  -29.04200  112.67000  111.27000  # c1,c,c3h,o3e
dihedral_coeff	28 aat  -22.04500  112.67000  112.67000  # c1,c1,c,c3h
dihedral_coeff	29 aat  -16.16400  112.67000  110.77000  # c1,c1,c,hc
dihedral_coeff	30 aat  -22.04500  112.67000  112.67000  # c1,c1,c1,c1
dihedral_coeff	31 aat  -22.04500  112.67000  112.67000  # c1,c1,c1,c3h
dihedral_coeff	32 aat  -16.16400  112.67000  110.77000  # c1,c1,c1,hc
dihedral_coeff	33 aat  -29.04200  112.67000  111.27000  # c1,c1,c1,o3e
dihedral_coeff	34 aat  -29.04200  112.67000  111.27000  # c1,c1,c1,oc
dihedral_coeff	35 aat  -29.04200  112.67000  111.27000  # c1,c1,c1,oh
dihedral_coeff	36 aat  -22.04500  112.67000  112.67000  # c1,c1,c3h,c3h
dihedral_coeff	37 aat  -16.16400  112.67000  110.77000  # c1,c1,c3h,hc
dihedral_coeff	38 aat  -29.04200  112.67000  111.27000  # c1,c1,c3h,o3e
dihedral_coeff	39 aat  -19.00590  111.27000  104.50000  # c1,c1,o3e,c1
dihedral_coeff	40 aat  -19.00590  111.27000  104.50000  # c1,c1,oc,c1
dihedral_coeff	41 aat    0.00000  111.27000  109.00000  # c1,c1,oh,h
dihedral_coeff	42 aat  -16.16400  112.67000  110.77000  # c1,c3h,c3h,hc
dihedral_coeff	43 aat  -29.04200  112.67000  111.27000  # c1,c3h,c3h,o3e
dihedral_coeff	44 aat  -19.00590  111.27000  104.50000  # c1,c3h,o3e,c3h
dihedral_coeff	45 aat  -16.44380  104.50000  108.72800  # c1,o3e,c1,hc
dihedral_coeff	46 aat  -16.44380  104.50000  108.72800  # c1,oc,c1,hc
dihedral_coeff	47 aat  -16.16400  112.67000  110.77000  # c3h,c,c1,hc
dihedral_coeff	48 aat  -16.16400  112.67000  110.77000  # c3h,c1,c1,hc
dihedral_coeff	49 aat  -16.16400  112.67000  110.77000  # c3h,c3h,c,hc
dihedral_coeff	50 aat  -16.16400  112.67000  110.77000  # c3h,c3h,c1,hc
dihedral_coeff	51 aat  -16.44380  104.50000  108.72800  # c3h,o3e,c3h,hc
dihedral_coeff	52 aat    0.00000  109.00000  108.72800  # h,oh,c1,hc
dihedral_coeff	53 aat  -12.56400  110.77000  110.77000  # hc,c,c,hc
dihedral_coeff	54 aat  -12.56400  110.77000  110.77000  # hc,c,c1,hc
dihedral_coeff	55 aat  -20.20060  110.77000  111.27000  # hc,c,c1,o3e
dihedral_coeff	56 aat  -20.20060  110.77000  111.27000  # hc,c,c1,oc
dihedral_coeff	57 aat  -12.56400  110.77000  110.77000  # hc,c,c3h,hc
dihedral_coeff	58 aat  -20.20060  110.77000  111.27000  # hc,c,c3h,o3e
dihedral_coeff	59 aat  -12.56400  110.77000  110.77000  # hc,c1,c1,hc
dihedral_coeff	60 aat  -20.20060  110.77000  111.27000  # hc,c1,c1,o3e
dihedral_coeff	61 aat  -20.20060  110.77000  111.27000  # hc,c1,c1,oc
dihedral_coeff	62 aat  -20.20060  110.77000  111.27000  # hc,c1,c1,oh
dihedral_coeff	63 aat  -12.56400  110.77000  110.77000  # hc,c1,c3h,hc
dihedral_coeff	64 aat  -20.20060  110.77000  111.27000  # hc,c1,c3h,o3e
dihedral_coeff	65 aat  -12.56400  110.77000  110.77000  # hc,c3h,c3h,hc
dihedral_coeff	66 aat  -20.20060  110.77000  111.27000  # hc,c3h,c3h,o3e
dihedral_coeff	67 aat  -14.04840  111.27000  111.27000  # oc,c1,c1,oc
dihedral_coeff	68 aat  -14.04840  111.27000  111.27000  # oc,c1,c1,oh

# BondBond13 Coeffs

dihedral_coeff	 1 bb13    0.00000    1.53000    1.53000  # c,c,c1,c1
dihedral_coeff	 2 bb13    0.00000    1.53000    1.10100  # c,c,c1,hc
dihedral_coeff	 3 bb13    0.00000    1.53000    1.42000  # c,c,c1,oc
dihedral_coeff	 4 bb13    0.00000    1.53000    1.53000  # c,c1,c,c1
dihedral_coeff	 5 bb13    0.00000    1.53000    1.10100  # c,c1,c,hc
dihedral_coeff	 6 bb13    0.00000    1.53000    1.53000  # c,c1,c1,c
dihedral_coeff	 7 bb13    0.00000    1.53000    1.53000  # c,c1,c1,c1
dihedral_coeff	 8 bb13    0.00000    1.53000    1.53000  # c,c1,c1,c3h
dihedral_coeff	 9 bb13    0.00000    1.53000    1.10100  # c,c1,c1,hc
dihedral_coeff	10 bb13    0.00000    1.53000    1.42000  # c,c1,c1,o3e
dihedral_coeff	11 bb13    0.00000    1.53000    1.42000  # c,c1,c1,oc
dihedral_coeff	12 bb13    0.00000    1.53000    1.42000  # c,c1,c1,oh
dihedral_coeff	13 bb13    0.00000    1.53000    1.42000  # c,c1,o3e,c1
dihedral_coeff	14 bb13    0.00000    1.53000    1.42000  # c,c1,oc,c1
dihedral_coeff	15 bb13    0.00000    1.53000    1.53000  # c,c3h,c3h,c1
dihedral_coeff	16 bb13    0.00000    1.53000    1.10100  # c,c3h,c3h,hc
dihedral_coeff	17 bb13    0.00000    1.53000    1.42000  # c,c3h,c3h,o3e
dihedral_coeff	18 bb13    0.00000    1.53000    1.42000  # c,c3h,o3e,c3h
dihedral_coeff	19 bb13    0.00000    1.53000    1.53000  # c1,c,c,c1
dihedral_coeff	20 bb13    0.00000    1.53000    1.10100  # c1,c,c,hc
dihedral_coeff	21 bb13    0.00000    1.53000    1.53000  # c1,c,c1,c1
dihedral_coeff	22 bb13    0.00000    1.53000    1.10100  # c1,c,c1,hc
dihedral_coeff	23 bb13    0.00000    1.53000    1.42000  # c1,c,c1,o3e
dihedral_coeff	24 bb13    0.00000    1.53000    1.42000  # c1,c,c1,oc
dihedral_coeff	25 bb13    0.00000    1.53000    1.53000  # c1,c,c3h,c3h
dihedral_coeff	26 bb13    0.00000    1.53000    1.10100  # c1,c,c3h,hc
dihedral_coeff	27 bb13    0.00000    1.53000    1.42000  # c1,c,c3h,o3e
dihedral_coeff	28 bb13    0.00000    1.53000    1.53000  # c1,c1,c,c3h
dihedral_coeff	29 bb13    0.00000    1.53000    1.10100  # c1,c1,c,hc
dihedral_coeff	30 bb13    0.00000    1.53000    1.53000  # c1,c1,c1,c1
dihedral_coeff	31 bb13    0.00000    1.53000    1.53000  # c1,c1,c1,c3h
dihedral_coeff	32 bb13    0.00000    1.53000    1.10100  # c1,c1,c1,hc
dihedral_coeff	33 bb13    0.00000    1.53000    1.42000  # c1,c1,c1,o3e
dihedral_coeff	34 bb13    0.00000    1.53000    1.42000  # c1,c1,c1,oc
dihedral_coeff	35 bb13    0.00000    1.53000    1.42000  # c1,c1,c1,oh
dihedral_coeff	36 bb13    0.00000    1.53000    1.53000  # c1,c1,c3h,c3h
dihedral_coeff	37 bb13    0.00000    1.53000    1.10100  # c1,c1,c3h,hc
dihedral_coeff	38 bb13    0.00000    1.53000    1.42000  # c1,c1,c3h,o3e
dihedral_coeff	39 bb13    0.00000    1.53000    1.42000  # c1,c1,o3e,c1
dihedral_coeff	40 bb13    0.00000    1.53000    1.42000  # c1,c1,oc,c1
dihedral_coeff	41 bb13    0.00000    1.53000    0.96000  # c1,c1,oh,h
dihedral_coeff	42 bb13    0.00000    1.53000    1.10100  # c1,c3h,c3h,hc
dihedral_coeff	43 bb13    0.00000    1.53000    1.42000  # c1,c3h,c3h,o3e
dihedral_coeff	44 bb13    0.00000    1.53000    1.42000  # c1,c3h,o3e,c3h
dihedral_coeff	45 bb13    0.00000    1.42000    1.10100  # c1,o3e,c1,hc
dihedral_coeff	46 bb13    0.00000    1.42000    1.10100  # c1,oc,c1,hc
dihedral_coeff	47 bb13    0.00000    1.53000    1.10100  # c3h,c,c1,hc
dihedral_coeff	48 bb13    0.00000    1.53000    1.10100  # c3h,c1,c1,hc
dihedral_coeff	49 bb13    0.00000    1.53000    1.10100  # c3h,c3h,c,hc
dihedral_coeff	50 bb13    0.00000    1.53000    1.10100  # c3h,c3h,c1,hc
dihedral_coeff	51 bb13    0.00000    1.42000    1.10100  # c3h,o3e,c3h,hc
dihedral_coeff	52 bb13    0.00000    0.96000    1.10100  # h,oh,c1,hc
dihedral_coeff	53 bb13    0.00000    1.10100    1.10100  # hc,c,c,hc
dihedral_coeff	54 bb13    0.00000    1.10100    1.10100  # hc,c,c1,hc
dihedral_coeff	55 bb13    0.00000    1.10100    1.42000  # hc,c,c1,o3e
dihedral_coeff	56 bb13    0.00000    1.10100    1.42000  # hc,c,c1,oc
dihedral_coeff	57 bb13    0.00000    1.10100    1.10100  # hc,c,c3h,hc
dihedral_coeff	58 bb13    0.00000    1.10100    1.42000  # hc,c,c3h,o3e
dihedral_coeff	59 bb13    0.00000    1.10100    1.10100  # hc,c1,c1,hc
dihedral_coeff	60 bb13    0.00000    1.10100    1.42000  # hc,c1,c1,o3e
dihedral_coeff	61 bb13    0.00000    1.10100    1.42000  # hc,c1,c1,oc
dihedral_coeff	62 bb13    0.00000    1.10100    1.42000  # hc,c1,c1,oh
dihedral_coeff	63 bb13    0.00000    1.10100    1.10100  # hc,c1,c3h,hc
dihedral_coeff	64 bb13    0.00000    1.10100    1.42000  # hc,c1,c3h,o3e
dihedral_coeff	65 bb13    0.00000    1.10100    1.10100  # hc,c3h,c3h,hc
dihedral_coeff	66 bb13    0.00000    1.10100    1.42000  # hc,c3h,c3h,o3e
dihedral_coeff	67 bb13    0.00000    1.42000    1.42000  # oc,c1,c1,oc
dihedral_coeff	68 bb13    0.00000    1.42000    1.42000  # oc,c1,c1,oh

# Improper Coeffs

improper_coeff	 1    0.00000    0.00000  # c,c,c1,hc
improper_coeff	 2    0.00000    0.00000  # c,c,hc,c1
improper_coeff	 3    0.00000    0.00000  # c,c,hc,hc
improper_coeff	 4    0.00000    0.00000  # c,c1,c1,hc
improper_coeff	 5    0.00000    0.00000  # c,c1,hc,c3h
improper_coeff	 6    0.00000    0.00000  # c,c1,hc,hc
improper_coeff	 7    0.00000    0.00000  # c,c3h,hc,hc
improper_coeff	 8    0.00000    0.00000  # c1,c,c,c1
improper_coeff	 9    0.00000    0.00000  # c1,c,c,hc
improper_coeff	10    0.00000    0.00000  # c1,c,c1,c1
improper_coeff	11    0.00000    0.00000  # c1,c,c1,hc
improper_coeff	12    0.00000    0.00000  # c1,c,c1,oc
improper_coeff	13    0.00000    0.00000  # c1,c,hc,c1
improper_coeff	14    0.00000    0.00000  # c1,c,hc,oc
improper_coeff	15    0.00000    0.00000  # c1,c,o3e,c1
improper_coeff	16    0.00000    0.00000  # c1,c,o3e,hc
improper_coeff	17    0.00000    0.00000  # c1,c,oc,c1
improper_coeff	18    0.00000    0.00000  # c1,c,oc,hc
improper_coeff	19    0.00000    0.00000  # c1,c1,c1,c1
improper_coeff	20    0.00000    0.00000  # c1,c1,c1,c3h
improper_coeff	21    0.00000    0.00000  # c1,c1,c1,hc
improper_coeff	22    0.00000    0.00000  # c1,c1,c1,o3e
improper_coeff	23    0.00000    0.00000  # c1,c1,c1,oc
improper_coeff	24    0.00000    0.00000  # c1,c1,c1,oh
improper_coeff	25    0.00000    0.00000  # c1,c1,c3h,hc
improper_coeff	26    0.00000    0.00000  # c1,c1,hc,c3h
improper_coeff	27    0.00000    0.00000  # c1,c1,hc,o3e
improper_coeff	28    0.00000    0.00000  # c1,c1,hc,oc
improper_coeff	29    0.00000    0.00000  # c1,c1,hc,oh
improper_coeff	30    0.00000    0.00000  # c1,c1,o3e,hc
improper_coeff	31    0.00000    0.00000  # c1,c1,oc,hc
improper_coeff	32    0.00000    0.00000  # c3h,c,hc,c3h
improper_coeff	33    0.00000    0.00000  # c3h,c,o3e,c3h
improper_coeff	34    0.00000    0.00000  # c3h,c,o3e,hc
improper_coeff	35    0.00000    0.00000  # c3h,c1,c3h,hc
improper_coeff	36    0.00000    0.00000  # c3h,c1,c3h,o3e
improper_coeff	37    0.00000    0.00000  # c3h,c1,o3e,hc
improper_coeff	38    0.00000    0.00000  # c3h,c3h,o3e,hc

# AngleAngle Coeffs

improper_coeff	 1 aa    0.00000   -1.31990    0.00000  112.67000  110.77000  110.77000  # c,c,c1,hc
improper_coeff	 2 aa    0.00000   -1.31990    0.00000  110.77000  112.67000  110.77000  # c,c,hc,c1
improper_coeff	 3 aa    0.00000   -0.48250    0.00000  110.77000  110.77000  107.66000  # c,c,hc,hc
improper_coeff	 4 aa   -1.31990   -1.31990    0.11840  112.67000  110.77000  110.77000  # c,c1,c1,hc
improper_coeff	 5 aa    0.11840    0.00000   -1.31990  110.77000  112.67000  110.77000  # c,c1,hc,c3h
improper_coeff	 6 aa    0.27380   -0.48250    0.27380  110.77000  110.77000  107.66000  # c,c1,hc,hc
improper_coeff	 7 aa    0.00000   -0.48250    0.00000  110.77000  110.77000  107.66000  # c,c3h,hc,hc
improper_coeff	 8 aa    0.00000    0.00000   -0.17290  112.67000  112.67000  112.67000  # c1,c,c,c1
improper_coeff	 9 aa    0.00000    0.00000    0.11840  112.67000  110.77000  110.77000  # c1,c,c,hc
improper_coeff	10 aa    0.00000   -0.17290    0.00000  112.67000  112.67000  112.67000  # c1,c,c1,c1
improper_coeff	11 aa    0.00000   -1.31990    0.00000  112.67000  110.77000  110.77000  # c1,c,c1,hc
improper_coeff	12 aa    0.00000   -0.83300    0.00000  112.67000  111.27000  111.27000  # c1,c,c1,oc
improper_coeff	13 aa    0.00000   -1.31990    0.00000  110.77000  112.67000  110.77000  # c1,c,hc,c1
improper_coeff	14 aa    0.00000    2.59260    0.00000  110.77000  111.27000  108.72800  # c1,c,hc,oc
improper_coeff	15 aa    0.00000   -0.83300   -0.83300  111.27000  112.67000  111.27000  # c1,c,o3e,c1
improper_coeff	16 aa    0.00000    2.59260    3.91770  111.27000  110.77000  108.72800  # c1,c,o3e,hc
improper_coeff	17 aa    0.00000   -0.83300    0.00000  111.27000  112.67000  111.27000  # c1,c,oc,c1
improper_coeff	18 aa    0.00000    2.59260    0.00000  111.27000  110.77000  108.72800  # c1,c,oc,hc
improper_coeff	19 aa   -0.17290   -0.17290   -0.17290  112.67000  112.67000  112.67000  # c1,c1,c1,c1
improper_coeff	20 aa   -0.17290   -0.17290   -0.17290  112.67000  112.67000  112.67000  # c1,c1,c1,c3h
improper_coeff	21 aa   -1.31990   -1.31990    0.11840  112.67000  110.77000  110.77000  # c1,c1,c1,hc
improper_coeff	22 aa   -0.83300   -0.83300   -3.57440  112.67000  111.27000  111.27000  # c1,c1,c1,o3e
improper_coeff	23 aa   -0.83300   -0.83300   -3.57440  112.67000  111.27000  111.27000  # c1,c1,c1,oc
improper_coeff	24 aa    0.00000    0.00000   -3.57440  112.67000  111.27000  111.27000  # c1,c1,c1,oh
improper_coeff	25 aa   -1.31990    0.00000    0.11840  112.67000  110.77000  110.77000  # c1,c1,c3h,hc
improper_coeff	26 aa    0.11840    0.00000   -1.31990  110.77000  112.67000  110.77000  # c1,c1,hc,c3h
improper_coeff	27 aa    3.91770    2.59260    0.16890  110.77000  111.27000  108.72800  # c1,c1,hc,o3e
improper_coeff	28 aa    3.91770    2.59260    0.16890  110.77000  111.27000  108.72800  # c1,c1,hc,oc
improper_coeff	29 aa    0.00000    0.00000    0.16890  110.77000  111.27000  108.72800  # c1,c1,hc,oh
improper_coeff	30 aa    0.16890    2.59260    3.91770  111.27000  110.77000  108.72800  # c1,c1,o3e,hc
improper_coeff	31 aa    0.16890    2.59260    3.91770  111.27000  110.77000  108.72800  # c1,c1,oc,hc
improper_coeff	32 aa    0.11840    0.00000    0.00000  110.77000  112.67000  110.77000  # c3h,c,hc,c3h
improper_coeff	33 aa   -3.57440    0.00000   -0.83300  111.27000  112.67000  111.27000  # c3h,c,o3e,c3h
improper_coeff	34 aa    0.00000    2.59260    3.91770  111.27000  110.77000  108.72800  # c3h,c,o3e,hc
improper_coeff	35 aa   -1.31990    0.00000    0.11840  112.67000  110.77000  110.77000  # c3h,c1,c3h,hc
improper_coeff	36 aa   -0.83300    0.00000   -3.57440  112.67000  111.27000  111.27000  # c3h,c1,c3h,o3e
improper_coeff	37 aa    0.16890    2.59260    3.91770  111.27000  110.77000  108.72800  # c3h,c1,o3e,hc
improper_coeff	38 aa    0.00000    2.59260    0.00000  111.27000  110.77000  108.72800  # c3h,c3h,o3e,hc

# ------------------------------- OPT Section -------------------------------
minimize 1.0e-5 1.0e-7 100000 400000
Generated 28 of 28 mixed pair_coeff terms from sixthpower/geometric mixing rule
Neighbor list info ...
  update: every = 1 steps, delay = 0 steps, check = yes
  max neighbors/atom: 2000, page size: 100000
  master list distance cutoff = 12
  ghost atom cutoff = 12
  binsize = 6, bins = 16 16 16
  1 neighbor lists, perpetual/occasional/extra = 1 0 0
  (1) pair lj/class2/coul/cut, perpetual
      attributes: half, newton on
      pair build: half/bin/newton
      stencil: half/bin/3d
      bin: standard
Per MPI rank memory allocation (min/avg/max) = 28.57 | 28.84 | 29.36 Mbytes
   Step          Temp          E_pair         E_mol          TotEng         Press     
         0   0             -16.540257      544.15779      527.61754     -17.766961    
        61   0             -18.470637      454.92688      436.45625     -0.54627937   
Loop time of 0.0212639 on 6 procs for 61 steps with 74 atoms

98.2% CPU use with 6 MPI tasks x no OpenMP threads

Minimization stats:
  Stopping criterion = energy tolerance
  Energy initial, next-to-last, final = 
      527.617537237423   436.457784001733   436.456245561992
  Force two-norm initial, final = 322.91497 10.814919
  Force max component initial, final = 77.74518 2.5536947
  Final line search alpha, max atom move = 0.0042485855 0.01084959
  Iterations, force evaluations = 61 122

MPI task timing breakdown:
Section |  min time  |  avg time  |  max time  |%varavg| %total
---------------------------------------------------------------
Pair    | 7.145e-06  | 0.00038211 | 0.001979   |   0.0 |  1.80
Bond    | 1.6712e-05 | 0.0037608  | 0.015572   |   9.5 | 17.69
Neigh   | 0          | 0          | 0          |   0.0 |  0.00
Comm    | 1.6152e-05 | 0.0063162  | 0.01796    |   8.4 | 29.70
Output  | 0          | 0          | 0          |   0.0 |  0.00
Modify  | 0          | 0          | 0          |   0.0 |  0.00
Other   |            | 0.0108     |            |       | 50.81

Nlocal:        12.3333 ave          50 max           0 min
Histogram: 4 0 0 0 1 0 0 0 0 1
Nghost:        69.6667 ave         146 max           0 min
Histogram: 2 0 0 1 0 0 1 0 1 1
Neighs:            164 ave         871 max           0 min
Histogram: 4 1 0 0 0 0 0 0 0 1

Total # of neighbors = 984
Ave neighs/atom = 13.297297
Ave special neighs/atom = 13.972973
Neighbor list builds = 0
Dangerous builds = 0
# ------------------------------- Run Section -------------------------------
#

thermo_style custom step temp pe evdwl ecoul ebond eangle edihed eimp density vol
thermo          100

fix Langevin  all langevin 300 300 100.0 482432
fix moveLimit all nve/limit 0.1
run 20000
Generated 28 of 28 mixed pair_coeff terms from sixthpower/geometric mixing rule
Per MPI rank memory allocation (min/avg/max) = 27.45 | 27.71 | 28.23 Mbytes
   Step          Temp          PotEng         E_vdwl         E_coul         E_bond        E_angle        E_dihed        E_impro        Density         Volume    
        61   0              436.45625     -3.5027137     -14.967923      6.8697537      569.69456     -115.45095     -6.1864821      0.00099999998  821358.63    
       100   101.80396      453.32845     -2.4221539     -15.137032      15.750342      573.30495     -112.14784     -6.0198114      0.00099999998  821358.63    
       200   193.44298      484.22686     -3.5320823     -14.987092      19.750194      595.20515     -105.11711     -7.0922048      0.00099999998  821358.63    
       300   249.42248      492.07214     -3.844404      -14.494842      31.52252       592.32036     -106.84845     -6.5830466      0.00099999998  821358.63    
       400   296.86304      490.4545      -4.2168399     -15.347826      30.131527      603.00605     -116.12848     -6.9899279      0.00099999998  821358.63    
       500   345.04352      503.30542     -1.6286717     -14.499486      39.306376      602.38583     -116.59893     -5.6597064      0.00099999998  821358.63    
       600   300.61323      503.11178     -0.98825533    -12.790074      38.241216      596.104       -112.41348     -5.0416256      0.00099999998  821358.63    
       700   336.75922      510.7202      -3.3252591     -14.359938      39.224099      608.10454     -113.55131     -5.3719242      0.00099999998  821358.63    
       800   321.76427      503.86311     -2.3865324     -14.710401      28.927699      602.32079     -105.61213     -4.6763082      0.00099999998  821358.63    
       900   330.39387      501.62628     -0.38147968    -14.590847      33.177002      609.30516     -118.55135     -7.3322004      0.00099999998  821358.63    
      1000   334.97633      499.28123     -2.1074015     -14.353588      38.426614      608.48189     -123.92563     -7.2406514      0.00099999998  821358.63    
      1100   283.60234      498.1336      -1.4708182     -14.533332      35.133021      589.93537     -104.88244     -6.0481946      0.00099999998  821358.63    
      1200   310.15615      496.25734     -4.4609671     -14.884602      34.904606      597.39104     -111.43191     -5.2608283      0.00099999998  821358.63    
      1300   253.09008      492.53534     -2.0190808     -14.149003      33.728878      589.2193      -108.99215     -5.2526122      0.00099999998  821358.63    
      1400   279.55111      488.97832     -1.4992991     -14.499768      31.331629      594.19193     -114.25496     -6.2912084      0.00099999998  821358.63    
      1500   302.15318      487.7541      -1.6008385     -14.274426      26.551556      598.03522     -115.01983     -5.9375841      0.00099999998  821358.63    
      1600   293.18301      502.69651      0.9783565     -15.273976      28.978512      591.39711     -97.52552      -5.8579807      0.00099999998  821358.63    
      1700   301.58733      498.29157     -2.5379284     -14.218292      42.440958      589.6352      -111.98441     -5.043952       0.00099999998  821358.63    
      1800   289.39731      493.12824     -2.1552675     -14.866041      28.706462      594.22124     -108.04413     -4.7340244      0.00099999998  821358.63    
      1900   281.19493      495.63243     -2.0518655     -15.116169      34.170238      587.96724     -104.94274     -4.3942688      0.00099999998  821358.63    
      2000   303.62631      508.35763     -2.6571404     -15.038541      42.928584      614.48722     -123.98575     -7.3767443      0.00099999998  821358.63    
      2100   294.89234      491.90309     -2.7554451     -15.41642       25.178885      608.90234     -118.73951     -5.2667665      0.00099999998  821358.63    
      2200   276.25758      495.36874     -0.64773353    -13.663348      31.817628      593.96995     -109.93567     -6.1720819      0.00099999998  821358.63    
      2300   310.3874       505.22002     -2.4107574     -15.935574      29.599533      600.14218     -101.47313     -4.7022328      0.00099999998  821358.63    
      2400   341.36         493.5805      -2.9660804     -15.183468      28.644769      585.94565     -97.615573     -5.2447965      0.00099999998  821358.63    
      2500   300.43256      495.04481     -0.29226531    -14.660763      32.592341      605.83519     -122.64589     -5.7838024      0.00099999998  821358.63    
      2600   301.04538      497.04048     -0.87696408    -14.420186      37.128669      601.68706     -120.20119     -6.2769066      0.00099999998  821358.63    
      2700   278.07446      492.90509     -2.463635      -13.745621      25.422041      587.7997      -98.855847     -5.2515498      0.00099999998  821358.63    
      2800   338.36176      503.68704     -0.96902244    -15.129883      37.707239      610.33429     -122.81316     -5.44243        0.00099999998  821358.63    
      2900   340.03887      517.47435     -4.9107481     -16.048793      47.111872      603.71276     -107.33722     -5.0535216      0.00099999998  821358.63    
      3000   319.4757       498.51971     -2.4225752     -14.604745      32.873565      594.93984     -108.72264     -3.5437262      0.00099999998  821358.63    
      3100   302.99264      505.68297     -5.1034237     -14.60058       33.336424      614.72968     -117.21026     -5.4688617      0.00099999998  821358.63    
      3200   315.23234      499.94611     -3.6942553     -14.482306      29.210334      593.55799     -100.03963     -4.6060268      0.00099999998  821358.63    
      3300   240.52442      497.10483     -4.3318796     -15.124955      37.2458        606.79847     -120.43275     -7.0498568      0.00099999998  821358.63    
      3400   303.3539       495.58392     -1.3704269     -15.203418      33.432815      603.33146     -119.37327     -5.2332409      0.00099999998  821358.63    
      3500   281.58222      507.98948      0.91570316    -15.81518       37.059211      605.97624     -113.84328     -6.3032098      0.00099999998  821358.63    
      3600   283.23291      492.56301     -3.1490201     -15.325696      28.511563      605.25093     -115.99692     -6.7278542      0.00099999998  821358.63    
      3700   334.71685      506.86867      3.7293308     -14.790142      31.182779      610.29366     -115.94538     -7.6015828      0.00099999998  821358.63    
      3800   313.56563      506.25773     -2.1907821     -14.023823      40.761006      596.01451     -107.20857     -7.0946211      0.00099999998  821358.63    
      3900   319.08349      490.66462     -3.9785563     -14.506042      30.43615       600.34513     -115.34628     -6.2857833      0.00099999998  821358.63    
      4000   296.81345      498.22932     -3.3320605     -14.654888      34.704846      596.40172     -109.06837     -5.8219197      0.00099999998  821358.63    
      4100   312.0565       500.7905      -2.1865485     -16.695374      35.937746      606.38303     -116.49837     -6.1499837      0.00099999998  821358.63    
      4200   276.60417      501.47782     -2.6511293     -16.662279      33.851469      607.21535     -114.39584     -5.8797441      0.00099999998  821358.63    
      4300   301.96793      505.49186     -4.2542615     -15.895836      37.68107       604.77861     -112.07254     -4.7451929      0.00099999998  821358.63    
      4400   300.70908      495.43763     -2.2555869     -14.285943      36.028611      604.40194     -122.05773     -6.3936661      0.00099999998  821358.63    
      4500   299.70535      502.00101     -2.4960679     -14.788405      36.725814      603.82246     -114.14002     -7.1227747      0.00099999998  821358.63    
      4600   328.89082      496.21774     -1.7556162     -16.886973      35.729359      594.9215      -110.17133     -5.6191989      0.00099999998  821358.63    
      4700   302.97108      496.98434     -1.7404911     -15.760684      35.217117      603.27396     -117.84907     -6.1564908      0.00099999998  821358.63    
      4800   332.76858      493.13822     -1.3388441     -13.986066      28.373877      606.02088     -118.70741     -7.2242247      0.00099999998  821358.63    
      4900   317.63034      495.39944     -1.1977997     -17.649342      33.367658      603.30454     -116.70888     -5.7167412      0.00099999998  821358.63    
      5000   295.2734       511.44628     -1.305388      -15.59953       39.05781       606.32079     -111.25832     -5.7690891      0.00099999998  821358.63    
      5100   299.01751      498.03133      0.26100277    -12.700254      35.66416       601.5269      -120.20902     -6.5114561      0.00099999998  821358.63    
      5200   359.87025      482.99444     -4.3346404     -15.82255       31.893426      581.01172     -104.98372     -4.7697983      0.00099999998  821358.63    
      5300   284.4969       501.16312     -3.2042246     -14.337797      37.782079      600.4276      -112.93966     -6.564882       0.00099999998  821358.63    
      5400   362.76089      501.99431     -2.6240536     -14.456867      44.373933      613.07392     -130.85916     -7.5134586      0.00099999998  821358.63    
      5500   281.98909      488.68449     -2.3872225     -14.501095      25.709576      610.58123     -123.95702     -6.7609771      0.00099999998  821358.63    
      5600   328.6166       495.5631      -0.38362558    -13.839019      27.76846       596.54379     -108.97083     -5.5556718      0.00099999998  821358.63    
      5700   323.46808      494.52739     -2.2679241     -14.414758      26.363399      605.20507     -114.71541     -5.642981       0.00099999998  821358.63    
      5800   258.87933      514.99111     -2.9783682     -13.873719      32.715494      605.65065     -101.02487     -5.4980804      0.00099999998  821358.63    
      5900   326.61264      495.49067     -2.7215906     -13.823581      39.543054      595.00695     -117.28586     -5.2283025      0.00099999998  821358.63    
      6000   271.65869      490.94806     -1.306962      -13.862273      30.090491      585.80124     -104.58071     -5.1937214      0.00099999998  821358.63    
      6100   245.91252      493.78475     -0.58507204    -14.673569      38.218724      597.41883     -120.96537     -5.6288054      0.00099999998  821358.63    
      6200   284.94451      495.16644     -1.2823455     -13.844514      29.860285      601.39834     -114.31287     -6.6524576      0.00099999998  821358.63    
      6300   303.89689      508.2716      -1.8925017     -16.333719      35.413154      603.20808     -107.45595     -4.6674649      0.00099999998  821358.63    
      6400   285.54775      499.56932     -4.9959629     -14.055995      33.791243      604.0218      -113.66123     -5.5305413      0.00099999998  821358.63    
      6500   285.16044      498.36322     -3.0985128     -13.919322      32.975739      595.61074     -107.76521     -5.4402135      0.00099999998  821358.63    
      6600   258.03648      495.19597     -1.7184213     -14.056961      26.857138      593.52864     -103.94309     -5.4713322      0.00099999998  821358.63    
      6700   308.84994      490.98735     -3.1321775     -13.636013      34.838527      590.0531      -111.99551     -5.140579       0.00099999998  821358.63    
      6800   292.36029      504.42346     -2.0994632     -13.808434      35.696094      592.97569     -102.74684     -5.5935854      0.00099999998  821358.63    
      6900   260.87778      503.34015     -1.6530291     -14.129288      35.191755      610.8339      -119.90818     -6.9950111      0.00099999998  821358.63    
      7000   293.10604      503.4922      -3.5539623     -14.625109      32.998078      610.78422     -117.37241     -4.7386049      0.00099999998  821358.63    
      7100   247.65408      507.66838      0.38972904    -13.841945      43.344569      578.50268     -95.471111     -5.2555407      0.00099999998  821358.63    
      7200   301.34275      496.19839     -2.7405204     -14.903212      34.324948      595.14251     -109.95349     -5.6718459      0.00099999998  821358.63    
      7300   289.23971      507.59658     -2.3963013     -14.178067      40.705348      607.80227     -117.47249     -6.86418        0.00099999998  821358.63    
      7400   304.69704      487.56932     -2.4221897     -15.231413      28.201044      599.72969     -115.52059     -7.1872201      0.00099999998  821358.63    
      7500   293.4871       496.51139     -2.9467496     -13.165826      31.431663      605.70658     -118.1215      -6.3927732      0.00099999998  821358.63    
      7600   286.72576      499.56441     -2.0036681     -14.314702      41.796253      587.90445     -107.96711     -5.8508185      0.00099999998  821358.63    
      7700   318.74509      495.22194     -2.1822186     -13.598092      29.487587      599.0581      -111.06705     -6.4763811      0.00099999998  821358.63    
      7800   275.66955      492.64268      0.39013967    -13.83943       31.839766      585.99532     -107.30131     -4.4418049      0.00099999998  821358.63    
      7900   272.41001      493.54197     -2.5008971     -14.696208      34.400678      598.52129     -115.4587      -6.7242031      0.00099999998  821358.63    
      8000   314.79213      497.39974     -3.2251418     -15.042358      36.663077      606.13887     -119.39935     -7.7353584      0.00099999998  821358.63    
      8100   317.52596      497.72147     -2.9380767     -13.824043      33.793277      610.95947     -124.04659     -6.2225702      0.00099999998  821358.63    
      8200   299.5152       506.2722      -4.0676644     -14.375035      30.029687      616.92841     -116.45918     -5.7840161      0.00099999998  821358.63    
      8300   338.38029      499.7466      -1.3007475     -13.299544      28.539394      591.51427     -99.744966     -5.9618086      0.00099999998  821358.63    
      8400   289.75031      506.21976     -0.59386454    -15.040216      30.597326      604.12684     -107.87863     -4.9916988      0.00099999998  821358.63    
      8500   298.91757      510.45615     -3.4476611     -13.453929      43.109656      598.84797     -108.94848     -5.6514144      0.00099999998  821358.63    
      8600   309.49465      503.56406      0.64835625    -14.201069      32.307477      600.86628     -109.74139     -6.3156037      0.00099999998  821358.63    
      8700   301.14883      505.25164     -0.43684835    -14.180934      26.624258      606.90207     -107.95234     -5.7045658      0.00099999998  821358.63    
      8800   278.82071      505.58936     -3.6615593     -13.078584      34.810858      607.10543     -113.40897     -6.1778119      0.00099999998  821358.63    
      8900   326.96407      504.58807      1.7423129     -13.262813      32.6063        597.55117     -107.98412     -6.0647809      0.00099999998  821358.63    
      9000   340.86575      495.61806      2.7157257     -14.674687      31.515271      608.37931     -126.13612     -6.1814305      0.00099999998  821358.63    
      9100   306.74605      494.93405     -4.0782218     -14.675387      29.610405      602.06715     -112.61477     -5.3751323      0.00099999998  821358.63    
      9200   281.73042      509.40027     -4.1659889     -14.443332      40.24689       597.40362     -103.89881     -5.7421114      0.00099999998  821358.63    
      9300   273.61449      502.59728     -3.6496939     -15.914152      30.64658       618.46484     -119.50921     -7.4410833      0.00099999998  821358.63    
      9400   308.8666       500.96566     -2.7650775     -14.916661      35.006131      597.8622      -109.17636     -5.0445663      0.00099999998  821358.63    
      9500   293.46632      503.30623     -2.8447848     -15.438217      31.136639      619.10673     -121.13279     -7.521353       0.00099999998  821358.63    
      9600   310.87985      498.4248      -0.93927966    -15.562796      38.239651      598.6293      -114.51911     -7.4229668      0.00099999998  821358.63    
      9700   274.38874      487.44372     -1.8612449     -16.358723      28.732955      602.72102     -119.66007     -6.1302262      0.00099999998  821358.63    
      9800   272.37816      496.56764     -1.8430305     -15.160357      30.578659      606.79985     -117.12897     -6.6785157      0.00099999998  821358.63    
      9900   284.40721      502.07614     -1.0272435     -15.002418      31.904765      603.7374      -111.43143     -6.1049264      0.00099999998  821358.63    
     10000   292.40062      494.17865     -1.8363768     -15.049991      23.097277      603.33843     -109.55775     -5.8129339      0.00099999998  821358.63    
     10100   305.46716      497.03058     -2.5484443     -14.669333      37.227786      597.85833     -114.7578      -6.0799516      0.00099999998  821358.63    
     10200   285.9403       491.92046     -1.0548318     -14.459323      37.561367      585.90875     -110.77185     -5.2636563      0.00099999998  821358.63    
     10300   257.24402      505.51983     -2.8007652     -14.793927      34.102963      606.98906     -111.32041     -6.657089       0.00099999998  821358.63    
     10400   305.4063       504.5382      -2.3573458     -14.829087      36.351758      615.38316     -123.5374      -6.472875       0.00099999998  821358.63    
     10500   333.8406       500.95386     -4.0389996     -15.41175       38.127717      602.13461     -114.7838      -5.0739204      0.00099999998  821358.63    
     10600   342.8235       493.7028      -1.9149279     -14.700714      28.732502      594.06065     -106.22937     -6.2453368      0.00099999998  821358.63    
     10700   268.41074      487.08143     -3.6208052     -14.438645      27.912474      597.58418     -114.57012     -5.7856491      0.00099999998  821358.63    
     10800   309.17723      497.28491     -2.4622775     -14.642204      33.076493      601.67079     -114.80812     -5.5497662      0.00099999998  821358.63    
     10900   373.09179      500.177       -3.543365      -14.980629      37.286672      609.36063     -121.68632     -6.2599902      0.00099999998  821358.63    
     11000   292.57467      503.28754     -4.2542669     -16.196071      37.491816      610.70782     -117.41196     -7.0498014      0.00099999998  821358.63    
     11100   283.51512      501.83651     -5.0329177     -14.75839       29.631917      618.46521     -119.18618     -7.283127       0.00099999998  821358.63    
     11200   342.84511      498.0952      -2.635362      -14.866619      32.073514      593.87213     -103.6298      -6.7186615      0.00099999998  821358.63    
     11300   317.41603      493.11135     -4.1663114     -14.775365      25.961652      604.13481     -112.57971     -5.4637208      0.00099999998  821358.63    
     11400   294.19939      517.53211     -4.8802319     -14.405581      53.636844      621.47122     -130.0905      -8.199642       0.00099999998  821358.63    
     11500   316.54995      508.51052     -1.7399165     -14.352303      33.237393      614.10479     -117.68208     -5.0573689      0.00099999998  821358.63    
     11600   293.79486      491.62716     -3.8860078     -13.900059      27.618573      604.13179     -114.84335     -7.4937863      0.00099999998  821358.63    
     11700   305.06057      498.05751     -3.7867945     -14.663558      31.819152      607.66053     -116.09941     -6.8724147      0.00099999998  821358.63    
     11800   336.92317      507.4308      -2.8121121     -16.104083      37.269492      613.11282     -117.41874     -6.6165703      0.00099999998  821358.63    
     11900   371.96413      495.33198     -1.9222652     -14.819253      26.04811       616.66063     -124.50801     -6.127243       0.00099999998  821358.63    
     12000   298.10058      501.22773     -0.31781071    -14.590536      41.49064       591.54716     -113.2805      -3.621224       0.00099999998  821358.63    
     12100   307.20713      499.614       -1.3750829     -14.927587      29.07687       598.1272      -105.78        -5.5074015      0.00099999998  821358.63    
     12200   314.30146      498.2651      -2.1143485     -16.18078       31.666492      607.67841     -116.63745     -6.1472243      0.00099999998  821358.63    
     12300   282.03871      510.16054     -0.96120876    -14.803084      31.168574      628.55456     -126.99352     -6.804783       0.00099999998  821358.63    
     12400   317.58571      495.57633     -4.3550071     -15.425614      34.390022      609.99639     -120.22205     -8.807416       0.00099999998  821358.63    
     12500   293.1219       501.23308      1.0596243     -15.232083      44.958119      590.87059     -116.07829     -4.3448762      0.00099999998  821358.63    
     12600   291.08827      499.11343      0.45999081    -14.63097       29.618396      602.09054     -112.7408      -5.6837287      0.00099999998  821358.63    
     12700   317.09632      494.77362     -0.36017951    -15.053207      30.724494      597.10541     -111.91634     -5.7265573      0.00099999998  821358.63    
     12800   324.42654      506.46433     -3.6980662     -15.260769      39.906557      615.71227     -124.96696     -5.228699       0.00099999998  821358.63    
     12900   333.90161      492.67695     -1.9546282     -15.815415      24.398059      604.54789     -111.50402     -6.9949391      0.00099999998  821358.63    
     13000   255.96574      498.35486     -1.9515599     -15.234798      36.096832      599.24155     -113.60908     -6.1880931      0.00099999998  821358.63    
     13100   304.86915      496.2339      -2.104517      -14.878477      29.358237      608.22378     -117.44791     -6.9172117      0.00099999998  821358.63    
     13200   286.66139      506.80889     -3.5741057     -15.509008      39.754934      607.63779     -117.58667     -3.9140488      0.00099999998  821358.63    
     13300   360.944        503.77076     -1.5530791     -14.62764       37.717842      598.51848     -109.91151     -6.373334       0.00099999998  821358.63    
     13400   298.32224      494.63541     -2.2648687     -14.278562      26.373322      604.509       -113.63902     -6.0644547      0.00099999998  821358.63    
     13500   285.75745      488.10741     -1.8031244     -15.138756      30.407339      594.26269     -113.24638     -6.3743551      0.00099999998  821358.63    
     13600   279.29348      500.18982     -1.5574427     -14.869725      31.921557      618.5871      -127.26172     -6.6299417      0.00099999998  821358.63    
     13700   302.36929      487.71151     -1.0239716     -15.24155       34.065763      589.57226     -114.42744     -5.2335501      0.00099999998  821358.63    
     13800   323.44734      497.66702     -4.0941955     -15.174947      33.369383      605.0552      -115.56811     -5.9203092      0.00099999998  821358.63    
     13900   341.27061      490.28849     -4.9993529     -15.40029       30.312936      598.68816     -112.2998      -6.0131524      0.00099999998  821358.63    
     14000   327.9247       503.10345     -2.7205488     -13.411337      42.827083      602.61115     -120.08499     -6.1179055      0.00099999998  821358.63    
     14100   304.72032      500.87092     -0.34584212    -14.19198       33.137731      603.91616     -115.55616     -6.0889864      0.00099999998  821358.63    
     14200   302.53786      504.97459     -5.0912442     -14.013575      38.536255      598.46323     -107.63603     -5.2840393      0.00099999998  821358.63    
     14300   277.55048      508.95737     -4.5238978     -14.061476      37.656901      630.05397     -133.28742     -6.880714       0.00099999998  821358.63    
     14400   298.97034      488.94781      0.11672561    -13.616835      24.50602       583.84134     -101.61158     -4.2878647      0.00099999998  821358.63    
     14500   295.84446      500.95641     -1.3322718     -13.534337      35.103438      596.22988     -110.51111     -4.9991847      0.00099999998  821358.63    
     14600   300.58783      495.96487     -4.1612875     -14.492213      32.803593      604.58849     -117.26736     -5.5063547      0.00099999998  821358.63    
     14700   277.51607      514.01424     -3.7945715     -14.937433      44.826817      600.20357     -107.6387      -4.6454385      0.00099999998  821358.63    
     14800   306.60237      502.02612     -2.2075317     -14.446673      35.122018      610.61595     -121.14899     -5.9086608      0.00099999998  821358.63    
     14900   335.64887      491.87081     -5.1575391     -14.47006       38.969507      589.79472     -111.83064     -5.4351797      0.00099999998  821358.63    
     15000   279.88281      519.6578      -4.1086734     -15.063815      35.114935      614.58221     -104.67763     -6.1892281      0.00099999998  821358.63    
     15100   263.37761      499.18261     -3.5487034     -14.603966      30.618147      608.84838     -116.97803     -5.1532198      0.00099999998  821358.63    
     15200   284.1827       491.57636     -3.7485325     -13.933361      27.544153      595.46089     -108.90133     -4.8454626      0.00099999998  821358.63    
     15300   282.61364      502.50726     -2.8989932     -13.98015       44.391269      601.55969     -120.31795     -6.2465952      0.00099999998  821358.63    
     15400   267.51712      502.52601     -1.5909252     -13.960084      34.649311      602.14785     -114.01852     -4.7016148      0.00099999998  821358.63    
     15500   277.85815      501.4482      -2.079566      -13.71812       36.991034      588.04736     -101.2174      -6.575111       0.00099999998  821358.63    
     15600   260.75891      509.09357     -3.7450419     -14.282891      37.073351      610.64017     -114.77306     -5.8189625      0.00099999998  821358.63    
     15700   304.64741      492.30096     -5.4658042     -12.910395      23.491571      600.90229     -108.27439     -5.4423133      0.00099999998  821358.63    
     15800   343.96164      496.05546     -0.87819899    -13.973313      27.384368      590.97143     -104.21327     -3.2355605      0.00099999998  821358.63    
     15900   338.54167      498.23401      0.53253673    -14.313856      25.107683      605.66277     -111.44373     -7.3113977      0.00099999998  821358.63    
     16000   327.51834      512.02697     -1.3867613     -14.961631      35.5657        606.88485     -109.7371      -4.3380865      0.00099999998  821358.63    
     16100   311.08846      497.72761     -2.0485231     -14.496531      33.20906       592.19759     -105.21832     -5.9156695      0.00099999998  821358.63    
     16200   313.00972      496.36003     -4.4810868     -13.106419      33.743794      585.5419      -100.20068     -5.1374854      0.00099999998  821358.63    
     16300   281.06518      490.24282     -3.941017      -13.077463      32.566876      582.31891     -101.66221     -5.9622724      0.00099999998  821358.63    
     16400   282.39484      504.78589     -4.5309615     -12.830137      36.044084      592.55695     -102.67408     -3.7799674      0.00099999998  821358.63    
     16500   297.45252      506.09362     -3.2276194     -13.051582      32.553123      610.38494     -115.19877     -5.3664683      0.00099999998  821358.63    
     16600   263.85803      493.55874     -1.8253729     -13.295454      34.789346      595.17287     -114.95185     -6.3307981      0.00099999998  821358.63    
     16700   274.55462      493.31968     -3.1296732     -14.090058      29.585526      594.01558     -107.22863     -5.833064       0.00099999998  821358.63    
     16800   265.67268      499.7948      -1.4711637     -14.072714      35.833374      599.39381     -113.22951     -6.6589975      0.00099999998  821358.63    
     16900   277.80912      508.63481     -3.2811175     -13.485943      35.671345      614.37895     -118.20523     -6.443201       0.00099999998  821358.63    
     17000   303.12952      504.48381     -2.6148485     -14.511787      33.535579      607.76741     -113.80264     -5.889899       0.00099999998  821358.63    
     17100   290.75998      508.5623      -1.5014015     -13.925701      38.829502      599.59306     -108.05038     -6.3827867      0.00099999998  821358.63    
     17200   297.52381      513.74017      1.7227839     -14.360754      35.935528      617.68709     -119.6415      -7.6029847      0.00099999998  821358.63    
     17300   309.43593      503.901       -1.3086076     -14.455448      31.296999      604.03207     -109.01736     -6.6466509      0.00099999998  821358.63    
     17400   299.12936      509.53987     -2.3174112     -14.560488      49.033601      615.1724      -129.73626     -8.0519635      0.00099999998  821358.63    
     17500   263.17282      499.86137     -3.0795654     -14.649436      30.647102      612.40063     -119.21403     -6.2433216      0.00099999998  821358.63    
     17600   345.98302      487.39122     -3.8167201     -13.824453      29.971152      598.11598     -116.82794     -6.2267908      0.00099999998  821358.63    
     17700   302.85768      500.41829     -4.4073998     -13.032614      28.108969      597.40248     -103.36163     -4.2915122      0.00099999998  821358.63    
     17800   339.17444      484.22698     -2.6139358     -13.684512      23.340477      594.02525     -111.47315     -5.3671525      0.00099999998  821358.63    
     17900   272.51996      503.5684      -0.84310611    -14.188038      23.963973      618.51939     -118.09501     -5.7888073      0.00099999998  821358.63    
     18000   283.06968      499.10545      1.1249917     -13.456647      30.301736      599.28542     -111.23368     -6.9163745      0.00099999998  821358.63    
     18100   305.14274      504.65078      2.0350505     -13.780089      38.141859      587.50941     -103.99247     -5.2629733      0.00099999998  821358.63    
     18200   337.58132      508.77065     -2.0939032     -12.790118      36.186045      604.69346     -109.85462     -7.3702139      0.00099999998  821358.63    
     18300   302.58566      500.91879     -2.1149561     -13.010182      35.482336      614.78133     -126.70095     -7.5187832      0.00099999998  821358.63    
     18400   314.87031      499.5697      -0.70526999    -14.055971      29.757846      606.29222     -115.35704     -6.3620734      0.00099999998  821358.63    
     18500   305.60713      496.07809     -3.968765      -12.66327       24.618765      593.78782     -100.14266     -5.5538009      0.00099999998  821358.63    
     18600   279.56989      493.52653     -1.7337307     -14.515845      34.565434      595.7727      -113.5158      -7.0462251      0.00099999998  821358.63    
     18700   304.52021      504.06111     -3.2750983     -14.324127      32.268629      606.26019     -110.44531     -6.4231745      0.00099999998  821358.63    
     18800   312.84312      486.07563     -1.3898554     -13.530781      23.842049      607.72129     -122.6224      -7.9446716      0.00099999998  821358.63    
     18900   268.13003      497.66525     -0.90011146    -12.462244      31.387653      601.74721     -115.99297     -6.1142845      0.00099999998  821358.63    
     19000   337.7911       496.23814     -4.3322955     -13.259661      32.902659      618.05305     -129.68489     -7.4407212      0.00099999998  821358.63    
     19100   288.60572      502.10684     -2.1822294     -13.359417      33.159962      593.1265      -103.26544     -5.372535       0.00099999998  821358.63    
     19200   311.67354      491.94871     -0.44524799    -14.135853      31.211988      589.67662     -108.9025      -5.456295       0.00099999998  821358.63    
     19300   257.86474      503.97883     -2.8788524     -12.618879      29.792229      612.18883     -116.5981      -5.9064006      0.00099999998  821358.63    
     19400   308.26735      499.92232     -1.1071761     -13.897266      39.753778      583.65746     -103.4794      -5.0050831      0.00099999998  821358.63    
     19500   317.42612      509.40158      1.1651856     -14.132676      35.786754      600.03647     -107.05221     -6.4019422      0.00099999998  821358.63    
     19600   310.74318      505.95382     -1.6195399     -14.20431       41.121016      602.99966     -116.10515     -6.2378585      0.00099999998  821358.63    
     19700   284.66353      498.5809      -4.2580031     -13.015206      31.06508       602.99555     -112.35434     -5.8521768      0.00099999998  821358.63    
     19800   270.1467       501.82714     -3.4327818     -13.077684      33.029424      599.8932      -108.90913     -5.6758908      0.00099999998  821358.63    
     19900   290.17715      500.82136      0.29089716    -14.459415      42.880745      604.22199     -126.06118     -6.051678       0.00099999998  821358.63    
     20000   274.07126      490.51181     -1.2991049     -15.516983      31.992734      596.04754     -115.55362     -5.1587614      0.00099999998  821358.63    
     20061   333.29959      502.63651     -3.9687734     -15.476152      39.609454      619.93691     -130.14384     -7.3210944      0.00099999998  821358.63    
Loop time of 3.0202 on 6 procs for 20000 steps with 74 atoms

Performance: 572.147 ns/day, 0.042 hours/ns, 6622.077 timesteps/s, 490.034 katom-step/s
99.7% CPU use with 6 MPI tasks x no OpenMP threads

MPI task timing breakdown:
Section |  min time  |  avg time  |  max time  |%varavg| %total
---------------------------------------------------------------
Pair    | 0.00095721 | 0.039011   | 0.19861    |  36.6 |  1.29
Bond    | 0.0021475  | 0.52483    | 2.1051     | 110.6 | 17.38
Neigh   | 0.018721   | 0.021286   | 0.023687   |   1.5 |  0.70
Comm    | 0.011395   | 0.96262    | 2.5328     |  92.9 | 31.87
Output  | 0.0093893  | 0.02761    | 0.046428   |   8.3 |  0.91
Modify  | 0.0031828  | 0.016234   | 0.052686   |  14.8 |  0.54
Other   |            | 1.429      |            |       | 47.30

Nlocal:        12.3333 ave          50 max           0 min
Histogram: 4 0 0 0 1 0 0 0 0 1
Nghost:        64.3333 ave         130 max           0 min
Histogram: 2 0 0 1 0 0 1 0 0 2
Neighs:            164 ave         871 max           0 min
Histogram: 4 1 0 0 0 0 0 0 0 1

Total # of neighbors = 984
Ave neighs/atom = 13.297297
Ave special neighs/atom = 13.972973
Neighbor list builds = 170
Dangerous builds = 0
unfix Langevin
unfix moveLimit



fix 		relax all npt temp 300.0 300.0 100 iso 1.0 1.0 1000
run 1000
Generated 28 of 28 mixed pair_coeff terms from sixthpower/geometric mixing rule
Per MPI rank memory allocation (min/avg/max) = 27.45 | 27.71 | 28.23 Mbytes
   Step          Temp          PotEng         E_vdwl         E_coul         E_bond        E_angle        E_dihed        E_impro        Density         Volume    
     20061   333.29959      502.63651     -3.9687734     -15.476152      39.609454      619.93691     -130.14384     -7.3210944      0.00099999998  821358.63    
     20100   344.10579      499.30712     -3.8710055     -14.948298      40.556948      603.91689     -119.11787     -7.2295481      0.0010018369   819852.63    
     20200   332.60247      490.76963     -2.3517391     -14.886873      28.453291      599.91192     -114.54812     -5.8088382      0.0010090453   813995.76    
     20300   286.32066      491.55009     -4.6375859     -13.591954      32.955662      599.30102     -117.03127     -5.4457812      0.0010226446   803171.15    
     20400   284.31332      492.07392     -1.927424      -14.566361      28.599278      590.94136     -105.73367     -5.2392749      0.0010470282   784466.58    
     20500   293.49804      496.72537     -3.2951399     -14.925193      30.782675      590.88432     -100.90923     -5.81206        0.0010756694   763579.06    
     20600   317.73302      498.99396     -2.4567258     -13.152621      35.019656      609.49519     -123.01093     -6.900606       0.0011132045   737832.6     
     20700   306.50293      502.71658     -4.1200492     -13.830809      32.365004      604.45801     -111.237       -4.9185727      0.0011587439   708835.34    
     20800   317.62324      493.43824     -2.7925897     -14.777684      29.44713       597.88409     -109.30772     -7.0149813      0.0012177093   674511.26    
     20900   271.19648      493.43338      1.0183762     -14.610033      35.938799      576.95888     -102.88754     -2.9851032      0.0012765402   643425.6     
     21000   271.01122      494.32028     -1.8800619     -14.39196       35.73027       589.95695     -110.24222     -4.852701       0.0013363261   614639.37    
     21061   269.78866      500.51209     -4.1989883     -15.267454      36.870278      609.22888     -119.19537     -6.9252618      0.0013675185   600619.75    
Loop time of 0.144187 on 6 procs for 1000 steps with 74 atoms

Performance: 599.221 ns/day, 0.040 hours/ns, 6935.430 timesteps/s, 513.222 katom-step/s
99.8% CPU use with 6 MPI tasks x no OpenMP threads

MPI task timing breakdown:
Section |  min time  |  avg time  |  max time  |%varavg| %total
---------------------------------------------------------------
Pair    | 6.2605e-05 | 0.0020788  | 0.0099233  |   7.8 |  1.44
Bond    | 0.00016016 | 0.026348   | 0.10631    |  24.8 | 18.27
Neigh   | 0.001079   | 0.0010945  | 0.0011154  |   0.0 |  0.76
Comm    | 0.00062857 | 0.042549   | 0.12137    |  21.7 | 29.51
Output  | 0.00023381 | 0.00036049 | 0.00089901 |   0.0 |  0.25
Modify  | 0.015583   | 0.068328   | 0.1389     |  20.9 | 47.39
Other   |            | 0.003428   |            |       |  2.38

Nlocal:        12.3333 ave          50 max           0 min
Histogram: 4 0 0 0 1 0 0 0 0 1
Nghost:        63.6667 ave         124 max           0 min
Histogram: 2 0 0 0 1 0 1 0 0 2
Neighs:            164 ave         871 max           0 min
Histogram: 4 1 0 0 0 0 0 0 0 1

Total # of neighbors = 984
Ave neighs/atom = 13.297297
Ave special neighs/atom = 13.972973
Neighbor list builds = 25
Dangerous builds = 0
unfix relax


molecule 	pre cleaned_pre-mol
Read molecule template pre:
  1 molecules
  0 fragments
  50 atoms with max type 7
  56 bonds with max type 13
  116 angles with max type 35
  194 dihedrals with max type 66
  72 impropers with max type 38
molecule	post cleaned_post-mol
Read molecule template post:
  1 molecules
  0 fragments
  50 atoms with max type 7
  56 bonds with max type 9
  116 angles with max type 33
  197 dihedrals with max type 67
  72 impropers with max type 31

fix		fxrct all bond/react stabilization yes statted_grp .03 		 react rxn1 all 100 0.0 10.0 pre post semi.map stabilize_steps 2000 molecule inter
dynamic group bond_react_MASTER_group defined
dynamic group statted_grp_REACT defined
fix 		npt statted_grp_REACT npt temp 300.0 300.0 100 iso 1.0 1.0 1000
fix 		reacted bond_react_MASTER_group temp/rescale 1 300.0 300.0 1 1


thermo_style custom step temp pe evdwl ecoul ebond eangle edihed eimp density vol f_fxrct[1]
thermo          100


compute 1 all property/local btype batom1 batom2

compute 2 all stress/atom NULL
fix 5 all ave/atom 1 500 1000 c_2[*]

dump DumpPos all custom 1000 dump.pos id type x y z mol  f_5[*]
dump DumpBond all local 1000 bonds.dump index c_1[*]

run 10000

CITE-CITE-CITE-CITE-CITE-CITE-CITE-CITE-CITE-CITE-CITE-CITE-CITE

Your simulation uses code contributions which should be cited:

- fix bond/react: reacter.org doi:10.1016/j.polymer.2017.09.038, doi:10.1021/acs.macromol.0c02012

@Article{Gissinger17,
 author = {J. R. Gissinger and B. D. Jensen and K. E. Wise},
 title = {Modeling Chemical Reactions in Classical Molecular Dynamics Simulations},
 journal = {Polymer},
 year =    2017,
 volume =  128,
 pages =   {211--217}
}

@Article{Gissinger20,
 author = {J. R. Gissinger, B. D. Jensen, K. E. Wise},
 title = {{REACTER}: A Heuristic Method for Reactive Molecular Dynamics},
 journal = {Macromolecules},
 year =    2020,
 volume =  53,
 number =  22,
 pages =   {9953--9961}
}

CITE-CITE-CITE-CITE-CITE-CITE-CITE-CITE-CITE-CITE-CITE-CITE-CITE

Generated 28 of 28 mixed pair_coeff terms from sixthpower/geometric mixing rule
Neighbor list info ...
  update: every = 1 steps, delay = 0 steps, check = yes
  max neighbors/atom: 2000, page size: 100000
  master list distance cutoff = 12
  ghost atom cutoff = 12
  binsize = 6, bins = 15 15 15
  2 neighbor lists, perpetual/occasional/extra = 1 1 0
  (1) pair lj/class2/coul/cut, perpetual
      attributes: half, newton on
      pair build: half/bin/newton
      stencil: half/bin/3d
      bin: standard
  (2) fix bond/react, occasional, copy from (1)
      attributes: half, newton on
      pair build: copy
      stencil: none
      bin: none
Per MPI rank memory allocation (min/avg/max) = 32.32 | 32.72 | 33.48 Mbytes
   Step          Temp          PotEng         E_vdwl         E_coul         E_bond        E_angle        E_dihed        E_impro        Density         Volume       f_fxrct[1]  
     21061   269.78866      500.51209     -4.1989883     -15.267454      36.870278      609.22888     -119.19537     -6.9252618      0.0013675185   600619.75      0            
     21100   298.68208      494.62181     -2.4573602     -15.066471      33.09444       589.97732     -105.91145     -5.0146712      0.0013691615   599899         0            
     21200   313.6021       496.03079     -3.2640668     -14.720054      37.27252       595.40747     -113.70171     -4.9633644      0.0013877294   591872.33      0            
     21300   337.93853      505.4173      -2.9681422     -13.769966      34.635614      616.17059     -121.74634     -6.9044584      0.0014192134   578742.16      0            
     21400   330.91593      508.03755     -1.1954004     -15.609199      43.897404      592.16346     -106.08588     -5.1328351      0.0014493066   566725.24      0            
     21500   300.12597      496.66033     -1.4790582     -15.676828      26.074896      600.31022     -106.98513     -5.5837722      0.0014901371   551196.68      0            
     21600   299.12596      492.87796     -3.6440269     -14.215274      31.393418      590.44659     -106.29607     -4.8066707      0.0015398442   533403.71      0            
     21700   294.60439      495.54665     -2.8571001     -14.333509      31.088009      591.60082     -104.00152     -5.9500476      0.0015929907   515607.9       0            
     21800   319.61651      500.42536     -2.8530625     -14.358509      35.328518      595.88287     -108.18462     -5.3898435      0.0016605828   494620.69      0            
     21900   347.03946      500.21435     -1.6740366     -13.308078      32.648995      608.01156     -120.13096     -5.3331278      0.0017241062   476396.75      0            
     22000   295.69591      504.8932       2.2206204     -14.151363      35.437774      596.82302     -109.44385     -5.9930029      0.0017934581   457974.79      0            
     22100   263.57062      497.62359     -5.2811828     -13.425406      39.861787      589.06621     -107.67194     -4.9258751      0.001851145    443703.01      0            
     22200   268.27276      494.76666     -2.6072723     -14.653827      32.858141      589.95056     -105.47821     -5.3027345      0.001899785    432342.93      0            
     22300   259.27989      505.20905     -2.1188748     -15.166965      36.811576      598.27891     -106.66055     -5.935043       0.001950801    421036.6       0            
     22400   341.19081      498.76625     -2.3644724     -15.769583      31.26095       606.90169     -114.58835     -6.6739782      0.0020019668   410275.85      0            
     22500   337.45167      497.39471     -4.409481      -14.760884      29.787509      600.78355     -109.29189     -4.7141043      0.0020431551   402005.03      0            
     22600   323.73103      495.2927      -1.6709583     -13.246954      31.550869      605.22811     -119.64964     -6.9187277      0.0021010929   390919.7       0            
     22700   261.9141       505.76454     -2.351812      -13.155882      38.593793      593.75594     -105.5111      -5.5663972      0.0021359552   384539.25      0            
     22800   286.43778      498.26437     -1.7123392     -14.304578      34.469695      587.7051      -103.61123     -4.2822731      0.0021763804   377396.62      0            
     22900   296.08553      491.16613     -2.936059      -15.613113      37.379542      588.07448     -110.05126     -5.6874605      0.0022132988   371101.56      0            
     23000   252.65455      496.45177     -3.0474417     -16.759101      28.810407      606.27706     -112.69709     -6.132058       0.0022635975   362855.41      0            
     23100   267.26449      499.89804      0.8065477     -14.673363      33.963971      601.44378     -116.42276     -5.2201346      0.0023257695   353155.64      0            
     23200   316.36496      501.54352     -0.73784133    -12.672069      32.196226      600.75734     -112.96147     -5.0386678      0.0023759746   345693.34      0            
     23300   335.42414      501.94301     -2.9694862     -14.188896      35.723937      607.25193     -117.49723     -6.3772363      0.0024209235   339274.91      0            
     23400   309.17602      497.05118     -3.1651262     -14.649508      33.490143      592.84148     -106.27246     -5.1933452      0.0024745752   331919.04      0            
     23500   286.23206      489.11526     -4.3923641     -14.924948      28.200271      588.65205     -102.82069     -5.5990611      0.0025242737   325384.13      0            
     23600   257.49711      497.40815     -1.4842969     -12.949638      33.711784      601.34664     -116.93724     -6.2791019      0.0025786811   318518.88      0            
     23700   245.96183      508.39845     -2.3011796     -13.668395      34.734484      616.97576     -120.42695     -6.9152721      0.002633685    311866.69      0            
     23800   299.45615      503.85821     -2.2865799     -13.732025      33.353867      597.01196     -105.49639     -4.992622       0.0026837327   306050.83      0            
     23900   320.27838      501.18125     -1.726496      -14.30442       33.129432      609.96728     -119.58055     -6.3039909      0.0027618076   297398.93      0            
     24000   303.92067      492.24696     -0.29692624    -14.20923       29.116118      592.65419     -109.62525     -5.3919405      0.0028326793   289958.21      0            
     24100   263.8233       490.69834     -4.2752892     -15.118792      29.315763      595.60737     -109.37651     -5.4541976      0.0029027714   282956.7       0            
     24200   286.84186      491.88939      0.76952568    -14.102691      27.935997      600.06514     -116.56425     -6.2143258      0.002984757    275184.41      0            
     24300   292.04692      502.3056      -4.7384167     -14.177151      40.90243       595.36853     -109.1497      -5.900088       0.0030633834   268121.39      0            
     24400   336.36005      495.05497     -5.328114      -13.492834      38.612801      592.61806     -111.16736     -6.1875864      0.0031448578   261175.12      0            
     24500   277.65135      504.40066     -0.69838353    -15.505789      34.803703      610.24966     -117.33809     -7.1104413      0.0032113348   255768.6       0            
     24600   306.17215      493.57723     -3.9000711     -14.93366       29.217327      608.36265     -119.63113     -5.5378751      0.0032718023   251041.64      0            
     24700   276.07877      491.06564     -3.9506432     -14.120713      27.130968      595.93695     -108.04047     -5.8904487      0.0033275559   246835.4       0            
     24800   259.83667      482.71066     -4.6584298     -13.53907       20.539624      595.58787     -110.67899     -4.540342       0.0033746833   243388.35      0            
     24900   246.58631      491.38496     -4.7007956     -15.113854      30.40485       604.72749     -117.86921     -6.0635201      0.0034214753   240059.78      0            
     25000   275.59269      496.4216      -2.3234671     -16.144464      27.751417      612.71394     -119.96358     -5.6122448      0.0034949975   235009.78      0            
     25100   317.13126      493.46024     -3.1172503     -16.704173      35.417036      590.57603     -106.9789      -5.7325048      0.0035610926   230647.92      0            
     25200   321.20421      497.63649     -2.3739273     -14.953625      38.916136      599.47812     -116.39189     -7.0383219      0.0036537435   224799.2       0            
     25300   311.36547      496.85484     -1.9617792     -15.553592      31.465454      603.87374     -114.45118     -6.5177974      0.0037171239   220966.17      0            
     25400   292.55889      486.53452     -4.9047956     -16.014212      31.349135      592.86212     -111.10504     -5.652698       0.003765388    218133.86      0            
     25500   239.2416       492.88431     -1.9525897     -16.983535      33.367444      602.90702     -117.49199     -6.9620344      0.0038339845   214231.07      0            
     25600   307.00181      490.22572     -0.80732422    -15.691815      33.01214       590.83825     -112.01909     -5.1064436      0.0039146361   209817.36      0            
     25700   330.30611      495.21729     -0.091067412   -15.598304      28.429076      605.66413     -117.2247      -5.9618544      0.0039703455   206873.33      0            
     25800   315.53239      496.6172      -0.37789847    -15.528205      35.917844      605.95099     -122.85461     -6.4909228      0.0039986908   205406.88      0            
     25900   294.11744      496.50755     -2.9390814     -15.422743      30.223266      606.14457     -114.72522     -6.7732451      0.0040406192   203275.43      0            
     26000   274.24728      496.09902     -3.1864172     -13.818416      32.033993      589.2746      -102.5449      -5.6598456      0.0041111595   199787.58      0            
     26100   291.04061      485.3955      -2.154325      -14.830791      22.051188      603.29273     -116.65532     -6.307983       0.004163725    197265.34      0            
     26200   263.45182      488.89863     -2.6002913     -13.663607      37.284054      589.051       -113.56542     -7.6071167      0.0041849636   196264.22      0            
     26300   294.41652      493.59774     -3.1455128     -13.656041      36.444165      588.7543      -109.38592     -5.4132523      0.0042417592   193636.31      0            
     26400   306.61275      500.77302     -2.7879572     -13.29728       35.081172      606.9979      -117.10394     -8.1168726      0.0042986056   191075.59      0            
     26500   343.19907      493.43665     -0.23250476    -14.946473      38.097371      600.10704     -122.06145     -7.5273336      0.0043202981   190116.19      0            
     26600   272.69509      499.83794      1.995179      -14.034075      38.360697      599.47728     -118.39906     -7.5620887      0.004349748    188829.01      0            
     26700   281.84998      486.94915     -3.5733569     -13.846015      23.464717      588.39277     -102.89384     -4.5951191      0.0043860653   187265.48      0            
     26800   274.60618      489.65057      1.7616101     -14.629873      32.473358      587.97345     -112.25608     -5.6718917      0.0044206908   185798.7       0            
     26900   337.82745      496.87499     -1.5466654     -14.160284      31.79727       609.06176     -121.99636     -6.2807332      0.0044132377   186112.48      0            
     27000   313.40368      501.34051     -3.238914      -16.335511      31.747353      609.18924     -113.67716     -6.344502       0.0044121168   186159.76      0            
     27100   305.92539      496.22466     -0.11127443    -13.155107      32.230162      592.94349     -109.72627     -5.9563312      0.0044600971   184157.12      0            
     27200   272.73921      494.61632     -3.3566575     -13.203781      33.295289      602.7159      -118.2151      -6.6193243      0.0045050295   182320.36      0            
     27300   308.2857       486.44485     -2.5944588     -16.542935      34.049377      581.72162     -103.85765     -6.3311033      0.0044911285   182884.68      0            
     27400   320.25959      498.00374     -2.3168065     -14.283276      35.237606      610.03874     -124.36503     -6.3074966      0.0044919314   182851.99      0            
     27500   333.55818      505.66611     -3.3008225     -13.848145      34.026556      610.26113     -113.52958     -7.9430251      0.0045300647   181312.78      0            
     27600   308.23501      503.19424      0.059164605   -14.627358      42.7671        595.978       -115.08662     -5.8960457      0.0045568805   180245.81      0            
     27700   289.92739      500.18776     -0.51387895    -13.91561       35.158101      612.59692     -125.55683     -7.5809526      0.004528684    181368.05      0            
     27800   287.56616      494.26506     -3.3118199     -14.152447      34.823864      593.77998     -110.92075     -5.9537713      0.0044882146   183003.42      0            
     27900   283.42004      494.59731     -2.6751135     -16.616153      33.369663      587.47314     -101.94716     -5.007076       0.004505169    182314.72      0            
     28000   332.21945      498.35176     -2.6356053     -13.017257      30.800411      608.30026     -118.98546     -6.1105801      0.0045244537   181537.63      0            
     28100   297.07289      517.28883     -3.4049863     -13.672415      43.195064      610.30866     -112.54851     -6.5889759      0.004523808    181563.55      0            
     28200   320.87662      498.48643     -3.2011494     -13.815298      34.520283      611.02142     -121.9958      -8.0430255      0.0045272316   181426.24      0            
     28300   297.5339       495.25651     -3.2105556     -14.948693      36.014674      594.40651     -110.6729      -6.3325243      0.0045472976   180625.65      0            
     28400   312.32206      489.00193     -2.1475326     -15.042118      29.193645      604.25062     -120.67317     -6.5795173      0.0045414183   180859.49      0            
     28500   274.65975      499.66864     -0.52755456    -13.860889      34.092983      606.95633     -120.50402     -6.4882054      0.0045324472   181217.47      0            
     28600   325.82522      499.63296     -1.824828      -14.704482      32.126013      588.57698     -100.9062      -3.6345238      0.0044876676   183025.72      0            
     28700   373.57893      498.42294     -3.2785231     -14.042034      33.553825      607.06991     -118.33454     -6.5457072      0.0044763932   183486.7       0            
     28800   325.1691       495.79172      1.1843168     -14.130966      26.150109      609.36737     -119.39286     -7.3862502      0.0044687326   183801.24      0            
     28900   267.69411      499.18993     -3.24892       -14.443088      33.606038      607.61175     -117.53337     -6.8024906      0.0044058561   186424.29      0            
     29000   276.82473      498.98642     -2.2895142     -13.909768      31.49934       608.68402     -117.56548     -7.4321707      0.0043934503   186950.7       0            
     29100   290.31773      502.27994     -2.4904405     -13.484448      35.980835      590.31801     -102.45098     -5.5930431      0.0043797482   187535.58      0            
     29200   325.32645      503.18675     -4.3310459     -14.472775      36.211835      597.04579     -105.62571     -5.6413425      0.0043698425   187960.69      0            
     29300   345.34277      500.00962      0.58869749    -14.746231      41.920164      597.87796     -119.14907     -6.4819017      0.00437388     187787.18      0            
     29400   279.36735      496.07396     -2.1660857     -14.805874      37.292507      594.48355     -111.81603     -6.9141075      0.0043621094   188293.9       0            
     29500   304.40949      485.17158     -0.14388902    -15.570766      29.288515      595.28531     -118.10328     -5.5843166      0.0043616607   188313.28      0            
     29600   269.62448      498.85317      2.1800734     -15.939653      39.156976      607.85578     -127.02598     -7.3740286      0.004345762    189002.21      0            
     29700   332.7597       495.75795     -1.4209736     -15.24791       34.078963      586.69161     -103.42746     -4.9162822      0.0043107254   190538.37      0            
     29800   332.84044      497.40483     -1.4364703     -13.692207      32.610306      595.24016     -107.60037     -7.7165899      0.0042706003   192328.61      0            
     29900   288.70803      500.15211      2.8930039     -15.117862      31.021172      610.97754     -122.68045     -6.9412991      0.004221781    194552.63      0            
     30000   280.63011      500.75226     -1.4576088     -13.73335       33.699969      615.01486     -124.00476     -8.7668534      0.0041982075   195645.07      0            
     30100   267.78811      500.70327     -1.9478289     -16.738647      28.076436      613.97835     -116.59982     -6.0652149      0.0041622039   197337.43      0            
     30200   280.07798      502.54302      5.5965217     -15.637314      35.464958      590.44777     -106.63682     -6.692105       0.0041344955   198659.94      0            
     30300   316.67691      500.21851     -0.54901963    -14.231274      34.808664      601.69682     -115.12348     -6.3831969      0.0040931901   200664.66      0            
     30400   325.92784      500.79499      2.5579293     -14.501611      30.564051      600.84838     -113.04043     -5.6333235      0.0040826013   201185.11      0            
     30500   306.76122      493.3931      -3.0290582     -15.047513      38.483673      580.84731     -102.60196     -5.2593472      0.0040242862   204100.44      0            
     30600   289.32984      488.06819     -1.1682574     -15.056278      36.948309      597.27229     -123.67317     -6.2547168      0.0039917598   205763.54      0            
     30700   274.03404      494.2589      -2.3571457     -15.58753       30.113492      607.12497     -118.9707      -6.0641873      0.0039473834   208076.72      0            
     30800   325.67439      494.84645     -2.7817047     -15.651828      25.531025      608.51666     -114.35133     -6.4163672      0.0038688836   212298.61      0            
     30900   323.88975      500.40614      2.181132      -14.484605      31.082191      607.72661     -119.35881     -6.7403795      0.0037815619   217200.89      0            
     31000   326.4291       495.97474     -3.5887988     -13.481018      28.430317      590.60985     -101.51838     -4.4772334      0.0036492384   225076.72      0            
     31061   278.49202      501.90856     -4.6893617     -13.781346      35.024225      596.83372     -106.70156     -4.7771179      0.003577702    229577.14      0            
Loop time of 1.8185 on 6 procs for 10000 steps with 74 atoms

Performance: 475.117 ns/day, 0.051 hours/ns, 5499.042 timesteps/s, 406.929 katom-step/s
99.2% CPU use with 6 MPI tasks x no OpenMP threads

MPI task timing breakdown:
Section |  min time  |  avg time  |  max time  |%varavg| %total
---------------------------------------------------------------
Pair    | 0.0027785  | 0.03076    | 0.10102    |  20.3 |  1.69
Bond    | 0.0032702  | 0.27551    | 0.78154    |  60.4 | 15.15
Neigh   | 0.0069084  | 0.007449   | 0.0083628  |   0.6 |  0.41
Comm    | 0.33572    | 0.57852    | 0.93667    |  25.0 | 31.81
Output  | 0.010375   | 0.011837   | 0.018093   |   2.6 |  0.65
Modify  | 0.54687    | 0.87787    | 1.267      |  31.7 | 48.27
Other   |            | 0.03656    |            |       |  2.01

Nlocal:        12.3333 ave          25 max           0 min
Histogram: 2 0 0 0 1 0 1 0 1 1
Nghost:             55 ave          86 max          10 min
Histogram: 2 0 0 0 0 0 0 0 2 2
Neighs:            164 ave         403 max           0 min
Histogram: 2 0 2 0 0 0 0 0 0 2

Total # of neighbors = 984
Ave neighs/atom = 13.297297
Ave special neighs/atom = 13.972973
Neighbor list builds = 166
Dangerous builds = 0

unfix reacted
unfix npt
unfix fxrct


fix		fxrct all bond/react stabilization yes statted_grp .03 		 react rxn1 all 100 0.0 5.0 pre post semi.map stabilize_steps 2000
dynamic group bond_react_MASTER_group defined
dynamic group statted_grp_REACT defined
fix 		npt statted_grp_REACT npt temp 300.0 300.0 100 iso 1.0 1.0 1000
fix 		reacted bond_react_MASTER_group temp/rescale 1 300.0 300.0 1 1

run 2000000
Generated 28 of 28 mixed pair_coeff terms from sixthpower/geometric mixing rule
Neighbor list info ...
  update: every = 1 steps, delay = 0 steps, check = yes
  max neighbors/atom: 2000, page size: 100000
  master list distance cutoff = 12
  ghost atom cutoff = 12
  binsize = 6, bins = 11 11 11
  2 neighbor lists, perpetual/occasional/extra = 1 1 0
  (1) pair lj/class2/coul/cut, perpetual
      attributes: half, newton on
      pair build: half/bin/newton
      stencil: half/bin/3d
      bin: standard
  (2) fix bond/react, occasional, copy from (1)
      attributes: half, newton on
      pair build: copy
      stencil: none
      bin: none
Per MPI rank memory allocation (min/avg/max) = 33.36 | 34.77 | 36.48 Mbytes
   Step          Temp          PotEng         E_vdwl         E_coul         E_bond        E_angle        E_dihed        E_impro        Density         Volume       f_fxrct[1]  
     31061   278.49202      501.90856     -4.6893617     -13.781346      35.024225      596.83372     -106.70156     -4.7771179      0.003577702    229577.14      0            
     31100   286.42491      500.44836     -2.2131141     -13.339326      37.392675      598.04426     -114.22227     -5.2138619      0.003587425    228954.92      0            
     31200   314.55906      492.36479     -1.9001495     -13.876441      21.331356      606.73714     -113.55963     -6.367492       0.003578017    229556.93      0            
     31300   333.02969      488.98454     -4.3834352     -14.533968      35.725069      595.49025     -115.70374     -7.6096293      0.0035735168   229846.02      0            
     31400   285.12292      498.84962     -4.0172088     -13.213063      33.489974      604.53518     -115.93277     -6.0124856      0.0035693659   230113.31      0            
     31500   301.21413      495.58761     -2.814186      -14.225242      35.446173      606.24643     -123.58821     -5.4773484      0.0035936792   228556.46      0            
     31600   309.08127      497.93065      0.59166159    -14.753183      42.075273      581.28165     -105.53633     -5.7284287      0.0036148122   227220.27      0            
     31700   324.71313      497.35672     -4.1850374     -13.860648      33.094686      591.22948     -103.74015     -5.1816037      0.0036229378   226710.65      0            
     31800   324.93054      493.01519     -1.1663152     -15.092405      31.207284      601.52219     -118.00043     -5.4551197      0.0036230355   226704.55      0            
     31900   271.67295      493.51325     -3.8900643     -14.494003      34.863314      605.96369     -121.67364     -7.2560451      0.003625074    226577.06      0            
     32000   285.7716       486.73446     -2.5165157     -13.948524      30.206371      591.31539     -111.56966     -6.7525975      0.0036437248   225417.3       0            
     32100   288.2161       499.44125     -4.2309856     -16.55899       36.013777      596.31322     -107.07436     -5.0214135      0.0036472338   225200.43      0            
     32200   289.16847      506.35994     -1.9964769     -15.338715      45.407168      594.31026     -110.95724     -5.0650574      0.0036586406   224498.3       0            
     32300   313.06801      499.29292      0.59870614    -13.509355      35.308968      594.48997     -112.92693     -4.6684288      0.0037062347   221615.38      0            
     32400   295.0458       495.24315     -3.8288075     -14.878937      30.878696      600.42636     -111.69902     -5.6551478      0.0037328688   220034.15      0            
     32500   292.71908      487.93855     -1.1096141     -14.54668       27.870483      591.28167     -110.23504     -5.3222655      0.0037743039   217618.57      0            
     32600   273.61192      488.63914     -1.3039996     -14.404046      34.600348      591.38762     -115.28504     -6.3557402      0.0038406329   213860.22      0            
     32700   279.50088      494.97765     -4.5857985     -14.781066      30.598448      601.84483     -111.50148     -6.5972898      0.0039156641   209762.27      0            
     32800   304.40289      503.01322      0.82066426    -14.877567      34.395584      597.37406     -108.53257     -6.1669545      0.0040100411   204825.49      0            
     32900   320.97524      501.73583     -2.6328398     -13.960688      40.099285      603.64185     -119.70456     -5.7072175      0.0041098559   199850.95      0            
     33000   267.73259      501.97839     -4.1660892     -15.280004      31.510107      604.28692     -108.17025     -6.2022951      0.0042330213   194036.02      0            
     33100   301.56066      486.44797     -1.214591      -14.043197      25.62543       590.22866     -108.99982     -5.1485155      0.0043841211   187348.52      0            
     33200   258.76877      498.67988     -1.6436353     -13.907162      36.705035      602.48673     -117.26314     -7.6979512      0.0045335111   181174.94      0            
     33300   258.63251      502.05062     -3.0717128     -15.305636      37.848854      603.21989     -115.09268     -5.5480971      0.0047083074   174448.81      0            
     33400   307.81803      495.90967     -1.0819406     -13.973065      33.559506      592.36467     -107.9089      -7.0505973      0.0049146647   167124.04      0            
     33500   294.6041       499.33169     -2.9784983     -14.320575      33.398722      592.89179     -104.60343     -5.0563254      0.0050862021   161487.61      0            
     33600   301.7294       496.32473     -2.5531401     -14.56998       39.836559      601.29759     -120.72378     -6.962524       0.0052904077   155254.31      0            
     33700   324.02736      480.84759     -1.8593924     -15.346268      25.135778      594.66078     -114.16092     -7.582386       0.005491385    149572.21      0            
     33800   230.65978      492.02973     -2.559112      -15.204597      32.190365      602.86668     -118.86832     -6.3952856      0.0056792921   144623.41      0            
     33900   272.04313      489.97929     -3.6776777     -14.754253      28.377148      599.03265     -112.77037     -6.22821        0.0058541662   140303.26      0            
     34000   297.43251      496.6637      -4.2978956     -13.594956      35.627258      588.45772     -104.77909     -4.7493461      0.0059858005   137217.84      0            
     34100   320.87271      494.32526     -4.5133568     -14.196601      30.11196       601.6949      -112.37023     -6.4014142      0.0061295001   134000.91      0            
     34200   275.84094      502.18428     -0.40435672    -14.615419      40.110952      607.45042     -123.2421      -7.1152193      0.006286038    130663.96      0            
     34300   302.38551      488.61556     -2.7941234     -15.171409      30.824322      586.8553      -104.6407      -6.4578222      0.0064093979   128149.11      0            
     34400   308.11356      476.93039     -4.4825491     -13.405317      26.513277      595.32634     -119.84551     -7.1758497      0.0064939246   126481.08      0            
     34500   267.33466      485.72302     -3.1961133     -13.808948      30.268755      599.376       -120.20086     -6.7158167      0.0065964803   124514.68      0            
     34600   306.74135      496.15598     -2.2935402     -12.67774       30.834738      590.72399     -104.23504     -6.196429       0.0067027664   122540.24      0            
     34700   332.81233      492.87223     -1.8216149     -14.834022      29.716299      597.36494     -111.18973     -6.3636402      0.0068289745   120275.54      0            
     34800   327.32037      491.03977     -2.0422111     -12.764466      32.282313      589.46289     -110.73336     -5.1653989      0.0069017196   119007.82      0            
     34900   260.10626      495.88089     -1.7694566     -14.190699      29.9481        597.81929     -110.84302     -5.0833193      0.0069658238   117912.63      0            
     35000   284.72211      486.79507     -1.52882       -13.875486      29.822769      595.22474     -116.13818     -6.7099498      0.0070554303   116415.1       0            
     35100   311.02467      487.95338     -3.1626827     -14.944086      31.690146      596.42409     -114.94149     -7.1125984      0.0070937086   115786.91      0            
     35200   316.88353      500.91025     -3.4030825     -14.429134      28.561647      609.19669     -112.34471     -6.6711557      0.0071045069   115610.92      0            
     35300   296.27317      503.35827     -3.1614329     -13.258374      33.29838       606.96713     -113.24556     -7.2418637      0.0071025071   115643.48      0            
     35400   273.07469      495.64869     -0.98935576    -14.478325      29.736275      609.45226     -121.50378     -6.568382       0.0070922056   115811.45      0            
     35500   297.48972      487.25309     -1.7575007     -11.554291      29.288598      588.10867     -109.69669     -7.1356893      0.0071001567   115681.76      0            
     35600   295.55912      490.07747     -1.5401304     -13.947742      28.839753      597.75651     -113.69516     -7.3357589      0.0070752122   116089.61      0            
     35700   311.43644      492.86871     -1.438223      -10.495398      32.181856      596.11909     -117.20388     -6.2947249      0.0070429974   116620.6       0            
     35800   299.60458      496.41749      0.25545671    -13.576152      35.272929      592.1006      -111.21633     -6.419014       0.0070447237   116592.03      0            
     35900   321.33054      489.00775     -4.2377275     -13.22747       32.586839      595.13727     -114.47235     -6.7788054      0.0070128406   117122.1       0            
     36000   298.02611      487.39491     -2.1064023     -14.933737      24.89208       599.14241     -113.42774     -6.1717007      0.0069833384   117616.9       0            
     36100   267.03668      488.07505     -1.2853963     -13.708326      26.845646      609.2159      -125.34437     -7.6484038      0.0069326109   118477.53      0            
     36200   275.33138      495.01027     -1.5229873     -14.207185      32.964226      603.57057     -118.85955     -6.9348004      0.0068578759   119768.66      0            
     36300   298.09137      500.92773     -3.7669015     -14.031322      36.729792      618.34946     -128.76015     -7.5931424      0.0067352917   121948.48      0            
     36400   310.31623      494.99768     -1.1772501     -15.054455      31.879707      591.41269     -106.61472     -5.4482942      0.0065749608   124922.21      0            
     36500   314.92722      487.67084     -3.1661861     -14.341428      26.019381      586.55809     -102.72391     -4.6751001      0.0063929418   128478.97      0            
     36600   268.55044      492.01695     -0.82059773    -13.471896      29.036933      597.60614     -114.51833     -5.8153039      0.0062070252   132327.26      0            
     36700   293.32495      487.2993      -0.55730938    -12.6172        27.353425      595.22542     -116.14674     -5.9583027      0.0060003187   136885.83      0            
     36800   312.77196      498.28162     -4.0307938     -11.811473      35.259317      601.40265     -116.25469     -6.2833902      0.0057543453   142737.11      0            
     36900   341.30207      496.32052     -3.0968082     -14.058505      30.211108      605.45039     -115.63097     -6.5546971      0.0054932176   149522.31      0            
     37000   337.32817      489.83608     -2.2823939     -12.723304      29.690892      598.53799     -116.95054     -6.4365645      0.0052315811   157000.07      0            
     37100   323.31797      482.27433     -1.2065173     -13.405152      22.661818      593.44503     -113.14305     -6.0778011      0.0050007682   164246.49      0            
     37200   258.18978      494.79397     -4.1939238     -14.386142      31.078551      601.02668     -112.59963     -6.1315651      0.0047783822   171890.52      0            
     37300   288.54078      495.10141     -1.1876438     -14.258994      32.182919      595.26409     -110.49274     -6.4062237      0.0045542522   180349.83      0            
     37400   286.5666       498.85808     -3.0692687     -15.29093       37.224222      600.61168     -114.78714     -5.8304832      0.0043488786   188866.76      0            
     37500   316.79595      493.06759     -3.4325465     -15.175503      25.807377      608.08134     -116.5693      -5.6437772      0.004198536    195629.76      0            
     37600   318.36155      490.51843     -1.9900883     -14.919592      30.485208      592.96808     -110.1481      -5.877084       0.0040802424   201301.43      0            
     37700   347.76786      477.78288     -3.330389      -14.261263      20.315173      593.49236     -111.0384      -7.3945996      0.003970594    206860.39      0            
     37800   264.9338       488.47216     -4.308321      -13.270717      31.2979        586.9317      -107.93009     -4.2483176      0.0038862794   211348.32      0            
     37900   269.34568      493.47101     -1.7388843     -13.151934      32.601657      597.07662     -115.03151     -6.284946       0.0038510137   213283.74      0            
     38000   264.78004      508.8633      -1.3728588     -14.924639      41.061504      608.92848     -117.64702     -7.1821734      0.0037972633   216302.78      0            
     38100   332.65857      496.19802     -2.6547513     -14.491526      35.44956       600.84713     -118.09641     -4.8559817      0.0037748324   217588.1       0            
     38200   270.09499      503.94929     -4.2797633     -13.636388      41.580895      597.5378      -110.08684     -7.1664192      0.0037599429   218449.76      0            
     38300   266.96246      494.05887     -2.6853531     -14.354586      29.143329      607.65701     -119.1783      -6.5232321      0.0037433129   219420.24      0            
     38400   280.4269       486.50014     -0.44874489    -14.277041      36.11721       583.99938     -113.36377     -5.5268955      0.0037306567   220164.62      0            
     38500   279.97701      498.65942     -3.4842103     -14.889822      39.407959      589.56463     -105.95564     -5.9834921      0.003707132    221561.74      0            
     38600   337.82885      498.5552      -2.2360117     -14.732361      34.493868      612.7486      -125.53356     -6.1853325      0.0036943904   222325.88      0            
     38700   345.35425      494.00848     -0.67260327    -14.614813      21.533691      613.89516     -119.78423     -6.348724       0.0037052956   221671.55      0            
     38800   308.37518      489.76052     -4.609587      -15.165108      29.115578      592.46103     -106.08562     -5.9557741      0.0036729002   223626.72      0            
     38900   287.47799      489.79355     -3.5266622     -14.67105       27.251355      605.77278     -118.50821     -6.5246528      0.0036399983   225648.07      0            
     39000   295.12164      492.09801     -2.800882      -14.067421      32.189487      614.05311     -129.6192      -7.6570783      0.0036240589   226640.53      0            
     39100   342.47441      498.04958     -1.7084837     -14.354751      32.464252      598.15698     -110.89298     -5.6154367      0.0036245859   226607.57      0            
     39200   358.46078      499.90534     -2.0779863     -14.203329      40.894771      588.48244     -108.14513     -5.045423       0.0036201813   226883.28      0            
     39300   297.53829      505.5402      -1.9797826     -14.100608      31.451793      603.81466     -107.69282     -5.9530454      0.0036021909   228016.4       0            
     39400   305.01715      492.58634     -2.0298043     -15.021592      34.592873      581.73519     -101.68399     -5.0063263      0.0035949393   228476.35      0            
     39500   289.28155      490.30177     -3.0004297     -14.998946      37.336022      592.90411     -115.80842     -6.1305659      0.0035949939   228472.88      0            
     39600   291.16088      491.99904     -2.4053052     -15.189444      26.731047      601.57343     -112.6272      -6.0834896      0.0035968878   228352.58      0            
     39700   324.79523      501.73064     -2.6682516     -14.565711      34.692341      602.73857     -113.58814     -4.8781632      0.0035985928   228244.39      0            
     39800   360.66359      499.08218     -0.34725279    -14.947004      29.599811      620.20814     -128.19034     -7.2411785      0.0036069884   227713.13      0            
     39900   320.66185      498.21738      2.5586221     -15.889019      27.76195       610.4054      -120.08392     -6.5356429      0.0035820732   229296.99      0            
     40000   336.28649      487.19502     -3.8061651     -14.977102      27.930072      596.36292     -112.49537     -5.8193275      0.0035707046   230027.04      0            
     40100   296.0276       494.2998      -3.2568439     -15.387031      28.325513      589.10166     -100.43121     -4.0522788      0.0035444665   231729.83      0            
     40200   275.77912      501.13171      0.42258368    -12.556436      34.995102      604.2719      -120.70044     -5.3010108      0.0035174662   233508.6       0            
     40300   311.7897       497.59321     -2.5779031     -13.479344      33.909366      599.80842     -115.09066     -4.9766668      0.0035213692   233249.78      0            
     40400   333.09608      504.20636     -2.8019359     -14.032373      39.104128      591.62762     -103.0419      -6.6491718      0.0035118532   233881.82      0            
     40500   366.95719      495.13023     -2.3356147     -14.415949      35.410982      590.32251     -107.96609     -5.885612       0.0034990621   234736.79      0            
     40600   291.64927      494.88646      0.0079275004  -15.085858      30.193627      602.80266     -117.98091     -5.0509852      0.0034774492   236195.72      0            
     40700   285.65713      493.27231     -2.4185558     -14.786225      37.989768      588.70565     -110.78005     -5.4382763      0.0034630424   237178.33      0            
     40800   290.59902      494.98677     -3.3496688     -14.746033      30.488661      598.07384     -110.29742     -5.1826033      0.0034642215   237097.6       0            
     40900   282.03988      504.8766       1.8375963     -14.790684      31.785027      609.14506     -116.82887     -6.2715259      0.0034710097   236633.91      0            
     41000   345.02254      506.22005     -3.8901712     -15.415101      38.620269      604.00478     -111.65112     -5.4486054      0.0034444629   238457.67      0            
     41100   336.92611      509.26797     -2.6313346     -14.291857      36.669856      615.24873     -119.94941     -5.7780133      0.003432514    239287.76      0            
     41200   273.49747      500.63943     -4.843578      -14.524895      39.566496      602.77847     -116.71237     -5.6246862      0.0034116987   240747.7       0            
     41300   283.70716      494.70403     -3.4789394     -13.903876      37.301962      592.84283     -110.30919     -7.7487604      0.0033875833   242461.52      0            
     41400   314.98042      486.48635     -2.1919813     -16.725703      23.884931      611.94491     -124.36113     -6.0646835      0.0033590053   244524.36      0            
     41500   297.45818      498.51031      0.21506619    -16.190346      36.181119      611.21011     -126.32393     -6.5817082      0.0033191002   247464.24      0            
     41600   340.72661      500.79764     -1.7113003     -12.712667      37.370812      592.56495     -107.94937     -6.7647932      0.0033096168   248173.33      0            
     41700   322.47452      502.31147     -2.1062524     -12.532118      45.078242      590.23354     -112.61638     -5.7455593      0.0033037784   248611.9       0            
     41800   292.24745      490.13964     -1.8698525     -14.018962      20.629612      614.03434     -120.96513     -7.670366       0.0032900607   249648.47      0            
     41900   252.97329      496.91206     -4.3800009     -14.473366      35.117348      616.35042     -128.39474     -7.3075966      0.0032673756   251381.76      0            
     42000   309.8549       491.47729     -2.3149444     -14.838753      31.167893      604.46222     -119.499       -7.5001277      0.003263821    251655.53      0            
     42100   332.20311      496.69929     -3.547046      -15.449965      40.27999       600.09433     -118.42624     -6.2517744      0.003250246    252706.6       0            
     42200   286.20741      508.1598      -0.22200452    -13.852473      32.325875      603.46022     -107.53665     -6.0151655      0.0032632094   251702.7       0            
     42300   270.00655      493.94605     -1.5464235     -14.756261      31.655238      594.40259     -110.47933     -5.3297716      0.0032426858   253295.77      0            
     42400   250.74109      491.22104     -3.7338541     -14.88926       30.179995      598.34043     -112.09062     -6.5856537      0.003217335    255291.6       0            
     42500   306.87538      487.26465      1.409767      -14.632982      27.83344       590.89051     -110.32042     -7.9156649      0.0032097554   255894.45      0            
     42600   302.98943      499.9072      -3.0090651     -14.956841      30.105043      613.10389     -120.5398      -4.7960271      0.00316834     259239.41      0            
     42700   363.75935      490.93471     -2.4860719     -13.872115      25.249132      616.65896     -126.58589     -8.0293122      0.0031668335   259362.74      0            
     42800   293.63316      498.68372     -1.1275554     -15.213453      29.702122      602.58845     -111.4128      -5.8530382      0.0031515128   260623.6       0            
     42900   279.99375      486.20179     -2.5933214     -15.90725       29.045592      589.43677     -107.61574     -6.1642637      0.0031539405   260422.99      0            
     43000   265.30081      490.65938     -2.1617636     -13.177386      29.59678       612.77131     -129.7394      -6.6301588      0.0031718823   258949.91      0            
     43100   323.26875      485.13989      0.7736327     -14.780636      30.780676      588.53194     -113.67417     -6.4915515      0.0031774928   258492.67      0            
     43200   310.42104      493.96077     -1.1569964     -15.077221      26.825876      601.04252     -112.19016     -5.4832555      0.0031698805   259113.43      0            
     43300   306.12577      497.13947     -2.6173354     -14.508525      33.250431      606.74111     -120.23914     -5.4870806      0.0031929034   257245.06      0            
     43400   332.6009       494.38963     -1.168222      -14.575273      33.994887      582.48105     -102.47468     -3.8681276      0.0032165552   255353.49      0            
     43500   313.34581      491.90482     -3.1083182     -15.558948      29.809849      606.56056     -119.64597     -6.1523474      0.0032446286   253144.11      0            
     43600   277.17638      489.96571     -0.6637462     -15.865437      34.48157       595.38199     -117.91622     -5.4524533      0.0032677959   251349.42      0            
     43700   307.34669      484.0584      -2.8279645     -15.17654       23.378714      599.34362     -114.4789      -6.1805245      0.0032764895   250682.51      0            
     43800   326.42195      493.54748     -4.7184574     -13.776968      27.409657      615.33474     -124.83145     -5.8700443      0.0033217709   247265.28      0            
     43900   317.26569      500.60158      0.17522524    -13.849824      31.918858      589.56767     -103.21507     -3.9952772      0.003369978    243728.18      0            
     44000   330.07764      494.01464     -4.620653      -13.494962      32.487457      588.20677     -102.32026     -6.2437154      0.003396449    241828.63      0            
     44100   335.81254      487.31014      0.338767      -14.106943      23.927446      600.83501     -117.88643     -5.797714       0.0034562604   237643.73      0            
     44200   286.37615      494.69496     -3.1459332     -13.092415      33.330714      586.57338     -104.87363     -4.0971588      0.0035167688   233554.91      0            
     44300   283.99298      490.23395     -1.588835      -15.035254      29.637783      589.59076     -106.29206     -6.0784529      0.0035895103   228821.91      0            
     44400   298.56004      486.81164      0.073543349   -14.50246       27.449972      584.81683     -105.89602     -5.1302314      0.0036583812   224514.22      0            
     44500   280.46615      500.30407     -4.2593098     -15.089465      31.372642      605.91972     -112.68824     -4.9512777      0.0037469006   219210.14      0            
     44600   321.71867      499.96767     -0.75654591    -14.616046      27.278477      590.25271     -97.824956     -4.3659638      0.0038648226   212521.68      0            
     44700   300.25181      503.7921       2.6249205     -14.846958      34.827428      587.90024     -101.38699     -5.3265375      0.0039660823   207095.71      0            
     44800   268.78806      496.49651     -2.3757859     -15.263798      41.166006      591.34938     -113.20979     -5.1695026      0.0040504016   202784.49      0            
     44900   286.62869      487.76806     -1.9875426     -15.535765      21.429282      612.74187     -123.48824     -5.391549       0.0041718356   196881.83      0            
     45000   297.70648      489.99203     -3.9283987     -14.713441      28.500957      586.30904     -101.33664     -4.839485       0.0043023399   190909.74      0            
     45100   289.15308      497.86059     -4.1123282     -14.532441      39.030324      586.68346     -103.6736      -5.5348265      0.0044044034   186485.78      0            
     45200   306.76934      497.66369     -3.5330674     -13.143314      33.653564      594.21253     -109.494       -4.0320342      0.004506685    182253.39      0            
     45300   361.42203      484.75216     -0.69746436    -14.388333      22.183717      597.11271     -115.08549     -4.3729868      0.0046216196   177720.95      0            
     45400   284.01577      486.77693     -1.647795      -13.683919      27.545716      598.39134     -117.30759     -6.5208239      0.0047709822   172157.13      0            
     45500   289.72159      479.77506     -1.2165761     -14.681231      18.577558      593.63985     -110.92382     -5.6207163      0.0048912499   167924.07      0            
     45600   282.31056      488.73016     -3.9765509     -15.270454      23.470652      607.99053     -116.62847     -6.8555458      0.0049903593   164589.07      0            
     45700   308.74899      495.44206     -2.5605957     -14.666679      29.708699      603.1378      -114.67573     -5.5014403      0.0050967158   161154.48      0            
     45800   319.5125       496.30729     -1.6056922     -14.126148      31.132735      601.96355     -115.01891     -6.0382455      0.0052491156   156475.62      0            
     45900   275.82526      500.92064      0.29331977    -14.645253      34.345511      596.51526     -110.59694     -4.9912577      0.0053684841   152996.38      0            
     46000   278.49703      486.68895     -1.8263271     -17.306623      23.196873      606.56981     -117.57875     -6.3660364      0.0054601006   150429.21      0            
     46100   248.32937      485.37061     -3.4769047     -16.840217      34.558109      596.7674      -118.85474     -6.7830343      0.0055466138   148082.89      0            
     46200   300.51445      486.85894     -0.89044134    -15.056374      28.119313      587.60407     -107.37522     -5.5424066      0.0056380479   145681.38      0            
     46300   291.58711      501.16215      3.0017886     -15.572185      32.410659      602.5063      -114.58093     -6.6034816      0.0057707409   142331.57      0            
     46400   321.86048      494.20655     -1.7174041     -14.780364      31.948784      601.96883     -116.8551      -6.3581963      0.0057951348   141732.44      0            
     46500   283.26075      495.19592     -2.7311323     -15.152359      30.557052      616.10884     -127.02322     -6.5632592      0.0058521224   140352.26      0            
     46600   315.58401      483.12416     -1.6171845     -14.786905      26.719247      589.45213     -110.48836     -6.1547692      0.0059284128   138546.12      0            
     46700   270.67598      492.91374     -1.4501235     -14.068478      18.752491      606.92144     -111.18141     -6.0601806      0.0060138955   136576.8       0            
     46800   326.0108       495.35287     -2.671401      -14.437422      30.353181      610.55311     -122.16389     -6.2807137      0.0060324489   136156.75      0            
     46900   320.07005      502.49938     -0.08866572    -12.942287      28.914336      606.38589     -113.1609      -6.6089891      0.0060241247   136344.89      0            
     47000   317.38584      494.35883     -2.0680173     -15.354619      34.342921      605.28719     -122.21963     -5.6290153      0.0060608863   135517.9       0            
     47100   261.58522      493.71543     -1.4606595     -13.477839      28.730089      608.87935     -120.77371     -8.1818         0.0061091183   134447.98      0            
     47200   302.46783      485.51889     -3.7375436     -14.194219      27.970977      585.87417     -104.37058     -6.0239104      0.0061204253   134199.6       0            
     47300   269.6424       495.89226     -3.9921149     -14.697144      29.205499      604.53993     -113.29452     -5.8693853      0.0061092973   134444.04      0            
     47400   350.97055      487.54218     -3.5330529     -14.969957      28.756581      601.56367     -118.06606     -6.2090069      0.0061524652   133500.73      0            
     47500   285.80472      503.31178     -1.5794376     -13.530539      28.113239      611.30397     -114.66207     -6.3333788      0.0061609453   133316.98      0            
     47600   311.80052      492.94426     -2.1292804     -13.696743      31.095192      607.85388     -124.18999     -5.9887975      0.0061388877   133796         0            
     47700   292.23332      485.02064     -0.1951262     -14.673001      25.399397      592.24378     -111.8357      -5.9187145      0.0061019051   134606.91      0            
     47800   238.14884      496.21268     -3.713228      -11.912538      26.396689      593.76251     -103.97746     -4.3432957      0.0060733499   135239.8       0            
     47900   298.07394      494.62538      1.3790866     -12.589332      27.785637      604.88323     -119.59969     -7.2335557      0.0060687008   135343.4       0            
     48000   329.29523      494.32745     -0.5070693     -15.372969      35.22942       594.5536      -114.09298     -5.4825601      0.005979371    137365.39      0            
     48100   319.71497      492.74651     -1.5940208     -15.660452      28.011411      609.13179     -120.36319     -6.7790332      0.0059100685   138976.16      0            
     48200   309.21673      494.28075     -1.8460352     -14.218084      35.65067       601.1191      -119.00072     -7.4241742      0.0058769497   139759.34      0            
     48300   264.25893      491.07219     -1.9261145     -15.179569      29.377571      588.50673     -105.12577     -4.5806677      0.0058477197   140457.93      0            
     48400   242.45475      488.51819     -2.1335874     -13.241509      29.547184      595.20709     -114.19339     -6.6675961      0.0057671357   142420.54      0            
     48500   269.78544      491.02567     -1.7005905     -14.327967      25.210081      590.47105     -103.71737     -4.9095318      0.0056491152   145395.97      0            
     48600   275.44135      497.57132      2.362791      -13.500156      25.483357      601.42513     -113.08542     -5.1143889      0.0055796286   147206.68      0            
     48700   302.66204      495.27656      0.10295305    -15.81775       26.688524      616.22978     -124.18763     -7.7393268      0.0055044404   149217.46      0            
     48800   285.88013      501.04309     -3.4688709     -14.704172      29.946731      606.19831     -110.12625     -6.8026552      0.0053971186   152184.65      0            
     48900   307.92278      494.91779     -2.3429949     -13.766084      35.717111      589.87046     -109.54235     -5.0183547      0.0052474797   156524.4       0            
     49000   275.9119       494.37359     -1.163089      -14.534516      29.236806      597.90919     -110.78606     -6.2887409      0.0051230395   160326.43      0            
     49100   291.95325      486.36491     -1.6033667     -14.28227       30.780085      587.20686     -110.16486     -5.5715413      0.0049864003   164719.75      0            
     49200   317.08029      486.50107     -0.83076304    -15.751702      25.950296      592.01472     -108.71551     -6.1659714      0.0048230931   170297.07      0            
     49300   285.21223      505.92024      0.59496382    -15.578178      41.798933      605.66586     -121.01349     -5.5478549      0.0046414675   176960.97      0            
     49400   306.98983      503.32568      0.74424586    -14.373571      30.337554      592.06836     -99.733999     -5.7169129      0.004476992    183462.16      0            
     49500   280.7028       502.36968     -2.2882845     -13.432133      36.443662      601.88804     -113.25542     -6.9861942      0.0043472558   188937.26      0            
     49600   298.46179      493.92678      2.4880451     -15.273156      27.738816      590.41626     -106.17617     -5.2670142      0.0041649187   197208.8       0            
     49700   272.04483      498.45023     -3.1758653     -15.036299      32.022915      607.48061     -117.42427     -5.4168662      0.004001692    205252.83      0            
     49800   301.64084      495.93694     -2.9300035     -14.18845       31.545756      610.51388     -122.08013     -6.9241164      0.0038701151   212231.06      0            
     49900   331.3072       491.98577     -3.6473716     -14.755576      25.790244      594.45688     -105.77355     -4.0848632      0.0037599149   218451.39      0            
     50000   283.17952      503.39744     -4.5018391     -12.763284      39.634465      599.27079     -112.56452     -5.6781659      0.003662746    224246.68      0            
     50100   290.26334      496.23144     -0.48018307    -14.578541      37.642477      590.77232     -110.44022     -6.6844082      0.0035754495   229721.78      0            
     50200   277.79611      497.78048     -3.8964726     -13.782428      35.550859      597.64837     -111.2223      -6.5175454      0.003494101    235070.08      0            
     50300   268.13889      499.87697      0.61665926    -15.605545      36.591454      599.41075     -115.52254     -5.6138046      0.0034322745   239304.47      0            
     50400   335.77831      491.88759     -1.543891      -15.324924      33.213518      610.56336     -127.53032     -7.4901519      0.0033709637   243656.92      0            
     50500   340.68154      500.08436      0.43005027    -15.376808      31.632914      599.51668     -110.55388     -5.5646009      0.003318773    247488.64      0            
     50600   347.51759      492.54659     -1.0767092     -15.239284      27.357978      599.25701     -110.73221     -7.0201863      0.0032772659   250623.12      0            
     50700   313.28935      483.81271     -4.5437106     -15.196735      27.262838      592.58091     -110.0378      -6.252792       0.0032352999   253874.03      0            
     50800   293.11736      487.66939     -1.3807346     -14.924755      27.065854      602.62843     -118.29713     -7.4222729      0.0032023795   256483.85      0            
     50900   307.74636      492.31308     -5.1964555     -15.305491      26.07894       620.4214      -126.64816     -7.0371662      0.0031682695   259245.18      0            
     51000   341.13423      494.64545      1.1432576     -13.311974      33.129063      583.50897     -104.32108     -5.5027875      0.0031505431   260703.82      0            
     51100   353.1189       490.64639     -2.7095979     -14.381819      31.257862      585.66313     -103.93935     -5.2438381      0.0031556709   260280.18      0            
     51200   318.13825      494.77563     -1.6655369     -14.128656      27.85967       608.77726     -119.38237     -6.6847379      0.0031460588   261075.41      0            
     51300   339.95471      487.84277     -1.9890898     -14.946754      22.739895      594.842       -107.79669     -5.0065849      0.0031233571   262973.01      0            
     51400   292.10242      495.73457     -2.1121927     -14.944242      33.248859      611.46339     -122.82515     -9.0961027      0.0031206616   263200.15      0            
     51500   296.50031      492.96151     -0.68027597    -14.979577      22.195586      617.54025     -122.91513     -8.1993456      0.0031240649   262913.43      0            
     51600   282.19539      496.12965     -1.5638201     -15.658715      33.972148      604.77817     -119.27968     -6.1184615      0.0031222341   263067.6       0            
     51700   340.22136      488.61128     -1.8183121     -15.045621      32.856432      595.53268     -115.94886     -6.9650344      0.0031228601   263014.86      0            
     51800   321.1994       500.14663     -3.3027062     -13.723427      34.152708      590.93978     -102.73596     -5.1837656      0.0031190681   263334.62      0            
     51900   287.16704      508.193       -2.8083707     -14.914776      38.962196      599.28195     -106.4002      -5.9278005      0.0031374001   261795.94      0            
     52000   279.72813      496.36812     -2.0141077     -14.819492      22.777909      614.66357     -117.80813     -6.431633       0.0031468229   261012.02      0            
     52100   257.19942      494.35681     -4.0616253     -15.023064      37.206884      609.57446     -126.06763     -7.2722103      0.0031379155   261752.94      0            
     52200   261.99101      497.45358     -0.6774488     -15.393544      39.410004      594.92106     -114.24421     -6.5622887      0.003160809    259857.09      0            
     52300   263.56446      506.0143      -4.1417026     -14.770544      33.996229      617.88244     -119.47399     -7.478139       0.0031774874   258493.11      0            
     52400   311.69019      497.07794     -2.4756817     -15.36033       35.874098      600.37024     -115.95813     -5.3722594      0.0032051599   256261.35      0            
     52500   296.17095      499.04307     -2.0574914     -14.288973      30.400094      607.29941     -115.13292     -7.1770448      0.0032304234   254257.26      0            
     52600   311.73949      492.03655     -4.4467557     -13.526975      28.652833      602.6844      -116.4369      -4.8900489      0.0032458741   253046.97      0            
     52700   294.73338      487.10452      2.1587691     -14.710172      26.801013      594.87403     -115.34305     -6.6760705      0.0032872664   249860.68      0            
     52800   233.79288      490.46758     -1.8461495     -15.542129      32.661987      593.85894     -111.5947      -7.0703607      0.0033360789   246204.79      0            
     52900   258.93771      493.71576     -2.4254973     -14.972834      23.450441      599.32931     -106.64342     -5.0222376      0.0033851916   242632.83      0            
     53000   286.67638      501.39296     -2.3554653     -13.081632      35.645281      597.57583     -112.07237     -4.3186822      0.0034447409   238438.43      0            
     53100   329.4366       493.9823      -3.6716314     -14.218745      29.641336      597.55572     -110.29008     -5.0343028      0.0035312861   232594.75      0            
     53200   320.86414      492.60745     -5.0257765     -14.475047      31.013631      595.59327     -108.69226     -5.8063693      0.0036370112   225833.4       0            
     53300   282.77212      491.6325       1.5692868     -15.349451      23.949179      604.8182      -118.40078     -4.9539364      0.0037822366   217162.15      0            
     53400   275.88675      486.47645     -1.9089287     -13.412012      26.424665      606.84153     -124.52619     -6.9426071      0.0039389833   208520.46      0            
     53500   265.95048      493.70814     -2.9236682     -14.433306      32.705819      590.36753     -107.17919     -4.8290554      0.0041402608   198383.3       0            
     53600   351.43398      491.96628     -1.6606417     -13.979962      30.891014      584.31928     -102.2852      -5.3182089      0.0043823157   187425.7       0            
     53700   289.82144      505.30183     -2.8602348     -14.519798      41.673607      601.51101     -114.77556     -5.7271954      0.0046253912   177576.03      0            
     53800   291.92076      496.39579     -0.094663317   -14.425546      37.446433      598.13854     -118.40913     -6.2598453      0.004892982    167864.63      0            
     53900   250.08604      496.52711     -1.6214083     -14.162357      38.237918      583.93654     -105.65782     -4.205771       0.0051397297   159805.8       0            
     54000   288.82818      491.00299     -2.5062016     -14.711597      30.200379      590.66222     -107.46947     -5.1723452      0.0053582102   153289.73      0            
     54100   376.17824      492.48678     -2.8963999     -15.188454      35.345011      590.3851      -109.60685     -5.5516212      0.0055392222   148280.5       0            
     54200   350.79071      500.45282     -2.4964271     -13.805725      38.642435      593.27063     -109.2846      -5.8734955      0.0057165736   143680.23      0            
     54300   342.86085      489.71688     -4.0765447     -14.004802      25.196969      612.83268     -123.37862     -6.8528034      0.0058450078   140523.1       0            
     54400   291.94695      492.13663     -1.0897263     -15.447592      27.674671      597.33192     -110.46013     -5.8725071      0.0059457512   138142.11      0            
     54500   313.61257      487.01392     -1.0685102     -14.987278      31.849528      602.04682     -123.75092     -7.0757135      0.0060162253   136523.91      0            
     54600   307.82699      494.39252     -4.961175      -15.110678      36.418881      602.95554     -119.0817      -5.8283461      0.0060696112   135323.1       0            
     54700   316.32527      509.58821     -1.3161947     -14.361887      40.035447      596.33217     -105.60212     -5.4992081      0.0061326953   133931.1       0            
     54800   305.55339      508.35187     -3.2925237     -14.338155      43.626034      593.15232     -106.15084     -4.6449674      0.0061921097   132646         0            
     54900   320.34584      492.42944     -2.9913693     -16.761802      30.569294      587.32209     -101.86844     -3.8403379      0.0062362087   131708.01      0            
     55000   301.13633      494.7231      -0.70016884    -14.945258      35.058143      593.37249     -113.52668     -4.5354174      0.0062651344   131099.92      0            
     55100   274.55841      495.88782     -3.2274297     -16.262103      31.316307      610.05903     -117.94804     -8.0499463      0.0062685908   131027.63      0            
     55200   306.37908      488.4999      -3.3353656     -15.206754      36.137288      591.84263     -114.34062     -6.5972735      0.0062774227   130843.29      0            
     55300   282.10548      500.12836     -1.1512052     -14.698316      27.358428      613.4523      -117.66307     -7.1697709      0.0063178615   130005.79      0            
     55400   283.34297      509.01481     -2.9953856     -14.747099      47.066431      603.68446     -118.69451     -5.2990846      0.0063231044   129898         0            
     55500   341.3376       496.39347     -0.41926356    -14.606863      30.970212      589.25518     -101.92008     -6.8857152      0.0063057716   130255.05      0            
     55600   282.01592      493.56987     -1.5615036     -15.37943       46.171395      589.79836     -119.76011     -5.6988399      0.0062591557   131225.14      0            
     55700   264.70422      493.17197     -2.8976752     -16.01907       30.175667      602.63154     -114.53171     -6.1867868      0.0062160351   132135.45      0            
     55800   308.44271      488.83009      0.12553169    -14.827598      29.036248      599.72856     -118.18669     -7.0459578      0.0062020083   132434.3       0            
     55900   308.37797      495.66062     -1.4277208     -14.917138      34.024538      603.1107      -117.80092     -7.3288461      0.0061423712   133720.12      0            
     56000   312.09866      500.15973     -3.9866627     -14.174181      36.434967      590.80126     -103.92603     -4.9896233      0.0060806418   135077.62      0            
     56100   325.91199      503.72688     -1.6889636     -14.466791      35.682673      600.87121     -109.79899     -6.8722592      0.0060041251   136799.05      0            
     56200   338.66778      492.94588     -2.3436417     -15.996718      30.743008      616.26135     -127.96277     -7.7553426      0.0059072736   139041.91      0            
     56300   278.52681      494.54173     -1.9140708     -15.28815       30.86215       602.95852     -116.42854     -5.6481754      0.0058089679   141394.93      0            
     56400   289.85132      488.19282     -3.5727548     -14.265661      34.933249      592.04853     -114.19655     -6.7539954      0.0057298272   143347.88      0            
     56500   282.39706      494.34318     -2.1347402     -13.822545      30.615427      599.65242     -112.60144     -7.3659463      0.0056267514   145973.86      0            
     56600   304.50028      504.54386     -2.5165492     -14.258851      33.588816      605.25662     -111.69811     -5.8280658      0.0055092801   149086.38      0            
     56700   307.82727      502.52849     -1.58558       -16.528846      38.584456      605.92844     -117.13038     -6.7396099      0.0053411911   153778.17      0            
     56800   290.07037      500.84688     -2.7256871     -14.652115      41.056187      606.78892     -122.06373     -7.5566865      0.0051902441   158250.48      0            
     56900   302.69942      493.92157      0.082599835   -13.293526      33.749021      589.38385     -110.63905     -5.3613201      0.0050654081   162150.53      0            
     57000   271.09414      499.55829     -4.0590243     -12.930978      38.548283      604.24498     -119.56851     -6.6764642      0.0049041433   167482.59      0            
     57100   290.82756      497.92333     -2.7383276     -13.286835      37.724748      600.52977     -118.40933     -5.8966945      0.0047453343   173087.62      0            
     57200   345.91878      494.55415     -4.1879595     -14.003873      24.183422      603.97104     -109.70395     -5.7045322      0.0045777049   179425.85      0            
     57300   362.24956      509.30327     -1.5252746     -16.327984      40.27745       626.60397     -131.99607     -7.7288206      0.0044193885   185853.45      0            
     57400   310.30116      509.54405      0.2839525     -15.981908      45.569974      598.75315     -112.97958     -6.1015411      0.0042681178   192440.47      0            
     57500   357.38461      483.78533      0.0073498007  -15.44162       23.062447      594.17121     -112.4787      -5.5353574      0.0041458749   198114.66      0            
     57600   277.4709       497.03048     -4.2244449     -12.924909      31.869223      586.69384     -99.55401      -4.8292251      0.0040088018   204888.8       0            
     57700   314.3948       488.01551     -2.5802443     -13.971252      32.958929      586.56901     -109.39653     -5.5643991      0.0038982327   210700.25      0            
     57800   329.55078      491.77366     -4.1929449     -15.698501      34.157866      608.64338     -125.19381     -5.9423306      0.0037839112   217066.04      0            
     57900   285.4605       515.15076     -3.4724707     -16.000178      41.062092      623.7013      -122.0037      -8.1362814      0.0037125193   221240.23      0            
     58000   340.42335      499.30877     -0.77862783    -14.719343      36.461798      600.27003     -116.65126     -5.2738257      0.0036499437   225033.23      0            
     58100   277.50598      495.51739     -0.5817113     -13.955478      30.229481      598.91636     -112.87609     -6.2151752      0.0036094046   227560.69      0            
     58200   272.29111      496.30682     -3.9642154     -14.772404      34.125009      589.05453     -103.90555     -4.2305463      0.0035682936   230182.46      0            
     58300   325.81454      489.84492      0.20081361    -15.587673      25.032525      595.99609     -110.73781     -5.0590299      0.0035318367   232558.49      0            
     58400   275.98802      508.20736     -3.2748216     -15.466789      47.16065       622.86291     -134.76216     -8.3124249      0.0035039824   234407.17      0            
     58500   308.39255      503.96827     -0.16913613    -15.212189      33.669192      604.99771     -112.48735     -6.8299602      0.0035018574   234549.42      0            
     58600   258.22167      503.30326     -3.3205712     -14.637663      42.851298      593.70499     -110.71486     -4.5799331      0.0034963118   234921.44      0            
     58700   245.75562      495.92692     -2.5327406     -15.104976      27.117351      602.96425     -110.27526     -6.2417043      0.0034670465   236904.41      0            
     58800   273.53949      494.43982     -1.11575       -14.446785      31.640296      599.35958     -115.25676     -5.7407605      0.003456662    237616.12      0            
     58900   312.37343      497.17221     -1.8452714     -14.507725      26.911204      599.96432     -108.30547     -5.0448413      0.003450055    238071.16      0            
     59000   351.50086      491.08675     -1.0548823     -15.207643      24.130461      605.9654      -116.01193     -6.7346535      0.0034542277   237783.57      0            
     59100   272.84593      505.9857      -1.3447924     -15.096126      33.006482      617.11184     -120.89298     -6.7987273      0.0034471363   238272.74      0            
     59200   293.3877       495.02632     -4.4054662     -16.540589      26.681925      613.75488     -118.82319     -5.6412374      0.003442712    238578.95      0            
     59300   297.76445      493.2808      -4.202361      -14.529814      29.385579      606.47181     -117.41626     -6.4281494      0.0034490296   238141.95      0            
     59400   327.87918      484.72299     -0.28480807    -15.200178      25.86253       595.69094     -114.11925     -7.2262384      0.0034665423   236938.87      0            
     59500   282.71992      497.15729     -2.6878806     -15.250095      26.16754       604.87083     -110.54777     -5.3953373      0.0034778941   236165.5       0            
     59600   298.17598      501.47479     -2.6563387     -14.701468      33.176454      601.64481     -111.33291     -4.6557579      0.0034814332   235925.42      0            
     59700   318.85305      500.61233      0.23215584    -15.640897      35.430764      598.86062     -111.69437     -6.5759442      0.0034954848   234977.02      0            
     59800   298.51393      498.40326     -2.8706324     -15.415223      24.800871      608.20223     -110.56654     -5.7474433      0.0035018834   234547.67      0            
     59900   283.67215      488.90341     -1.8011071     -14.271086      29.435112      595.89087     -113.78946     -6.5609292      0.0035276538   232834.25      0            
     60000   266.78777      492.346       -2.3676682     -15.012036      27.269654      598.69385     -109.89084     -6.3469548      0.0035291345   232736.55      0            
     60100   300.16064      492.30023     -3.457736      -16.032078      27.36827       611.69073     -120.49458     -6.7743844      0.0035347368   232367.68      0            
     60200   277.36599      502.24614     -1.0747333     -15.282086      33.514149      608.48574     -117.86913     -5.5277956      0.003567165    230255.29      0            
     60300   316.6974       493.17595     -2.0031254     -14.072493      28.603949      583.30868     -98.505698     -4.1553532      0.0035915299   228693.24      0            
     60400   283.46704      499.51275     -0.38374725    -14.27265       34.508674      594.6922      -109.60728     -5.4244427      0.0036306853   226226.88      0            
     60500   291.21005      494.76269     -3.1462176     -15.33619       32.211123      588.78882     -102.75149     -5.0033551      0.0036520009   224906.46      0            
     60600   280.17396      490.79926     -2.7121562     -15.969834      30.172343      603.45        -117.25129     -6.8897975      0.0036958968   222235.27      0            
     60700   294.90069      486.35078     -1.5814226     -16.165732      28.100179      611.05821     -127.80091     -7.2595379      0.0037371461   219782.31      0            
     60800   302.49602      496.93413     -1.5338714     -15.168001      41.770536      586.26473     -108.39824     -6.0010212      0.0037918171   216613.45      0            
     60900   338.85636      497.63031     -3.1196972     -14.290011      27.281028      595.30301     -103.70367     -3.8403407      0.0038400647   213891.87      0            
     61000   297.00682      502.26244     -3.8942659     -14.846715      33.572018      602.48819     -111.26067     -3.7961206      0.0038906728   211109.66      0            
     61100   251.64818      502.21474     -0.10975705    -14.442829      33.295914      599.66918     -110.85673     -5.3410404      0.0039595354   207438.13      0            
     61200   280.78914      491.71676     -3.1123617     -13.63384       29.422208      603.90804     -118.9878      -5.8794855      0.0040353828   203539.2       0            
     61300   286.64518      494.15372     -3.3292618     -14.510694      29.729033      590.02874     -103.69248     -4.0716213      0.0041340426   198681.7       0            
     61400   300.43205      497.19182     -3.5306058     -13.859044      38.205137      590.55035     -108.13871     -6.0353059      0.0042478006   193360.92      0            
     61500   307.65169      500.95004     -3.7300865     -15.594556      39.195009      598.72731     -112.39547     -5.2521631      0.0043775818   187628.39      0            
     61600   338.46882      494.83126     -1.8016845     -14.266533      30.437817      589.66865     -105.39654     -3.8104602      0.0045252604   181505.27      0            
     61700   248.75132      499.09606     -4.4646286     -14.97264       32.662939      604.30879     -113.57801     -4.860397       0.0046654647   176050.76      0            
     61800   264.95625      491.04012     -2.7175216     -14.271811      29.653158      593.73082     -110.32223     -5.0322987      0.004842657    169609.08      0            
     61900   312.31111      488.23321     -4.6713118     -15.366059      31.745661      586.98433     -105.15505     -5.3043576      0.0050297046   163301.56      0            
     62000   345.50538      489.67056     -2.9921119     -14.443831      24.607073      598.92678     -110.42029     -6.0070672      0.0052265879   157150.06      0            
     62100   299.62003      500.4835      -2.3196615     -14.549118      29.076317      608.42133     -114.6083      -5.5370646      0.0054331453   151175.53      0            
     62200   287.50134      498.83874     -4.3898883     -15.233357      35.894611      602.48608     -115.04084     -4.8778724      0.005618288    146193.75      0            
     62300   319.20883      488.14787     -3.3240443     -14.730001      26.213         588.79316     -103.79056     -5.0136832      0.0058137737   141278.05      0            
     62400   284.67248      493.28        -3.6026943     -14.948879      29.595894      600.11166     -113.15874     -4.7172415      0.0059807848   137332.91      0            
     62500   275.42882      492.50291     -3.9671261     -14.881428      29.482364      588.77533     -103.40073     -3.5054983      0.0061582897   133374.47      0            
     62600   264.45951      496.87098     -2.1173481     -15.35278       30.89106       597.2828      -108.66708     -5.1656699      0.0063091421   130185.47      0            
     62700   328.46632      491.91626     -4.2738861     -14.702877      34.956177      593.07734     -112.13022     -5.0102721      0.0064126525   128084.07      0            
     62800   316.91584      501.1766      -4.5663162     -14.77939       34.201568      599.57951     -107.35784     -5.9009303      0.0065018919   126326.1       0            
     62900   312.30228      494.46389     -4.6879748     -15.205537      36.055246      603.90418     -119.94048     -5.6615465      0.0065603524   125200.38      0            
     63000   266.05538      490.67515     -1.6635889     -15.22239       28.71007       598.30893     -113.84778     -5.6100881      0.0066051306   124351.61      0            
     63100   276.70337      489.5458      -4.3465717     -14.563988      31.543912      589.42208     -108.57413     -3.9355047      0.0066259932   123960.07      0            
     63200   274.93874      497.38967     -3.67308       -14.130765      34.909747      582.34513     -97.306151     -4.7552122      0.006650734    123498.94      0            
     63300   314.64467      494.16881     -2.865373      -15.158198      39.368122      589.45077     -112.05877     -4.567754       0.0066468116   123571.82      0            
     63400   292.4064       499.25415     -2.8919826     -15.316121      31.820894      609.957       -118.71455     -5.6010879      0.006649854    123515.28      0            
     63500   301.26034      494.67708     -3.6890072     -15.665876      30.793688      596.27851     -109.02198     -4.0182505      0.0066388966   123719.14      0            
     63600   315.60945      489.4402      -1.791019      -13.96236       24.181323      590.53117     -103.48242     -6.0364904      0.0066330636   123827.94      0            
     63700   253.64744      502.82822     -0.37804116    -14.888977      35.939751      610.26941     -122.54926     -5.5646666      0.0066097608   124264.5       0            
     63800   334.74704      486.84864     -2.8901884     -14.968655      24.725883      603.2268      -117.94232     -5.3028871      0.0065855756   124720.85      0            
     63900   333.08601      488.91138     -2.5013013     -16.273426      23.879047      597.71662     -107.67094     -6.2386128      0.0065425734   125540.6       0            
     64000   301.27257      500.15176     -1.9580384     -14.915711      34.822531      599.64914     -111.37443     -6.0717375      0.0064898126   126561.22      0            
     64100   323.20356      495.09755     -2.8791266     -14.296483      36.291058      596.18301     -115.30857     -4.8923347      0.0064363385   127612.71      0            
     64200   276.53134      495.0636      -3.6214233     -14.380362      34.105736      588.20669     -104.50521     -4.7418268      0.006362733    129088.96      0            
     64300   312.3632       479.92509     -3.3971297     -14.476656      26.275769      590.44674     -112.69218     -6.2314618      0.0062790411   130809.56      0            
     64400   296.93414      487.40764     -2.4985875     -15.091367      36.418039      589.95367     -115.76124     -5.6128745      0.0062165291   132124.95      0            
     64500   333.55707      496.42555     -3.6122056     -14.313281      27.855704      596.6606      -104.02543     -6.1398451      0.0061536665   133474.67      0            
     64600   328.96276      496.84959     -4.3105657     -14.387726      30.516382      597.99316     -109.06778     -3.8938846      0.0060457733   135856.67      0            
     64700   318.80018      490.89935     -2.8029734     -14.985934      24.520839      605.45287     -114.72666     -6.558789       0.0059572963   137874.39      0            
     64800   313.64704      485.41526     -2.8278439     -15.811265      24.585806      597.94714     -113.9816      -4.4969786      0.0058385677   140678.1       0            
     64900   302.73324      487.53461     -3.8055613     -14.845442      21.472011      606.4768      -116.35938     -5.4038198      0.0057404776   143081.93      0            
     65000   346.18573      496.78359     -4.4225008     -14.302698      33.239796      593.66625     -107.09495     -4.3023041      0.0056373981   145698.17      0            
     65100   387.67483      491.21284     -4.6010148     -14.901314      26.000932      596.66001     -106.52017     -5.4255991      0.0055184762   148837.94      0            
     65200   330.19973      491.94594     -3.508182      -14.937332      38.113622      589.90433     -111.80826     -5.8182405      0.0053976871   152168.62      0            
     65300   307.05183      488.37036     -4.2820457     -14.93071       35.303716      592.53681     -115.43086     -4.8265484      0.0052572341   156233.98      0            
     65400   293.56512      491.15473     -3.4960496     -15.132333      29.118101      607.83541     -121.56778     -5.6026238      0.0051135855   160622.84      0            
     65500   294.96285      498.03293     -2.514462      -14.708846      30.457478      592.94244     -103.56268     -4.5809987      0.0049749386   165099.25      0            
     65600   356.75871      500.07102     -4.630286      -13.141064      29.142201      607.56869     -113.69313     -5.175398       0.0048456504   169504.31      0            
     65700   395.7313       498.7703      -2.7009085     -14.086057      29.601774      600.79546     -109.25779     -5.5821793      0.0047084145   174444.84      0            
     65800   333.21937      494.61597     -2.3514828     -13.853097      32.563292      591.04896     -107.69551     -5.0962027      0.0045684676   179788.65      0            
     65900   324.08205      489.45595     -4.3211618     -16.728183      30.825062      603.48861     -118.24472     -5.5636689      0.0044315932   185341.61      0            
     66000   287.98101      496.39789     -0.96112162    -14.58656       36.225528      594.38305     -113.39295     -5.2700591      0.0043408017   189218.18      0            
     66100   303.93973      491.37134      0.052490715   -14.124619      32.937471      588.23892     -110.95282     -4.7800955      0.0042592475   192841.25      0            
     66200   275.37085      499.6927      -0.3220923     -13.637176      29.220526      601.12959     -111.41133     -5.2868253      0.0041568258   197592.74      0            
     66300   336.02573      494.82572     -2.7862338     -14.732048      32.668139      602.19316     -116.72432     -5.7929737      0.0040616941   202220.69      0            
     66400   363.55186      495.62852     -3.408017      -15.624411      33.743529      593.67275     -108.44656     -4.3087735      0.0039859959   206061.08      0            
     66500   333.16941      492.29796     -1.831738      -14.773109      27.582259      615.9397      -127.38209     -7.2370619      0.0039276448   209122.43      0            
     66600   286.17793      489.91466     -2.7867497     -14.845142      26.838618      602.41548     -115.71997     -5.9875673      0.003858415    212874.62      0            
     66700   274.58997      495.65006     -3.4887402     -13.320194      39.685363      584.32048     -106.54802     -4.9988398      0.0037919985   216603.09      0            
     66800   297.58712      498.63352     -3.9790098     -14.033612      30.813487      604.99919     -112.99935     -6.1671854      0.0037573507   218600.47      0            
     66900   315.18056      500.16385     -2.6055017     -14.728336      35.976464      592.98637     -106.24856     -5.216584       0.0037252676   220483.12      0            
     67000   311.38117      497.51796     -2.9039301     -14.232712      30.35577       603.72779     -113.44387     -5.9850824      0.00368682     222782.4       0            
     67100   256.87948      491.13344     -3.7712223     -14.761578      29.436736      594.74731     -107.76178     -6.7560149      0.0036553847   224698.27      0            
     67200   275.53483      488.92636     -0.056745786   -15.91685       27.852987      603.08148     -119.50357     -6.5309404      0.0036346509   225980.06      0            
     67300   281.14408      500.43495     -2.3795064     -14.645681      31.387889      608.72058     -115.64173     -7.0066069      0.0036223584   226746.92      0            
     67400   334.83695      495.09372     -5.546495      -13.641173      35.277087      601.34327     -116.40158     -5.9373897      0.0035896464   228813.24      0            
     67500   275.50927      507.1201      -4.5326849     -13.53593       32.985187      605.76239     -109.05758     -4.5012937      0.0035690943   230130.82      0            
     67600   276.85264      494.04091     -4.5929965     -14.755443      36.792275      590.0366      -107.58341     -5.8561168      0.0035658684   230339.02      0            
     67700   256.8998       488.02185     -0.2678062     -14.823456      23.793708      599.94032     -113.58139     -7.039524       0.0035719462   229947.08      0            
     67800   255.3383       494.30716     -2.3570241     -14.865638      32.117106      604.40441     -118.82993     -6.1617634      0.0035555985   231004.32      0            
     67900   322.02582      486.98533     -3.2405708     -15.311156      28.180243      602.24665     -117.16738     -7.7224586      0.0035507943   231316.87      0            
     68000   292.36557      500.94766     -1.5850177     -15.097836      41.213877      597.72436     -114.9696      -6.338119       0.00357488     229758.37      0            
     68100   319.55801      496.6321      -2.7702902     -15.047335      33.668859      603.85534     -117.10825     -5.9662281      0.0035866219   229006.19      0            
     68200   300.95455      495.36005     -1.677238      -14.977569      33.93023       596.18925     -111.76211     -6.3425149      0.0035844039   229147.89      0            
     68300   257.0885       491.06661     -1.9382488     -13.953234      36.526475      587.43423     -110.91368     -6.0889336      0.003569055    230133.36      0            
     68400   275.13799      488.29581     -4.0117916     -15.265518      31.005667      615.71605     -131.85729     -7.291311       0.0035744329   229787.11      0            
     68500   291.27855      497.37016     -0.77722578    -14.801654      33.403254      601.69234     -115.34531     -6.8012431      0.0035845535   229138.33      0            
     68600   292.24452      501.26014     -0.59241879    -13.660076      39.16819       596.0584      -112.86684     -6.8471129      0.0035957819   228422.81      0            
     68700   270.81243      505.97384     -1.3294965     -12.805254      35.600534      607.04661     -115.81791     -6.7206482      0.0035922788   228645.56      0            
     68800   318.30059      492.62196     -3.9932696     -12.823348      28.978195      596.21676     -110.24447     -5.5119075      0.0036004523   228126.51      0            
     68900   278.01513      487.61136     -1.5585483     -14.941569      31.911224      594.61699     -115.93895     -6.47779        0.0036152328   227193.84      0            
     69000   245.05681      490.70316     -3.1203624     -15.434559      33.317555      592.93247     -111.53093     -5.4610157      0.0036307149   226225.04      0            
     69100   275.80264      497.08141     -2.015501      -16.048158      44.836158      599.85191     -122.23457     -7.308422       0.0036570274   224597.34      0            
     69200   311.97646      496.11007     -0.53412575    -15.010202      33.362176      597.41159     -114.30575     -4.8136132      0.0036784017   223292.26      0            
     69300   311.36711      497.43158      0.49236739    -14.513514      31.160318      593.36886     -106.34286     -6.7335962      0.0037011018   221922.73      0            
     69400   303.72934      494.95253     -1.4040383     -16.058272      30.937467      595.35254     -108.57801     -5.2971558      0.0037056053   221653.02      0            
     69500   266.65916      498.03725     -1.0336827     -10.61041       35.517873      602.0884      -121.00854     -6.9163953      0.0037081726   221499.56      0            
     69600   244.15621      495.63147     -1.5948087     -10.400467      26.511178      597.13536     -110.08343     -5.9363609      0.0037083379   221489.69      0            
     69700   281.32963      497.71174     -1.3696841     -9.6105659      27.737209      602.56507     -114.71825     -6.89204        0.0037180738   220909.71      0            
     69800   320.06802      497.71081     -2.1086195     -14.933367      32.666521      596.71934     -110.10275     -4.5303091      0.0037108871   221337.54      0            
     69900   323.16414      497.49948     -1.9189143     -12.449537      31.291174      585.39297     -99.483356     -5.3328597      0.0036920558   222466.46      0            
     70000   302.68871      493.17404     -3.8658137     -13.827549      36.906015      596.52471     -116.31747     -6.2458631      0.0036889768   222652.15      0            
     70100   273.49335      493.62531     -5.2029898     -13.154583      30.061774      600.67203     -113.23174     -5.5191712      0.0036985534   222075.64      0            
     70200   252.62993      494.23973      0.363007      -14.486897      33.691993      587.438       -107.43541     -5.3309577      0.0037277829   220334.35      0            
     70300   294.14253      495.67247     -1.8358703     -14.883         30.904404      590.86971     -104.84117     -4.5416149      0.0037429419   219441.99      0            
     70400   303.31037      504.59019     -0.53418485    -15.71475       36.500924      607.15557     -117.06582     -5.751547       0.0037573208   218602.2       0            
     70500   286.96529      506.00794     -2.929193      -15.00283       33.661404      613.1018      -117.09191     -5.7313343      0.0037556781   218697.82      0            
     70600   293.76487      493.47275     -3.7688977     -15.262202      27.515586      598.6834      -107.05755     -6.6375902      0.0037591572   218495.42      0            
     70700   253.32017      496.30934     -1.5374978     -13.822286      39.39675       581.97761     -104.8812      -4.8240364      0.0037516518   218932.53      0            
     70800   283.63509      490.37428     -4.0052618     -16.157038      28.422773      604.35748     -116.56111     -5.682567       0.0037355988   219873.35      0            
     70900   272.5454       496.3432       0.10308757    -16.295454      30.783553      596.66377     -109.76553     -5.1462248      0.0037374842   219762.43      0            
     71000   311.00004      493.84837     -3.0980834     -14.1435        31.544738      594.9713      -109.90441     -5.5216838      0.0037517934   218924.27      0            
     71100   317.51943      495.92767     -3.7134528     -13.964174      37.102138      587.10243     -106.01384     -4.5854302      0.0037721923   217740.39      0            
     71200   310.71458      500.63551     -0.93913004    -13.310682      33.351388      584.81778     -99.595714     -3.6881262      0.0037832796   217102.28      0            
     71300   314.44168      494.72146     -1.9225237     -14.692976      31.110634      605.01464     -118.14038     -6.6479302      0.003799941    216150.36      0            
     71400   271.73731      493.94371     -0.93273173    -15.389791      36.335626      591.28302     -110.27862     -7.0737887      0.0038114234   215499.18      0            
     71500   311.19761      482.2552      -2.8631119     -14.97705       28.855912      595.04495     -117.13616     -6.6693391      0.0038289522   214512.63      0            
     71600   289.85449      499.29945     -3.3044805     -14.515352      26.742429      608.5634      -111.358       -6.8285385      0.0038520473   213226.51      0            
     71700   304.73412      505.7626      -2.3218198     -14.629394      38.91211       608.01103     -118.04127     -6.1680572      0.0038557094   213023.99      0            
     71800   302.7138       501.71645     -0.63971863    -14.202496      30.077788      608.67117     -114.44042     -7.7498701      0.003886462    211338.39      0            
     71900   299.18318      495.29888     -0.99829001    -14.291126      29.50819       597.59994     -111.42365     -5.096188       0.003876712    211869.9       0            
     72000   304.85026      490.63939     -0.78652961    -13.570978      32.665734      581.36721     -102.74278     -6.2932605      0.0038751304   211956.38      0            
     72100   305.45069      491.06846     -1.4481149     -13.991433      33.979019      591.71261     -113.88317     -5.3004601      0.0038791172   211738.54      0            
     72200   353.42337      497.086       -2.707082      -14.506063      31.579669      606.56381     -117.81331     -6.0310192      0.0038977055   210728.75      0            
     72300   350.43697      501.58711     -3.5112229     -13.072901      39.198464      596.62161     -112.16888     -5.4799568      0.0039023368   210478.66      0            
     72400   327.81864      490.41608     -3.4372238     -15.70973       28.409708      605.52406     -117.31095     -7.0597767      0.0039190398   209581.59      0            
     72500   288.80177      491.23683     -5.138795      -15.79784       28.819623      604.81045     -116.0742      -5.3824049      0.0039460695   208146.01      0            
     72600   254.51716      500.34623     -2.6058312     -14.156274      26.297678      608.52943     -110.95114     -6.7676378      0.0039709254   206843.12      0            
     72700   308.20474      496.16649     -1.1001369     -15.307316      34.403         592.8691      -109.21618     -5.4819847      0.0040015491   205260.16      0            
     72800   373.79337      496.06819     -3.1542801     -16.456825      30.737531      597.16965     -107.41648     -4.8114056      0.0040108184   204785.79      0            
     72900   357.91326      497.46328     -1.6826687     -16.110493      31.459286      591.05575     -103.06877     -4.1898317      0.0040530841   202650.27      0            
     73000   343.27794      493.61838     -4.1152838     -13.811916      32.912099      597.45041     -112.79719     -6.0197426      0.0040994939   200356.1       0            
     73100   289.24588      499.2406      -3.6826428     -14.726785      31.854797      605.35126     -113.04948     -6.5065456      0.0041625058   197323.11      0            
     73200   320.21949      484.91735     -3.917525      -15.799916      26.551078      584.32043     -101.99843     -4.2382872      0.0042224554   194521.56      0            
     73300   279.02883      489.70088     -4.6190872     -16.331784      26.810222      602.02052     -113.16002     -5.0189742      0.0043022716   190912.78      0            
     73400   312.35432      490.84777     -3.3049506     -15.714139      27.259327      599.5788      -111.06165     -5.9096146      0.0044411958   184940.87      0            
     73500   290.55016      510.69686     -1.5477346     -14.765893      32.842498      612.99938     -112.67887     -6.1525099      0.0045839032   179183.24      0            
     73600   322.11681      501.29371     -3.8098085     -15.666377      36.117075      598.4436      -107.55031     -6.2404703      0.0047196493   174029.59      0            
     73700   256.93178      502.31679     -1.0445463     -14.532106      39.67875       605.23428     -119.64074     -7.3788514      0.0048467001   169467.6       0            
     73800   310.71913      487.77509     -2.4027098     -14.164105      34.22773       588.04519     -112.5738      -5.3572166      0.0050125739   163859.65      0            
     73900   264.27135      500.25864     -0.76195597    -14.759781      28.775589      590.2538      -98.560994     -4.6880167      0.0051921452   158192.54      0            
     74000   301.18288      498.04858     -3.1544296     -14.824288      35.183995      604.90804     -118.04752     -6.0172174      0.0053295858   154113.03      0            
     74100   308.85467      503.77715     -0.88819276    -13.59493       29.738185      596.439       -102.59328     -5.3236389      0.0054887825   149643.13      0            
     74200   343.19453      503.79452     -1.436965      -15.097272      38.702643      595.1516      -107.82554     -5.6999484      0.0056714217   144824.11      0            
     74300   306.75207      502.12848     -3.9286624     -14.581892      34.64741       603.54026     -111.1738      -6.3748407      0.0058628061   140096.5       0            
     74400   298.03925      491.4751      -0.37863869    -14.675924      28.438116      595.65692     -110.55946     -7.0059186      0.0060179926   136483.82      0            
     74500   258.36039      498.79123     -2.3844916     -14.022211      30.166118      606.3654      -115.50933     -5.8242667      0.0061727291   133062.47      0            
     74600   320.23429      489.64846     -2.8428169     -13.923683      23.637467      609.83849     -120.32436     -6.7366362      0.0063171024   130021.42      0            
     74700   333.36657      498.19976     -5.2642918     -15.35996       35.598318      595.13549     -105.86468     -6.0451095      0.0064655722   127035.72      0            
     74800   365.67716      500.42578     -1.1296019     -14.87368       36.295898      607.03768     -120.93252     -5.9719981      0.0065948353   124545.73      0            
     74900   320.76299      492.63503     -1.4279015     -14.461098      21.898953      602.29237     -110.02601     -5.641289       0.0066729423   123087.92      0            
     75000   306.68775      488.03067     -1.61237       -14.17412       34.731778      586.42431     -111.63876     -5.7001632      0.0067424819   121818.44      0            
     75100   294.69456      491.12792     -1.8635488     -14.682162      27.57498       599.92763     -113.18526     -6.6437093      0.0068196279   120440.39      0            
     75200   292.74581      499.16652     -1.9681452     -13.298752      31.63841       601.11855     -113.6096      -4.7139402      0.0068475191   119949.81      0            
     75300   348.40899      494.6656      -1.0842244     -16.432209      29.179785      601.16993     -112.62668     -5.5409992      0.0068914364   119185.4       0            
     75400   338.50386      494.44699     -3.8798959     -13.792768      31.375214      601.22224     -113.55467     -6.9231308      0.0069302097   118518.58      0            
     75500   275.48004      489.89045     -4.5172543     -14.472333      31.069941      601.50822     -116.99425     -6.7038692      0.0069587801   118031.98      0            
     75600   262.09722      492.87647     -3.5769341     -14.589304      22.638924      609.09303     -114.65981     -6.029439       0.0069881123   117536.55      0            
     75700   332.48897      486.52479     -5.6160984     -15.296303      27.550662      606.94017     -120.36758     -6.6860551      0.0069679562   117876.55      0            
     75800   331.63135      494.49077     -0.94500077    -14.445502      33.940558      592.12484     -110.91243     -5.2717006      0.006986939    117556.29      0            
     75900   275.25303      504.91207     -2.485917      -15.354915      37.477415      599.24055     -109.86618     -4.0988841      0.0069917197   117475.91      0            
     76000   284.45531      496.09899     -2.5539334     -14.533985      30.087805      589.48555     -100.59509     -5.791352       0.0069708815   117827.08      0            
     76100   301.03172      491.15826     -3.3852437     -14.643224      31.204201      595.42505     -112.99012     -4.4524002      0.0069271572   118570.8       0            
     76200   313.7846       489.75527     -3.6856823     -15.519567      27.59135       615.64632     -126.01129     -8.2658668      0.0068577733   119770.45      0            
     76300   274.6763       501.87258     -2.9733655     -15.496508      31.277998      616.14895     -119.3657      -7.7187937      0.006788247    120997.16      0            
     76400   287.1922       503.47251     -2.8787814     -14.903796      36.964968      606.64981     -115.98675     -6.3729425      0.0067131717   122350.31      0            
     76500   337.16076      492.60666     -2.0481594     -13.860945      28.022915      588.66669     -103.75613     -4.4176995      0.0065824339   124780.38      0            
     76600   258.042        498.41058     -4.417041      -14.114943      35.289542      602.73879     -115.32065     -5.7651152      0.006426625    127805.59      0            
     76700   265.81738      489.49978     -0.74490234    -14.364996      28.809916      591.43894     -109.4957      -6.1434726      0.0062979298   130417.24      0            
     76800   275.24001      492.49472     -3.8695563     -14.618931      32.554759      594.15634     -110.51255     -5.2153402      0.0061147146   134324.93      0            
     76900   354.8596       491.68734     -2.5838626     -14.704894      30.739337      606.28015     -120.78044     -7.2629483      0.005895787    139312.8       0            
     77000   333.69415      495.05717     -1.5241703     -15.39572       39.058703      591.7759      -113.28823     -5.5693077      0.0056270275   145966.7       0            
     77100   295.01344      495.69185     -1.9527319     -14.431474      35.799642      589.25412     -107.77808     -5.1996208      0.0053657178   153075.25      0            
     77200   278.22028      492.67179     -2.6413719     -14.209101      35.786366      588.3846      -109.34183     -5.3068685      0.0050895796   161380.44      0            
     77300   287.58438      491.51188     -1.6242575     -14.14807       30.400738      589.33288     -107.42301     -5.0263947      0.0047974313   171208         0            
     77400   334.53859      501.51832     -2.7308317     -13.410664      32.852         615.37064     -123.82242     -6.7404013      0.0045298888   181319.82      0            
     77500   356.12661      498.71309      0.20430601    -14.382495      23.552959      612.67375     -118.42047     -4.9149589      0.0043232054   189988.34      0            
     77600   295.84576      498.56141     -3.9829221     -14.149457      37.121023      604.59015     -118.40372     -6.6136639      0.0041371921   198530.45      0            
     77700   284.49993      493.41365     -3.0814233     -14.675425      29.97663       593.56747     -106.02333     -6.3502742      0.0039949176   205600.89      0            
     77800   298.35709      492.19636     -3.9266906     -13.603549      27.875719      598.36448     -111.54095     -4.9726483      0.0038797134   211706         0            
     77900   330.65281      493.78998     -4.5373927     -14.614784      32.97206       607.24284     -120.53902     -6.7337258      0.0037863451   216926.51      0            
     78000   346.21139      506.98415      1.3096981     -14.764892      41.441521      604.76202     -118.41074     -7.3534511      0.0037450736   219317.08      0            
     78100   347.39038      498.96947     -1.3857178     -14.850942      30.634871      587.0047      -97.158829     -5.2746143      0.0036661149   224040.61      0            
     78200   311.70212      497.74552     -0.6807226     -14.99701       34.563004      606.83503     -121.938       -6.0367791      0.0036094376   227558.61      0            
     78300   314.71985      492.67084     -2.8141852     -14.168179      37.079726      598.52002     -119.55831     -6.3882253      0.0035649996   230395.15      0            
     78400   279.20939      495.54705     -3.6757226     -15.221273      32.507114      591.70355     -104.01057     -5.7560421      0.003521141    233264.9       0            
     78500   270.24203      495.09833     -1.082567      -13.574556      32.270475      598.33903     -114.28198     -6.572072       0.0034736744   236452.39      0            
     78600   281.84201      496.06042     -2.4078038     -14.336524      37.948731      596.81386     -116.55427     -5.4035761      0.0034441704   238477.93      0            
     78700   316.13979      499.51538     -2.2212026     -14.073933      23.41716       616.93762     -117.46623     -7.0780297      0.0034276244   239629.12      0            
     78800   321.16069      502.24088     -1.7772533     -15.423199      42.578787      586.68935     -104.2347      -5.5921158      0.003403137    241353.38      0            
     78900   319.55542      493.43884     -2.730929      -14.040326      26.220054      595.80378     -106.59766     -5.2160787      0.0033718092   243595.82      0            
     79000   273.56692      491.4027      -3.7297908     -14.879461      33.34728       605.70084     -121.77107     -7.2651078      0.0033365407   246170.71      0            
     79100   252.37128      498.28491      2.0987683     -15.238389      30.578776      612.23638     -124.81716     -6.5734674      0.0033310823   246574.1       0            
     79200   295.08671      495.57574     -0.8178396     -14.57793       35.992066      590.53075     -109.43066     -6.1206519      0.0033112901   248047.91      0            
     79300   331.17287      492.40546     -5.1794999     -13.798443      29.824726      596.33999     -109.03459     -5.7467249      0.0032750958   250789.18      0            
     79400   321.23364      493.02778     -3.0259516     -15.073357      26.365228      612.93164     -121.75738     -6.4123984      0.0032573734   252153.66      0            
     79500   252.01979      499.20129      0.065105896   -13.789161      26.443656      611.51941     -118.6994      -6.3383263      0.0032435379   253229.24      0            
     79600   258.64889      489.87012     -1.9065568     -13.960375      33.999241      589.61791     -110.78577     -7.0943266      0.0032388672   253594.41      0            
     79700   267.32482      495.27412      0.78377166    -14.205573      34.202734      600.17638     -118.71493     -6.9682613      0.0032199248   255086.27      0            
     79800   325.54347      494.66103     -3.053349      -13.22223       29.275276      597.21832     -110.09723     -5.4597549      0.0032247187   254707.06      0            
     79900   325.42621      495.17381     -3.9778872     -13.369128      30.489715      597.26069     -109.52659     -5.7029894      0.0032120828   255709.04      0            
     80000   297.31872      496.7176      -3.010817      -14.097538      33.949376      604.0091      -117.75748     -6.3750427      0.0032171076   255309.65      0            
     80100   281.76208      488.28985     -2.9726936     -14.492809      23.101149      603.01735     -114.07833     -6.2848142      0.0032195185   255118.46      0            
     80200   257.79924      485.28658     -4.292832      -14.103098      22.335677      610.88371     -123.002       -6.534875       0.0032412206   253410.28      0            
     80300   273.42504      493.2458      -1.8751695     -14.445659      35.630048      595.99193     -115.14191     -6.9134402      0.0032533039   252469.07      0            
     80400   292.94176      495.68291     -5.1837914     -14.739144      35.079669      585.50982     -99.920183     -5.0634701      0.0032617612   251814.45      0            
     80500   304.49279      494.29988     -1.8010616     -14.094671      25.552806      610.40544     -119.29302     -6.469607       0.0032834592   250150.4       0            
     80600   303.61916      496.10823     -0.35248379    -15.419076      33.046953      590.51336     -106.69138     -4.9891464      0.0033010945   248814.03      0            
     80700   274.75358      503.58137     -0.77591463    -14.455423      35.768327      614.05697     -124.00336     -7.0092235      0.0033378648   246073.06      0            
     80800   315.92277      494.74434     -3.4627325     -12.73205       26.569576      606.26414     -115.56399     -6.3306001      0.0033702959   243705.19      0            
     80900   310.42259      495.68599     -3.2753355     -12.78751       34.178889      586.63058     -105.66479     -3.3958423      0.0034200602   240159.11      0            
     81000   288.99839      497.15299     -2.7345669     -14.399258      38.618289      598.16195     -113.77314     -8.7202846      0.003473513    236463.38      0            
     81100   287.57146      494.82005     -3.8399614     -14.923088      32.588204      597.75828     -110.6154      -6.1479828      0.0035280597   232807.46      0            
     81200   278.93713      498.03187     -1.0904254     -13.534176      34.241836      600.67036     -116.9346      -5.3211243      0.003634613    225982.41      0            
     81300   299.54506      499.77089     -1.4840236     -15.191111      29.229321      616.39739     -122.215       -6.9656948      0.0037537848   218808.12      0            
     81400   331.19207      498.58197     -2.4214558     -14.475004      34.562368      600.83718     -113.2401      -6.6810188      0.0038747299   211978.29      0            
     81500   311.50513      499.44214     -2.144355      -14.478356      37.423775      601.97271     -116.67466     -6.6569717      0.0039774181   206505.48      0            
     81600   234.139        502.86193     -3.206157      -14.530015      36.674465      618.82141     -127.7251      -7.1726788      0.0040963126   200511.7       0            
     81700   257.32561      493.33235     -1.2527064     -13.096924      25.045371      597.31702     -108.22746     -6.4529477      0.0042222803   194529.63      0            
     81800   271.65405      493.77959     -3.3576895     -15.813834      36.143006      597.72926     -114.01835     -6.9028033      0.0043218383   190048.44      0            
     81900   339.50058      497.92649     -4.0334852     -13.380455      27.63134       620.07855     -124.97763     -7.3918262      0.0044212408   185775.59      0            
     82000   348.82077      499.82807     -0.81448294    -12.56092       32.036161      603.14178     -116.03993     -5.9345349      0.0045715329   179668.1       0            
     82100   298.03434      503.88899     -0.38608546    -13.575159      42.382062      600.88184     -117.00468     -8.4089879      0.0047532751   172798.46      0            
     82200   264.67258      502.47331     -2.1758673     -13.28925       31.611295      600.8519      -108.37468     -6.1500849      0.0049170981   167041.33      0            
     82300   305.07361      487.72746     -2.8676717     -14.417423      32.186962      598.19302     -118.0677      -7.2997256      0.0050589226   162358.41      0            
     82400   273.02313      492.89054     -3.1424141     -14.537171      40.668501      596.08389     -119.67499     -6.5072826      0.0051761913   158680.11      0            
     82500   263.45834      495.72871     -2.7336728     -14.537173      26.93088       601.24166     -109.53271     -5.6402837      0.005337146    153894.73      0            
     82600   316.82806      495.28037     -3.3384436     -14.656283      31.72693       598.42713     -110.45187     -6.4271022      0.0054862813   149711.36      0            
     82700   322.71562      500.71558     -0.4270754     -14.446101      28.974903      606.67582     -112.98882     -7.0731442      0.0055742161   147349.62      0            
     82800   295.02835      501.48047     -3.598676      -13.785499      33.21327       616.1904      -123.52617     -7.0128597      0.0056529284   145297.9       0            
     82900   304.14234      484.96472     -2.0058481     -14.201714      29.74307       588.52311     -111.14811     -5.9457865      0.0057370427   143167.6       0            
     83000   289.10814      485.90666     -4.8181711     -14.95477       30.288326      609.62554     -127.35688     -6.8773913      0.0057956252   141720.45      0            
     83100   289.23058      493.34053     -2.4399322     -12.983472      34.556215      594.14984     -113.6106      -6.3315222      0.0058565487   140246.18      0            
     83200   302.90779      495.7968      -1.8898296     -13.18095       33.538093      596.18325     -112.34458     -6.5091811      0.0059105536   138964.75      0            
     83300   299.77395      496.66658     -3.9661747     -14.339561      27.663401      606.92212     -113.48538     -6.127821       0.0059986393   136924.15      0            
     83400   302.67739      494.92673     -0.090605736   -14.293164      34.520077      587.13293     -106.63779     -5.7047206      0.0061023221   134597.72      0            
     83500   268.94543      489.23259     -3.6582002     -15.713724      31.708155      595.04989     -112.26832     -5.8852028      0.0061158161   134300.74      0            
     83600   266.92232      483.42541     -0.68403881    -15.022199      29.247184      599.57254     -122.48571     -7.2023614      0.0061650168   133228.93      0            
     83700   288.58619      489.62907     -0.51185442    -14.240308      28.289899      585.79658     -104.48825     -5.2169961      0.0062280868   131879.76      0            
     83800   290.29615      497.5463      -2.7894298     -13.863704      31.298123      603.80956     -115.29824     -5.6100208      0.0062569005   131272.44      0            
     83900   311.44973      495.67528     -1.4366213     -13.67362       30.036786      595.87424     -110.13356     -4.9919465      0.0062743091   130908.22      0            
     84000   278.64572      498.35141     -2.665331      -15.131225      34.093943      594.97412     -107.43886     -5.4812308      0.0062532121   131349.87      0            
     84100   271.37878      491.83393     -0.61849564    -16.591234      27.080184      611.80448     -123.68308     -6.1579148      0.0062666692   131067.81      0            
     84200   231.84308      493.00572      0.071988838   -16.311974      23.524354      596.49721     -105.57279     -5.2030686      0.0062932285   130514.67      0            
     84300   311.1091       483.38432     -1.2601905     -16.041963      32.406791      585.60562     -111.84725     -5.478695       0.006301545    130342.42      0            
     84400   338.03537      490.38208     -4.9921065     -15.776741      27.827241      605.00733     -115.64773     -6.0359095      0.0063055138   130260.38      0            
     84500   321.6482       494.80191      0.43401811    -14.759338      21.419797      601.72532     -109.81798     -4.1999094      0.0063335555   129683.65      0            
     84600   296.19201      493.75973     -1.9918685     -15.433557      33.435493      593.67515     -109.86767     -6.0578089      0.0063344178   129666         0            
     84700   299.79179      484.31938     -2.8911734     -14.597765      29.410695      592.00521     -113.62624     -5.9813449      0.0063093546   130181.08      0            
     84800   256.36177      481.66142     -2.4267427     -14.373074      20.54334       585.92378     -103.44489     -4.560988       0.0062699243   130999.77      0            
     84900   240.19988      484.14553     -2.7660047     -14.213523      25.995749      588.26104     -107.31945     -5.8122836      0.006229193    131856.34      0            
     85000   270.00872      495.10351     -3.8563232     -13.641976      31.532144      598.85004     -112.36608     -5.4143009      0.006180314    132899.17      0            
     85100   268.64281      503.58344     -2.6346427     -12.67816       31.407665      600.68262     -108.27854     -4.915511       0.0060781968   135131.95      0            
     85200   311.17485      500.55718     -2.3613094     -12.989037      33.276314      608.59612     -119.48659     -6.4783068      0.0060078498   136714.24      0            
     85300   322.93545      500.01835     -5.1036067     -12.5982        34.689888      590.43283     -103.46127     -3.9412838      0.0059466113   138122.13      0            
     85400   265.12907      501.60525     -4.1200746     -13.16615       32.096292      599.73205     -106.62274     -6.3141248      0.0058554265   140273.06      0            
     85500   277.68187      488.43346     -2.806913      -14.137727      31.105156      593.94588     -113.87961     -5.7933264      0.00570325     144015.89      0            
     85600   268.53905      493.60203     -2.3742316     -14.139999      29.331577      589.13851     -103.20601     -5.1478102      0.0055170295   148876.96      0            
     85700   321.73172      491.03423     -0.70496607    -14.66766       33.91455       589.7723      -111.89255     -5.3874387      0.0053419949   153755.04      0            
     85800   285.7738       499.70904     -3.2000243     -14.957384      29.757256      604.74495     -110.6531      -5.9826526      0.0051229909   160327.95      0            
     85900   280.00126      500.34034      0.95719972    -14.304942      33.97509       605.26862     -118.4203      -7.135326       0.0049030666   167519.37      0            
     86000   264.07666      501.80168     -2.9076737     -14.601405      32.361667      604.11902     -110.31218     -6.8577426      0.0046808148   175473.42      0            
     86100   279.97268      498.62614     -2.4523995     -14.210704      36.190014      611.36905     -126.43205     -5.8377751      0.0044770267   183460.74      0            
     86200   334.84298      491.39461     -1.9900636     -15.128584      31.50219       589.24502     -106.26039     -5.973563       0.0042779052   192000.19      0            
     86300   283.45076      508.39446     -4.414339      -14.002692      46.510093      608.25916     -121.69841     -6.2593543      0.0040862229   201006.81      0            
     86400   324.97554      491.53847     -2.9100063     -16.163982      24.534658      604.94996     -112.8076      -6.0645533      0.0039332296   208825.49      0            
     86500   246.87363      495.92629     -3.3899892     -16.137816      42.43809       584.45806     -106.26652     -5.1755303      0.0038003199   216128.81      0            
     86600   246.36511      496.14122     -2.462134      -15.166632      34.564807      602.05615     -116.31107     -6.5398972      0.0037024933   221839.32      0            
     86700   278.70355      498.6335      -2.6611582     -15.836209      35.841868      600.04004     -114.38887     -4.3621642      0.0036114928   227429.12      0            
     86800   293.32282      501.99914     -1.7150807     -14.625571      33.016218      599.03092     -108.16792     -5.5394228      0.0035309369   232617.75      0            
     86900   299.52134      497.57477     -2.6495061     -15.792893      35.203889      606.30063     -119.36407     -6.1232786      0.0034550439   237727.4       0            
     87000   246.96115      504.15439      0.77547907    -15.097999      29.215855      612.5565      -116.15936     -7.1360772      0.0033799378   243009.98      0            
     87100   288.69547      492.26733     -3.0771876     -15.220351      33.524789      607.091       -122.92232     -7.1285945      0.0032932222   249408.81      0            
     87200   293.84704      498.01625     -3.8670324     -13.091735      36.095689      596.82092     -111.61138     -6.3302114      0.0032207957   255017.3       0            
     87300   308.82601      506.43246     -1.957142      -12.539764      28.002757      605.52582     -107.2988      -5.3004044      0.0031687723   259204.05      0            
     87400   311.85267      502.49176     -2.0008467     -14.489348      35.460623      607.67269     -118.55121     -5.6001583      0.0031118912   263941.94      0            
     87500   307.10785      489.55571     -2.5754776     -14.2858        31.791384      587.4372      -107.16562     -5.6459655      0.0030851345   266231.06      0            
     87600   279.49903      492.13106     -4.2950293     -13.363721      28.923653      594.16193     -108.73381     -4.5619687      0.0030574129   268644.97      0            
     87700   288.09055      493.43113     -4.431426      -14.240965      33.41353       603.9123      -118.55698     -6.6653281      0.0030519074   269129.6       0            
     87800   279.6189       501.50322     -2.3294566     -13.186758      26.212347      608.33713     -111.76618     -5.7638558      0.0030379617   270365.03      0            
     87900   315.1636       499.86376     -2.285751      -14.301831      36.791391      599.09628     -114.42877     -5.0075605      0.0030196426   272005.24      0            
     88000   341.97592      498.11854     -3.2525307     -14.251         36.807864      600.80781     -115.78697     -6.2066308      0.0030038681   273433.64      0            
     88100   343.29657      494.11175     -2.2167688     -14.112824      29.331805      598.48292     -112.36634     -5.007044       0.0029759901   275995.08      0            
     88200   320.90061      484.58259     -3.181941      -14.166384      22.584163      600.14021     -114.55934     -6.2341175      0.0029341588   279929.84      0            
     88300   257.3128       494.9298      -2.5046792     -13.359357      33.105264      595.10356     -111.49535     -5.9196359      0.0029045736   282781.13      0            
     88400   258.76429      502.57457     -3.0523716     -13.315731      23.973632      608.41081     -110.06714     -3.3746246      0.0028864012   284561.49      0            
     88500   342.38137      495.57514     -3.1744407     -12.99081       32.7583        603.13361     -118.4435      -5.7080209      0.0028720617   285982.23      0            
     88600   334.58428      495.85352     -0.85588729    -13.40891       29.28854       592.09769     -105.58204     -5.6858757      0.002882407    284955.8       0            
     88700   318.54406      492.09426     -4.8275698     -14.835449      27.699099      592.41551     -104.36346     -3.9938629      0.0028863735   284564.22      0            
     88800   298.62874      492.67117     -2.0017402     -13.412661      30.053996      602.08846     -117.69727     -6.3596154      0.0028937027   283843.47      0            
     88900   274.52213      494.25053     -2.3435845     -14.742324      28.86062       602.88055     -114.48824     -5.9164952      0.0029087429   282375.8       0            
     89000   291.8579       504.61421     -2.198558      -15.208851      35.418547      608.65154     -115.81101     -6.2374614      0.0029304359   280285.47      0            
     89100   328.32218      508.53892     -3.2947674     -14.481885      47.955964      584.36444     -100.09011     -5.9147178      0.002962674    277235.57      0            
     89200   291.657        506.41362     -1.3422435     -14.259259      37.900023      600.66959     -111.47242     -5.0820699      0.0029755435   276036.5       0            
     89300   283.59637      494.04265     -2.8157919     -14.94636       28.783978      600.98079     -111.86181     -6.0981634      0.0029795044   275669.54      0            
     89400   320.86039      481.23785     -1.2001096     -15.152467      26.889552      588.66817     -111.54923     -6.4180659      0.0029925286   274469.76      0            
     89500   293.16857      493.17008     -1.1996977     -15.224402      35.901297      602.2216      -122.64521     -5.8835066      0.0030208744   271894.32      0            
     89600   309.522        503.64092     -2.5549991     -13.570263      34.353441      616.98768     -125.1946      -6.3803403      0.0030444131   269792.1       0            
     89700   315.79747      503.82445     -0.71210501    -13.095736      39.495745      586.30315     -101.84363     -6.3229745      0.0030986561   265069.31      0            
     89800   310.41873      500.5306      -3.6920355     -13.071955      36.338894      604.18915     -115.5846      -7.6488466      0.0031656386   259460.64      0            
     89900   321.80024      492.39311     -1.8060533     -14.360997      31.890135      608.33736     -123.61217     -8.0551752      0.0032426319   253299.98      0            
     90000   260.68354      503.24456     -2.0916856     -13.907954      44.073877      601.59227     -120.10554     -6.3163994      0.0033281873   246788.58      0            
     90100   307.47608      491.37071     -1.2603829     -14.836205      29.759335      596.40503     -112.24553     -6.4515377      0.0034587972   237469.43      0            
     90200   312.43636      492.07766      0.048050216   -15.314823      31.672043      591.33394     -110.86206     -4.7994891      0.0036190778   226952.46      0            
     90300   345.57278      499.75669     -0.12406175    -14.445157      33.367371      602.15907     -115.51923     -5.6813012      0.0037574541   218594.45      0            
     90400   312.48441      510.9094      -0.43957521    -15.064469      41.603799      612.23473     -120.79824     -6.6268463      0.0038921162   211031.37      0            
     90500   304.07188      497.02926     -4.2522946     -15.317095      35.849773      606.08162     -119.04016     -6.2925856      0.0040235822   204136.16      0            
     90600   307.26156      488.88812      0.16611393    -14.418783      27.390255      595.57668     -113.14653     -6.6796207      0.0041898724   196034.28      0            
     90700   283.76143      489.9458      -2.069871      -16.558423      28.093218      608.00629     -121.24946     -6.2759534      0.0043336178   189531.85      0            
     90800   295.88614      496.23044     -2.19312       -15.363523      24.333687      602.32359     -106.47728     -6.3929131      0.0044716351   183681.94      0            
     90900   383.48462      490.78572     -2.1318972     -17.055102      29.284049      604.64437     -117.17777     -6.7779324      0.0046319769   177323.56      0            
     91000   271.83601      512.09222     -2.5812563     -15.135154      36.225918      628.1504      -127.42633     -7.141354       0.004782247    171751.61      0            
     91100   312.3338       495.85958     -1.5564842     -15.235106      32.259122      601.27407     -114.81071     -6.0713188      0.0049385582   166315.46      0            
     91200   290.98096      494.53629     -3.0596077     -14.947452      39.508284      584.53223     -106.07975     -5.4174182      0.0050470309   162740.95      0            
     91300   278.39395      494.81548     -1.6760462     -15.341653      25.700467      611.36381     -118.3912      -6.8398914      0.0051478384   159554.08      0            
     91400   314.82428      492.27279     -2.0033537     -14.567981      31.390499      610.41429     -126.62874     -6.3319198      0.0052445095   156613.05      0            
     91500   386.41529      494.17207     -1.7134155     -14.72283       36.463244      596.06215     -113.83746     -8.0796191      0.0053129361   154595.99      0            
     91600   330.04595      500.96603     -3.5564982     -15.312015      30.081573      618.018       -122.2095      -6.055525       0.0053365495   153911.92      0            
     91700   293.3639       495.92965     -2.6260607     -15.982722      37.694522      605.95168     -121.51174     -7.596025       0.0053750256   152810.18      0            
     91800   304.18203      492.17414     -3.245542      -13.133562      28.89954       592.16735     -106.80841     -5.705238       0.0054432926   150893.71      0            
     91900   272.89246      499.31231     -2.2525545     -13.75048       25.226086      606.9404      -111.06866     -5.7824805      0.0054835215   149786.7       0            
     92000   314.04854      498.38062     -2.6445615     -14.91503       36.108308      589.81223     -103.5907      -6.3896263      0.0055221926   148737.77      0            
     92100   337.45221      505.90957     -3.4639702     -13.895518      40.269231      606.87648     -117.50579     -6.3708627      0.0055496442   148002.03      0            
     92200   316.56118      503.89648     -1.7242142     -15.155085      25.959679      615.00648     -113.18624     -7.0041311      0.0056155508   146265.01      0            
     92300   294.74394      492.05391     -0.66992195    -14.887985      31.741606      601.01883     -118.79591     -6.3527147      0.005617413    146216.52      0            
     92400   311.10339      486.00064     -1.9305344     -15.119378      28.54932       597.926       -117.11019     -6.3145735      0.0056443659   145518.32      0            
     92500   306.1732       490.31403     -1.9084441     -14.818803      28.945443      589.24239     -106.29921     -4.8473436      0.0056505313   145359.54      0            
     92600   298.708        502.7832      -3.7139687     -13.85693       39.23092       611.5503      -123.73457     -6.6925461      0.0056189881   146175.54      0            
     92700   344.25854      498.51745     -2.6577606     -17.005924      27.963962      614.09447     -117.55761     -6.3196917      0.0055901027   146930.86      0            
     92800   299.1397       504.103       -3.337807      -15.25547       34.148195      612.11841     -117.14979     -6.4205344      0.0055567241   147813.46      0            
     92900   263.98975      493.31801     -3.5274437     -17.635602      32.410302      604.49485     -116.3285      -6.0955952      0.0055556982   147840.75      0            
     93000   266.17155      493.45277     -2.7725731     -15.029251      37.550358      599.96585     -119.71775     -6.5438641      0.0055151475   148927.77      0            
     93100   299.55056      494.61973     -4.9897193     -15.07092       31.086965      588.0432      -100.16083     -4.2889646      0.005494391    149490.38      0            
     93200   348.4746       493.46545     -3.9692565     -14.273877      39.795444      594.95311     -117.3815      -5.6584734      0.0054865356   149704.42      0            
     93300   292.88692      499.17731     -0.48242134    -15.142869      37.116012      606.55505     -122.89858     -5.9698722      0.005479728    149890.4       0            
     93400   265.43992      486.53487     -3.2790193     -14.923828      29.084582      585.37017     -105.49154     -4.2254999      0.0054272188   151340.61      0            
     93500   259.93378      490.60861     -3.0487393     -14.127594      30.233134      588.53365     -105.57952     -5.4023243      0.0053729806   152868.34      0            
     93600   308.67836      492.01469     -2.9709776     -14.984523      36.741252      594.99859     -116.67651     -5.0931384      0.0053304273   154088.7       0            
     93700   280.90232      501.87492     -2.2611374     -15.02971       31.271989      612.64855     -117.99597     -6.7587918      0.0052705133   155840.34      0            
     93800   302.13851      497.53012     -4.2289277     -14.649386      35.9981        604.42344     -117.92774     -6.0853674      0.0051840967   158438.14      0            
     93900   268.48606      495.91842     -3.070937      -13.925957      32.62532       594.58813     -109.16531     -5.1328337      0.0050926601   161282.83      0            
     94000   275.84014      482.1748      -5.2508038     -13.478098      22.005805      598.05345     -113.99738     -5.1581631      0.0050381683   163027.23      0            
     94100   265.70958      488.41652     -3.3190219     -15.392422      34.902861      589.03758     -110.77091     -6.0415728      0.0049617029   165539.66      0            
     94200   275.18508      498.39131     -1.6768605     -14.120748      35.635589      586.65071     -103.50762     -4.5897627      0.0048546885   169188.73      0            
     94300   307.04901      494.24465     -3.7337638     -14.414992      26.955176      612.60897     -120.31776     -6.8529876      0.0047641152   172405.28      0            
     94400   326.61713      490.82675     -2.6138381     -14.928406      31.605608      600.35603     -117.26048     -6.332163       0.0047045278   174588.96      0            
     94500   265.41388      501.08516     -0.73107269    -14.001723      30.957157      600.88184     -109.60645     -6.4145962      0.0046250703   177588.35      0            
     94600   271.99536      492.07227     -3.1881458     -13.393338      28.865066      602.82424     -117.89341     -5.1421418      0.0044983414   182591.43      0            
     94700   268.24438      489.2005      -3.2190459     -14.357812      29.247116      606.14761     -121.16213     -7.4552326      0.0043849793   187311.86      0            
     94800   333.26893      485.5336      -2.1708843     -14.223838      26.714748      600.24414     -118.38543     -6.6451351      0.0043060164   190746.75      0            
     94900   316.63478      498.39237     -4.5301311     -16.675293      40.312958      599.44616     -114.90967     -5.2516497      0.0041959303   195751.25      0            
     95000   327.21377      494.28872     -1.1431992     -15.335063      33.368402      592.54385     -110.04953     -5.0957377      0.0041073365   199973.54      0            
     95100   259.31001      500.6481      -3.2962134     -15.37665       30.306534      588.43592     -94.897432     -4.5240599      0.0040215689   204238.36      0            
     95200   287.1312       490.09459     -1.8397097     -14.411948      34.822466      584.77763     -108.12338     -5.1304751      0.0039503556   207920.17      0            
     95300   250.01131      485.60116     -3.0463421     -15.04171       29.155364      596.72431     -116.98383     -5.2066359      0.0038517153   213244.89      0            
     95400   250.48913      483.95021     -3.3754099     -15.586033      28.309711      598.48488     -117.35848     -6.5244645      0.0037663952   218075.53      0            
     95500   286.10779      491.33234     -3.7065997     -14.576693      31.500602      594.37896     -110.18678     -6.0771531      0.0036899848   222591.32      0            
     95600   308.4175       493.17228      2.9633791     -14.904067      29.488719      600.26797     -118.97853     -5.6651863      0.0036128493   227343.73      0            
     95700   326.68581      495.60647     -2.1513299     -13.590861      35.15666       598.39993     -116.55645     -5.6514758      0.0035255082   232975.95      0            
     95800   304.68672      501.29256     -4.3671927     -14.519122      31.855318      599.12704     -106.73599     -4.0674902      0.0034288001   239546.95      0            
     95900   296.1153       493.58912     -2.7388012     -15.127357      29.149617      607.56854     -118.70035     -6.5625357      0.0033682585   243852.6       0            
     96000   280.79929      487.29077     -3.0018536     -14.000252      31.250869      593.1633      -115.33467     -4.78663        0.0033109509   248073.33      0            
     96100   280.97206      489.60639     -3.5186701     -14.663223      32.887949      590.4813      -110.2588      -5.3221666      0.0032630499   251715         0            
     96200   301.04362      502.39388     -0.68251537    -13.293448      41.822459      577.08715     -97.232931     -5.3068298      0.0032354147   253865.02      0            
     96300   347.8127       492.58104     -2.19686       -14.436861      31.045122      592.99692     -109.84136     -4.9859184      0.0031875586   257676.39      0            
     96400   316.57098      493.04115     -0.007574872   -15.876364      31.427086      625.33074     -141.35201     -6.4807262      0.0031275716   262618.64      0            
     96500   305.15175      488.82747     -3.9685795     -15.596955      26.682812      596.27569     -108.12197     -6.4435347      0.0030812503   266566.66      0            
     96600   264.40505      492.23223     -4.1039649     -14.150501      32.105237      590.36298     -107.24861     -4.7329023      0.0030428373   269931.82      0            
     96700   261.947        485.76346     -2.8371023     -14.311845      29.030163      589.70419     -110.31264     -5.5093147      0.0029963966   274115.45      0            
     96800   306.92301      482.55091     -1.7648353     -16.979605      28.783356      600.66885     -122.3031      -5.8537631      0.0029554839   277910.02      0            
     96900   273.50297      504.95651      0.82563647    -16.161511      33.827188      609.65808     -118.21487     -4.9780121      0.0029179485   281484.96      0            
     97000   333.89855      497.87404     -4.0583522     -14.819742      27.820917      607.87316     -112.63151     -6.3104348      0.002904537    282784.69      0            
     97100   306.36246      498.31978      0.19515583    -15.261655      30.444077      589.94708     -102.85338     -4.1514901      0.0029029658   282937.75      0            
     97200   284.7316       490.91382     -1.2372548     -14.976983      25.175696      601.59682     -114.4583      -5.1861544      0.0028945227   283763.05      0            
     97300   254.54603      492.06957     -0.40988042    -15.439198      31.799284      594.317       -111.58107     -6.6165682      0.0028978703   283435.26      0            
     97400   298.38115      486.80531     -1.1313579     -16.273748      27.012649      601.29903     -118.33463     -5.7666277      0.0028961356   283605.02      0            
     97500   278.66667      496.69213     -3.6350611     -14.749005      25.845597      616.97505     -120.69637     -7.0480829      0.0029007482   283154.06      0            
     97600   294.10823      498.63494      3.0976788     -15.176541      28.4313        595.55165     -108.17527     -5.0938806      0.002911819    282077.49      0            
     97700   306.38742      499.67003     -4.0410537     -15.346494      32.83142       605.01913     -112.03626     -6.7567141      0.0029064251   282600.99      0            
     97800   319.62831      496.39065     -0.17565658    -14.930677      30.180145      614.52872     -125.0749      -8.136978       0.0029078797   282459.63      0            
     97900   286.12861      491.61918     -1.7401066     -14.47437       29.34217       596.78513     -112.68029     -5.6133597      0.0029134731   281917.35      0            
     98000   295.45916      487.17269     -2.8692289     -10.549028      24.857589      593.41767     -111.97775     -5.7065661      0.0029226088   281036.11      0            
     98100   298.02527      495.21854     -1.3989987     -11.353189      28.550707      597.70683     -111.08128     -7.2055319      0.0029516116   278274.63      0            
     98200   331.76834      496.58851     -2.6322572     -13.272937      33.856015      596.88482     -111.32746     -6.9196678      0.0029755061   276039.97      0            
     98300   353.44123      490.02845     -0.31245174    -13.52121       27.011001      613.20882     -130.31357     -6.0441342      0.003018903    272071.88      0            
     98400   293.20975      497.49642     -3.0929725     -14.671693      37.473561      598.69727     -113.64242     -7.2673225      0.0030507278   269233.66      0            
     98500   298.04955      483.43415     -2.4545767     -17.346341      31.51478       578.26396     -102.68816     -3.8555195      0.0031028646   264709.78      0            
     98600   257.81615      483.60979     -0.41452902    -13.478394      23.83275       605.02161     -123.9759      -7.3757529      0.0031813715   258177.52      0            
     98700   249.73086      491.40068     -2.607848      -11.980104      23.505987      610.24826     -119.79809     -7.9675198      0.0032453739   253085.97      0            
     98800   254.98126      498.67886     -1.0007035     -13.527395      31.494838      611.64027     -122.77506     -7.1530894      0.003324032    247097.09      0            
     98900   275.29043      499.70295     -4.3016464     -14.961403      30.598576      613.58425     -119.43076     -5.7860651      0.0034173079   240352.53      0            
     99000   309.95692      502.48878     -3.2011224     -11.738556      35.402148      608.6281      -120.23135     -6.3704446      0.0035443306   231738.71      0            
     99100   348.54628      495.93781     -1.9694313     -13.323282      27.364148      599.885       -108.85447     -7.1641556      0.003696741    222184.51      0            
     99200   326.76951      491.61906     -3.7410276     -11.065518      33.02571       608.93597     -128.3614      -7.1746724      0.0038485849   213418.34      0            
     99300   259.08304      492.18051     -2.7958305     -14.262874      34.310422      596.97003     -115.87037     -6.1708572      0.0040169504   204473.18      0            
     99400   254.95907      499.63056     -2.7593127     -12.499593      30.804204      597.91085     -109.61872     -4.2068737      0.0041984107   195635.6       0            
     99500   294.21281      500.14063      2.043645      -13.032003      37.146473      602.52625     -122.64109     -5.9026454      0.0043787731   187577.34      0            
     99600   317.84575      503.20901     -4.2484488     -9.9667431      31.701656      600.24121     -108.97029     -5.548364       0.0045173577   181822.8       0            
     99700   307.18141      501.25509     -3.0622109     -9.2058795      31.010906      612.45742     -123.71071     -6.2344344      0.0046729593   175768.41      0            
     99800   310.48912      494.78885     -5.1332991     -11.414468      31.366367      602.1419      -115.64327     -6.5283777      0.0048074295   170851.93      0            
     99900   286.13388      493.65293     -3.6854408     -14.128418      30.507113      607.86249     -119.22931     -7.6735027      0.0049508155   165903.7       0            
    100000   281.58374      496.14695     -4.7194881     -10.932278      26.619121      605.28316     -113.47638     -6.6271843      0.0050577105   162397.32      0            
    100100   284.56163      497.50875     -4.3631978     -12.928881      32.409453      609.54131     -120.56947     -6.5804676      0.0051422002   159729.02      0            
    100200   308.36984      499.37396      1.7064805     -15.265165      35.746691      599.21157     -115.94249     -6.0831359      0.0052542346   156323.17      0            
    100300   322.03505      494.43739     -6.0037646     -17.848562      33.639777      595.25699     -104.88437     -5.7226792      0.0052796771   155569.86      0            
    100400   302.80191      484.71956     -7.1735117     -15.678826      32.333078      596.31607     -115.0035      -6.0737574      0.0053104252   154669.09      0            
    100500   285.06102      482.45694     -6.1376928     -16.873911      29.319234      599.33601     -117.56524     -5.6214589      0.0053519957   153467.73      0            
    100600   304.96831      480.56771     -5.8119051     -18.318128      28.551904      601.63237     -118.77534     -6.711189       0.0054301617   151258.59      0            
    100700   333.12348      484.49639     -0.314634      -18.055611      35.263063      589.00147     -114.9597      -6.4381989      0.0055029848   149256.93      0            
    100800   332.99387      494.25086     -5.0093448     -16.146263      31.761604      605.53495     -115.74764     -6.1424498      0.0055270318   148607.54      0            
    100900   310.91121      486.56999     -4.5296009     -17.524538      28.399909      594.31994     -108.73125     -5.3644722      0.0055606933   147707.95      0            
    101000   278.20038      483.6385      -6.8359036     -13.976487      27.584371      589.4992      -106.10209     -6.5305869      0.0056152747   146272.2       0            
    101100   273.50807      484.43318     -4.7701735     -17.692415      28.476409      608.34114     -123.01154     -6.9102439      0.0056895782   144361.95      0            
    101200   325.50066      489.05488     -3.7322769     -14.704206      23.512391      615.11111     -124.76653     -6.3656188      0.0057583426   142638.02      0            
    101300   364.34556      488.0989      -5.9123525     -11.475942      25.366085      606.34556     -119.01443     -7.2100289      0.0058415307   140606.74      0            
    101400   305.69505      491.71331     -6.2841348     -13.736563      33.927707      597.27143     -113.32932     -6.1358217      0.0059101005   138975.4       0            
    101500   289.50871      486.76857     -5.817527      -12.921843      28.343737      593.85122     -110.19228     -6.4947413      0.0060089656   136688.85      0            
    101600   277.75321      485.81323     -3.7373552     -13.817205      26.923243      601.82156     -119.74352     -5.6335022      0.0060593419   135552.45      0            
    101700   288.49995      486.16203     -8.2211503     -13.75413       30.714364      599.45626     -114.44098     -7.592331       0.0060393825   136000.43      0            
    101800   293.9001       489.80211     -5.2553447     -12.219931      32.22396       593.47938     -113.51363     -4.9123236      0.0060797711   135096.96      0            
    101900   319.83033      489.84037     -8.3548322     -15.603278      29.278795      597.27996     -106.86472     -5.8955597      0.0061390595   133792.25      0            
    102000   321.38895      492.00539     -4.5572194     -15.195418      31.53267       605.84305     -120.16207     -5.4556196      0.0062172563   132109.5       0            
    102100   277.21236      487.48701     -5.4094785     -12.876378      27.474562      591.7399      -107.47835     -5.9632428      0.0062934901   130509.24      0            
    102200   272.18304      479.82333     -7.9973685     -15.14912       32.39508       582.52888     -107.45714     -4.496996       0.0063529574   129287.6       0            
    102300   268.17987      485.84118     -7.6352632     -16.400683      36.8116        588.24635     -108.69784     -6.4829869      0.0064319116   127700.54      0            
    102400   308.23163      486.14111     -9.2072907     -15.82787       30.397261      610.53727     -123.65245     -6.1058048      0.0065361066   125664.81      0            
    102500   293.81291      489.87979     -3.4559528     -17.336694      31.940898      611.1831      -125.68136     -6.7701952      0.0066102059   124256.13      0            
    102600   295.85214      484.49069     -6.8208182     -17.690887      39.199014      594.21764     -117.97676     -6.4375035      0.0066063432   124328.78      0            
    102700   242.12823      477.18791     -8.7516157     -15.670772      22.888101      589.79116     -106.44813     -4.6208355      0.0065806591   124814.03      0            
    102800   263.56721      476.86959     -7.186689      -15.832094      33.562589      574.37177     -103.56873     -4.4772554      0.0065653837   125104.43      0            
    102900   284.32089      485.081       -7.0595221     -17.673207      30.285545      604.40544     -118.9746      -5.9026499      0.0065646525   125118.37      0            
    103000   320.02364      489.71982     -4.7541243     -14.977528      38.689218      596.96557     -119.34366     -6.859651       0.0066233295   124009.93      0            
    103100   312.24062      493.0296      -3.6742645     -15.105395      32.71743       598.12966     -112.74504     -6.2927868      0.0066925405   122727.48      0            
    103200   301.40247      495.01087     -2.6422449     -15.242354      38.549673      591.23916     -111.00617     -5.887192       0.0068050244   120698.85      0            
    103300   283.55401      487.93206     -4.5287355     -13.334532      35.348559      599.10002     -122.23288     -6.4203656      0.0069399744   118351.82      0            
    103400   281.43295      481.79553     -4.3074747     -12.819569      29.271844      601.07947     -125.62664     -5.8020957      0.0071105879   115512.05      0            
    103500   296.99188      483.25516     -7.1993809     -14.239344      27.138858      584.40049     -101.37328     -5.4721848      0.0073871388   111187.65      0            
    103600   301.9963       489.88058     -6.680866      -14.006974      33.276233      594.60107     -111.26205     -6.0468329      0.0077526909   105944.97      0            
    103700   308.89399      492.10425     -9.5034192     -14.585831      33.817765      600.46189     -113.01733     -5.0688244      0.0081110027   101264.74      0            
    103800   319.69359      485.64188     -5.5643924     -16.985524      34.545359      608.75373     -127.73784     -7.369457       0.008536518    96217.054      0            
    103900   284.25187      490.80005     -10.231339     -13.508146      36.350877      602.66174     -118.38341     -6.0896625      0.008924955    92029.44       0            
    104000   264.30553      486.75332     -8.0986018     -13.094984      35.479053      592.27797     -113.53186     -6.2782537      0.0094132136   87255.92       0            
    104100   227.91292      488.58121     -7.9567287     -9.9576033      30.926748      578.72831     -99.460693     -3.698817       0.0099162305   82829.721      0            
    104200   235.61272      482.4957      -6.8777665     -12.246731      27.66008       605.45843     -125.14743     -6.3508843      0.010374155    79173.547      0            
    104300   280.91095      487.14404     -7.4909591     -16.144661      34.123187      604.09017     -120.70327     -6.7304284      0.01069419     76804.193      0            
    104400   288.00699      492.10034     -9.9264004     -15.376363      32.722097      601.91988     -111.25059     -5.9882805      0.011041935    74385.39       0            
    104500   326.9662       483.14669     -7.2668349     -13.733341      31.893038      598.11099     -120.28121     -5.5759525      0.011420041    71922.564      0            
    104600   288.18232      485.86539     -8.2236977     -13.251907      33.584659      585.96947     -105.57879     -6.6343457      0.011749706    69904.612      0            
    104700   274.89826      478.21559     -9.7254084     -16.242546      24.849665      596.96672     -111.56137     -6.0714675      0.012007928    68401.361      0            
    104800   282.24916      482.45231     -8.1580636     -13.633295      23.196397      599.64692     -113.15895     -5.4407046      0.01223714     67120.143      0            
    104900   313.13314      491.95099     -8.9370468     -13.000002      32.565809      604.94482     -117.77384     -5.8487478      0.012439015    66030.839      0            
    105000   305.0119       492.29231     -8.9350074     -16.451416      32.78857       601.78263     -110.49357     -6.3988898      0.012667851    64838.038      0            
    105100   302.53458      487.29102     -8.7782548     -15.241789      32.855765      591.12993     -108.45294     -4.2216903      0.012815087    64093.096      0            
    105200   270.34614      483.41813     -5.0700214     -16.465207      29.014286      596.7738      -115.45614     -5.3785858      0.013036958    63002.323      0            
    105300   293.88718      478.87024     -3.6699009     -16.245785      30.304524      587.38799     -113.43595     -5.4706409      0.013143668    62490.824      0            
    105400   304.13993      485.16451     -6.7756432     -16.381282      28.994043      602.07724     -116.85113     -5.8987201      0.013198707    62230.234      0            
    105500   316.40062      486.34559     -7.1480607     -17.65623       30.244121      601.53612     -115.37393     -5.256425       0.013267646    61906.884      0            
    105600   316.24095      485.50752     -7.0793332     -15.710609      31.994556      596.74735     -113.96631     -6.4781346      0.013302227    61745.949      0            
    105700   314.36144      483.13043     -6.977763      -14.160783      29.578095      602.22533     -121.41763     -6.1168209      0.013344176    61551.843      0            
    105800   277.31753      483.84403     -5.2317216     -20.340225      33.59706       596.83722     -115.11327     -5.9050384      0.013417863    61213.817      0            
    105900   326.91904      482.09137     -6.20569       -13.728153      33.740849      581.38472     -107.54536     -5.5549996      0.013575527    60502.892      0            
    106000   341.80374      487.28054     -8.8054399     -17.362939      32.130201      596.49891     -109.57696     -5.6032241      0.013655786    60147.297      0            
    106100   350.0575       487.29009     -5.986465      -12.018178      24.980255      611.08407     -124.62476     -6.1448242      0.013643747    60200.369      0            
    106200   275.75175      485.21043     -9.7363649     -14.247325      29.34162       605.90891     -120.52028     -5.5361236      0.01371166     59902.2        0            
    106300   290.88349      478.69535     -10.075662     -14.826531      30.228741      581.49608     -103.1994      -4.9278803      0.013723397    59850.968      0            
    106400   275.57214      486.65849     -6.606555      -16.01855       27.544063      587.40274     -100.51149     -5.151717       0.013676927    60054.325      0            
    106500   306.99245      485.29802     -9.5230136     -18.920487      35.615817      602.2985      -117.95939     -6.2133996      0.01355731     60584.187      0            
    106600   316.05054      487.29918     -8.3742668     -16.98536       34.738923      608.33116     -124.14803     -6.2632569      0.013391356    61334.985      0            
    106700   324.56864      472.40302     -9.3562155     -16.32179       28.685848      587.18882     -112.11346     -5.6801779      0.013279542    61851.425      0            
    106800   249.13661      480.50323     -7.1616948     -14.587812      25.365628      594.44701     -112.14701     -5.4128928      0.013161489    62406.207      0            
    106900   280.84655      485.89105     -8.9502852     -11.137983      37.140893      582.46008     -107.87532     -5.7463311      0.012869433    63822.441      0            
    107000   305.45167      486.34212     -5.2955114     -17.491704      31.489034      616.82748     -130.89096     -8.29621        0.012573737    65323.347      0            
    107100   299.37503      491.88673     -5.9747742     -15.085147      32.651192      598.92371     -113.67461     -4.9536369      0.012306944    66739.443      0            
    107200   283.91727      494.59957     -8.005532      -13.002818      33.401987      594.30742     -106.53148     -5.5700063      0.012024635    68306.325      0            
    107300   269.75213      488.62203     -5.6284332     -11.292682      24.617677      585.59201     -100.20442     -4.4621132      0.011674808    70353.07       0            
    107400   248.92843      484.69915     -6.2881679     -14.07156       33.57152       603.15385     -125.77329     -5.8931963      0.011227503    73155.95       0            
    107500   250.11416      494.1896      -6.3907625     -15.48823       37.373316      600.93677     -115.00039     -7.2411062      0.010867828    75577.071      0            
    107600   305.88278      493.31556     -5.3076125     -14.350575      35.648947      602.66516     -119.7903      -5.550059       0.010473843    78419.988      0            
    107700   306.83397      491.46699     -5.0392116     -15.321095      32.431438      604.01626     -118.52887     -6.0915319      0.010083228    81457.906      0            
    107800   310.87063      485.56216     -4.7422493     -14.514806      32.164253      585.25124     -108.13414     -4.462144       0.0096901563   84762.163      0            
    107900   307.13946      483.29927     -5.4903755     -13.679525      33.329193      579.77473     -105.40175     -5.2330006      0.0092508135   88787.717      0            
    108000   259.58363      483.80754     -5.6573877     -13.566426      30.801146      597.47739     -119.05467     -6.1925181      0.0088408508   92904.928      0            
    108100   253.04725      483.64625     -5.9770687     -14.025259      26.654431      604.43797     -120.69252     -6.7513114      0.0084487532   97216.547      0            
    108200   276.71662      493.14296     -5.2657461     -15.310756      31.386372      595.94511     -106.817       -6.7950158      0.008093637    101482.02      0            
    108300   323.29565      489.72075     -4.9274166     -13.843027      31.442789      606.33909     -122.47078     -6.819903       0.0078519835   104605.24      0            
    108400   330.19153      489.84829     -4.841605      -12.262802      31.985837      578.02541     -98.701626     -4.3569174      0.0076123022   107898.84      0            
    108500   292.14107      491.40994     -8.6262598     -13.85995       41.962975      582.21836     -104.559       -5.7261798      0.0073955829   111060.7       0            
    108600   284.08641      480.89702     -5.6785854     -15.596434      26.977033      597.03288     -116.07254     -5.7653418      0.0072766734   112875.56      0            
    108700   251.59421      485.85833     -6.2548385     -14.579461      29.862197      600.53668     -117.87739     -5.8288603      0.0071753619   114469.29      0            
    108800   316.38066      487.6484      -4.8624594     -14.063426      30.930126      596.30286     -114.62908     -6.0296158      0.0071307566   115185.34      0            
    108900   351.71176      487.66213     -6.7937507     -12.490215      28.57706       605.68341     -121.76835     -5.5460168      0.0070627956   116293.7       0            
    109000   291.37377      496.77872     -6.1475291     -13.608761      33.452923      603.38473     -113.56009     -6.7425583      0.0069656861   117914.96      0            
    109100   310.5578       484.59325     -6.547201      -12.252514      25.584608      595.66492     -112.35426     -5.5023004      0.006895919    119107.93      0            
    109200   284.23292      485.13506     -7.3859789     -12.38034       28.145582      598.8126      -115.49682     -6.5599706      0.0068015691   120760.17      0            
    109300   298.94167      489.96491     -7.8877589     -9.9285969      34.719799      588.04151     -108.1848      -6.7952457      0.006722774    122175.55      0            
    109400   340.49239      496.95099     -9.2174061     -9.1371961      39.770491      605.91611     -123.52634     -6.8546675      0.006687103    122827.27      0            
    109500   316.89944      507.44552     -8.8659236     -3.3149279      36.421774      598.93403     -110.82448     -4.9049588      0.0066103664   124253.11      0            
    109600   311.64364      492.28296     -5.0965309     -8.2458049      28.744737      590.57668     -108.33757     -5.3585505      0.0065301046   125780.31      0            
    109700   279.90982      489.25137     -5.940769      -12.261681      31.976346      586.13769     -105.43899     -5.2212209      0.0064138418   128060.32      0            
    109800   275.44385      490.92534     -5.1437663     -14.422459      32.80145       595.99474     -111.86689     -6.4377442      0.0063316081   129723.54      0            
    109900   265.81942      491.43477     -6.0855732     -19.278447      35.368757      606.29033     -117.83558     -7.0247169      0.0062625388   131154.25      0            
    110000   276.89343      492.73526     -3.938012      -17.74222       31.449608      605.12241     -116.23075     -5.9257775      0.0061950943   132582.1       0            
    110100   319.89645      486.01773     -7.2267766     -16.658543      40.846619      585.92957     -110.83408     -6.0390656      0.0061185606   134240.5       0            
    110200   303.0446       490.09663     -2.9980805     -22.148188      33.747284      588.23714     -101.14328     -5.5982514      0.0060734756   135237         0            
    110300   332.97435      494.33476     -6.0208982     -16.006701      38.704195      603.56313     -119.14125     -6.763714       0.0060118339   136623.64      0            
    110400   301.42987      492.77903     -1.4166242     -18.393047      31.240397      604.66187     -116.83854     -6.4750191      0.0059752132   137460.97      0            
    110500   260.73152      493.05699     -5.8137057     -14.542265      33.576752      589.81217     -105.18613     -4.7898294      0.0058989045   139239.18      0            
    110600   279.62441      487.41976     -5.9614465     -15.297684      36.228547      581.75759     -104.06762     -5.2396208      0.0058362793   140733.26      0            
    110700   301.8545       495.83713     -4.1739829     -14.636073      34.720285      598.46712     -112.05855     -6.4816716      0.005782976    142030.44      0            
    110800   320.38255      502.75628     -3.8510358     -13.407974      41.361275      595.76062     -111.15662     -5.9499843      0.0057512745   142813.32      0            
    110900   326.57202      499.70637     -3.0702788     -11.464827      33.393387      599.41435     -113.32809     -5.2381712      0.0057052032   143966.58      0            
    111000   301.42845      491.04401     -4.1723025     -17.260299      39.91007       592.67535     -114.80076     -5.3080466      0.0056195049   146162.1       0            
    111100   289.12018      481.8127      -5.9830221     -25.385284      27.873169      594.85461     -103.28091     -6.2658672      0.0055407401   148239.87      0            
    111200   263.42246      488.53026     -3.9875378     -20.26473       38.257695      601.89487     -120.89638     -6.4736532      0.0054616237   150387.26      0            
    111300   255.98539      488.31263     -5.6664073     -18.879643      32.229848      597.57729     -111.11556     -5.8328939      0.0054111042   151791.31      0            
    111400   283.60892      483.77076     -6.1815099     -21.584255      35.912029      602.3983      -119.9998      -6.774004       0.0053397875   153818.6       0            
    111500   310.90099      487.15376     -4.8764086     -25.520889      39.840333      598.97527     -115.8329      -5.4316511      0.0052848442   155417.75      0            
    111600   325.47991      492.89399     -6.0996267     -19.417447      37.242722      593.04538     -105.92378     -5.9532567      0.0052466266   156549.85      0            
    111700   281.66249      496.22667     -4.4888621     -13.750275      38.817977      598.58303     -116.38536     -6.5498457      0.0051994878   157969.14      0            
    111800   276.28581      484.73531     -7.6594674     -16.697892      33.034172      587.07861     -105.04427     -5.9758413      0.0051321246   160042.61      0            
    111900   285.86877      489.08698     -5.6670013     -12.902076      34.387441      584.98385     -106.27562     -5.4396106      0.0050689198   162038.19      0            
    112000   310.42869      489.06754     -8.5301847     -13.34296       27.028671      602.56958     -111.87179     -6.7857722      0.0050056567   164086.08      0            
    112100   334.86077      488.09373     -6.6049007     -12.737986      31.992146      599.80973     -117.69257     -6.672692       0.0049152846   167102.96      0            
    112200   302.29195      495.30734     -7.7775328     -14.34756       33.915254      595.20983     -107.52179     -4.1708608      0.0048158902   170551.77      0            
    112300   304.07404      498.68976     -7.3023473     -10.811371      36.050544      603.49926     -115.61356     -7.1327669      0.004700952    174721.76      0            
    112400   283.93395      494.70373     -6.753474      -13.85205       36.742221      590.03075     -105.87306     -5.5906569      0.0045921706   178860.65      0            
    112500   273.28097      492.36368     -9.3677885     -10.609085      30.038096      600.06442     -112.0682      -5.693755       0.004477401    183445.4       0            
    112600   272.21855      488.00212     -5.0976649     -12.755477      34.498618      585.00281     -108.41771     -5.2284512      0.0043546628   188615.89      0            
    112700   285.8615       497.78159     -7.0177171     -13.91867       39.784919      603.36807     -118.17648     -6.2585283      0.0042200467   194632.59      0            
    112800   326.83974      497.49395     -7.2917138     -13.653876      36.60477       595.08627     -107.73633     -5.5151642      0.0041072141   199979.5       0            
    112900   318.15184      491.1813      -8.6777935     -14.638567      33.77225       588.90807     -104.07701     -4.1056517      0.0039980891   205437.8       0            
    113000   258.72292      495.50029     -7.7488873     -14.939597      33.711239      593.01074     -103.21806     -5.3151398      0.0038812695   211621.12      0            
    113100   299.4236       484.16378     -10.018478     -15.686101      29.313401      608.96728     -121.80365     -6.6086687      0.0037616189   218352.42      0            
    113200   276.58006      492.2253      -10.13876      -14.990703      26.491361      606.9258      -111.19687     -4.8655279      0.0036629262   224235.65      0            
    113300   316.6639       483.73172     -7.8437663     -14.825865      32.646024      596.15435     -116.52314     -5.8758809      0.0035674759   230235.23      0            
    113400   287.27302      494.09009     -10.319295     -14.005895      45.059664      585.35947     -105.88798     -6.1158804      0.0034583155   237502.51      0            
    113500   306.7959       501.88261     -9.953941      -14.556991      39.953558      600.83488     -109.66984     -4.7250529      0.0033739979   243437.79      0            
    113600   325.72038      499.48027     -9.8537565     -13.657228      35.812911      611.74486     -119.31554     -5.2509795      0.0032896985   249675.95      0            
    113700   312.60465      489.44208     -7.2702414     -12.160759      35.102997      587.79526     -109.0553      -4.9698781      0.003206778    256132.04      0            
    113800   291.17054      484.86896     -9.9895827     -14.464516      23.512802      591.19733     -100.59651     -4.7905716      0.0031292932   262474.16      0            
    113900   299.17935      486.94772     -10.268119     -12.979832      33.922927      592.30264     -111.0591      -4.9707897      0.0030824025   266467.02      0            
    114000   296.87745      497.46609     -8.6998146     -14.232048      37.227319      606.71955     -117.81334     -5.7355783      0.0030539359   268950.84      0            
    114100   334.32645      501.72228     -8.4095029     -13.998635      38.386485      604.74927     -112.58107     -6.4242656      0.0030199819   271974.68      0            
    114200   321.90498      488.34545     -9.5085789     -16.417195      36.767994      592.26688     -109.56231     -5.2013424      0.0029716508   276398.09      0            
    114300   251.76259      492.22732     -11.281411     -15.193916      39.249021      596.33963     -111.01806     -5.8679411      0.0029290787   280415.34      0            
    114400   308.6705       481.62941     -7.616166      -13.929078      31.566972      594.94817     -117.29045     -6.05004        0.0028973853   283482.7       0            
    114500   287.47558      492.38603     -9.2270905     -15.405275      32.357042      589.14383     -99.142845     -5.3396281      0.002860719    287116.15      0            
    114600   332.06391      492.40585     -7.823318      -12.663999      32.516607      594.53781     -109.11723     -5.0440202      0.0028248253   290764.39      0            
    114700   376.55216      484.38059     -10.695314     -14.011474      32.335679      602.00765     -118.87909     -6.3768609      0.002815671    291709.72      0            
    114800   299.85391      488.40847     -7.4280406     -14.566406      26.70711       595.31736     -107.62356     -3.997996       0.002812953    291991.59      0            
    114900   291.54583      479.06226     -5.838778      -17.053604      26.852206      592.68243     -111.7927      -5.7872918      0.0028219596   291059.66      0            
    115000   286.667        483.13703     -8.1987438     -16.837026      25.477483      604.28313     -114.50673     -7.0810766      0.002827807    290457.8       0            
    115100   309.1389       488.71343     -9.115834      -17.574659      33.128538      608.53782     -119.69657     -6.5658671      0.0028643337   286753.81      0            
    115200   358.66093      482.88555     -9.4211404     -17.877681      26.18083       600.7474      -110.18765     -6.556214       0.0029090092   282349.96      0            
    115300   325.41346      487.49682     -7.6167773     -15.907752      34.86366       594.661       -114.16188     -4.3414355      0.0029461284   278792.54      0            
    115400   339.48968      479.52197     -8.9603448     -15.206884      29.586913      599.75021     -119.25267     -6.3952455      0.0029537706   278071.23      0            
    115500   267.20362      493.43893     -7.7478249     -16.472845      38.502699      598.6732      -113.51401     -6.0022956      0.0029907882   274629.48      0            
    115600   310.32014      481.79192     -10.609482     -16.905655      24.938107      600.51999     -109.98005     -6.1709871      0.0030497233   269322.34      0            
    115700   308.48325      485.11327     -11.846799     -17.592063      33.341404      595.04072     -106.90962     -6.9203686      0.0031084882   264230.89      0            
    115800   296.79026      495.90295     -9.0877051     -16.80011       31.338419      601.31947     -105.03456     -5.8325615      0.0032046659   256300.86      0            
    115900   292.64834      499.74123     -8.4420179     -15.440922      33.898314      608.59654     -113.3659      -5.5047888      0.0032843257   250084.39      0            
    116000   316.27614      482.49771     -7.5063879     -16.603036      23.222345      602.23958     -113.00725     -5.8475429      0.0033794403   243045.76      0            
    116100   290.06123      478.4222      -8.1956262     -14.280369      26.129715      591.69974     -112.02149     -4.9097717      0.0034770202   236224.86      0            
    116200   252.53536      489.48999     -9.2315813     -15.116447      28.124621      597.11953     -106.15649     -5.249639       0.0036208381   226842.13      0            
    116300   311.91892      486.12705     -10.676251     -13.310538      30.611676      594.41892     -109.15986     -5.7568918      0.0038152724   215281.77      0            
    116400   358.8799       483.81092     -10.046996     -13.391512      32.961927      598.37492     -117.36986     -6.7175622      0.0040635405   202128.81      0            
    116500   318.40001      492.84783     -11.345646     -10.696843      30.740066      602.10712     -112.29236     -5.6645008      0.0042849904   191682.72      0            
    116600   297.24994      488.32853     -11.95605      -14.785808      34.118378      595.8144      -108.18144     -6.6809553      0.0044865949   183069.48      0            
    116700   306.89386      480.2329      -11.687291     -15.924683      30.561395      594.23672     -110.80406     -6.1491729      0.0046810068   175466.23      0            
    116800   267.02052      487.51925     -11.559843     -13.793245      28.083985      594.24093     -105.51746     -3.9351198      0.0048887563   168009.73      0            
    116900   303.91088      488.63446     -5.4101373     -16.446163      31.026873      602.98206     -116.93424     -6.5839327      0.0050816679   161631.7       0            
    117000   352.45964      488.70186     -8.9383551     -16.752242      31.329395      596.02229     -107.15869     -5.8005414      0.0052307616   157024.67      0            
    117100   301.21275      495.21588     -9.3592207     -14.818915      28.912917      601.61316     -105.88903     -5.2430376      0.00534496     153669.74      0            
    117200   266.29604      488.60426     -8.2789614     -18.037946      34.262322      600.85467     -114.22707     -5.9687619      0.0054276215   151329.38      0            
    117300   267.19967      486.73702     -7.915327      -17.890393      29.264717      605.69284     -117.28548     -5.1293393      0.0055005462   149323.1       0            
    117400   337.17903      475.7272      -9.5901819     -15.106539      25.210676      586.71132     -105.94321     -5.5548649      0.0055514481   147953.94      0            
    117500   295.04272      491.85354     -7.4228214     -15.589323      35.552724      583.72579     -99.181716     -5.2311138      0.0056109101   146385.99      0            
    117600   325.96178      491.54421     -8.6747538     -16.80509       37.527729      610.05404     -124.868       -5.6897068      0.0057000608   144096.47      0            
    117700   373.39378      501.19145     -6.1223005     -14.209353      39.317838      588.25838     -100.2677      -5.7854143      0.0058124912   141309.22      0            
    117800   352.63015      499.53418     -7.5460269     -14.905358      33.709737      600.85883     -107.40843     -5.1745747      0.0058669222   139998.21      0            
    117900   321.34283      490.85724     -7.3208471     -15.777344      36.709483      601.4558      -116.55142     -7.6584226      0.0059410696   138250.97      0            
    118000   283.78056      489.91535     -6.6727326     -17.160472      30.616903      585.58545     -97.83953      -4.61427        0.0059890077   137144.36      0            
    118100   308.25551      478.30816     -8.2352642     -17.524954      30.374679      589.34127     -110.46399     -5.1835832      0.0060389829   136009.43      0            
    118200   251.64045      491.16868     -8.6209864     -16.452312      31.804094      600.31657     -111.38695     -4.4917433      0.0060731819   135243.54      0            
    118300   301.75167      493.87973     -9.120201      -13.615327      39.39223       592.01818     -108.43294     -6.3622099      0.0061198452   134212.32      0            
    118400   325.03943      497.68194     -7.6511144     -14.589669      28.306943      615.05989     -117.2082      -6.2359126      0.0062011873   132451.83      0            
    118500   317.80439      489.69173     -7.8277316     -16.072017      34.67313       599.00363     -114.7119      -5.3733876      0.0062656952   131088.19      0            
    118600   310.85222      482.14322     -8.0972608     -17.123054      28.286336      582.5134      -97.696433     -5.7397675      0.0063330686   129693.62      0            
    118700   258.3693       489.62641     -11.009074     -17.360241      35.559585      592.83682     -104.17862     -6.2220583      0.0063255961   129846.83      0            
    118800   287.14451      488.95739     -10.329424     -15.521325      34.658536      597.79759     -112.44541     -5.2025785      0.0063249503   129860.09      0            
    118900   331.48783      484.97963     -11.579096     -17.045966      37.265239      594.79971     -113.3178      -5.142463       0.0063301479   129753.46      0            
    119000   356.25714      493.04105     -9.3059813     -14.666223      35.539121      596.78097     -108.67755     -6.6292838      0.0064022225   128292.73      0            
    119100   332.58295      493.46653     -8.3285612     -16.400815      34.650528      594.7896      -106.43409     -4.8101384      0.0064684333   126979.53      0            
    119200   263.80621      490.95111     -8.8636055     -16.11094       31.64121       599.84549     -111.04586     -4.5151926      0.0065665747   125081.74      0            
    119300   341.55458      472.04817     -6.5147452     -17.453293      27.594854      585.79449     -110.85164     -6.5214939      0.0066601126   123325.03      0            
    119400   324.28649      482.31097     -8.3122706     -16.574807      33.68391       590.20932     -111.01204     -5.6831405      0.0067092511   122421.8       0            
    119500   339.45074      488.6336      -9.7669441     -14.5728        32.317321      602.20852     -114.29724     -7.2552557      0.0067955083   120867.87      0            
    119600   341.61129      493.55158     -8.7911432     -13.948841      32.787348      601.26582     -112.72312     -5.0384872      0.0068742359   119483.62      0            
    119700   301.02939      493.71624     -11.883978     -9.0754563      36.970135      605.52719     -120.17245     -7.6491984      0.0069996573   117342.69      0            
    119800   291.06551      482.7527      -8.2908364     -12.062144      27.61984       597.08005     -115.15845     -6.4357474      0.0071607098   114703.52      0            
    119900   304.74087      481.92784     -9.9684865     -12.662928      33.56422       584.16362     -106.82815     -6.3404327      0.0072785024   112847.2       0            
    120000   300.97626      493.77833     -8.4251432     -13.731147      29.244054      613.55634     -119.47421     -7.3915609      0.0074317751   110519.84      0            
    120100   296.50772      495.8735      -8.8050234     -19.494868      37.49561       616.83746     -123.58262     -6.5770509      0.0075339129   109021.52      0            
    120200   302.05581      494.98912     -7.8717339     -13.896149      31.648702      606.12653     -114.32117     -6.6970609      0.0076711261   107071.45      0            
    120300   253.84263      502.04975     -10.400631     -13.96291       45.607284      606.74972     -118.62878     -7.3149299      0.0078004305   105296.58      0            
    120400   309.85284      484.42421     -7.2988171     -14.827216      23.116067      597.63161     -107.44868     -6.7487589      0.0080132691   102499.82      0            
    120500   267.76762      492.72865     -10.286711     -14.323437      36.406285      595.56569     -109.466       -5.167186       0.0082102906   100040.14      0            
    120600   277.09113      490.55889     -10.103819     -14.192754      24.347548      601.44449     -106.52323     -4.4133486      0.0084401308   97315.863      0            
    120700   284.63048      486.85346     -7.5585193     -19.12211       27.606321      610.9576      -116.78401     -8.2458112      0.0087349152   94031.664      0            
    120800   293.65768      495.91752     -10.841021     -14.003657      39.53045       601.68251     -113.91211     -6.5386541      0.0090471005   90786.944      0            
    120900   312.53812      496.03284     -9.2349879     -12.50616       29.059419      613.22175     -117.69067     -6.8165058      0.0093884381   87486.183      0            
    121000   305.80177      488.13474     -9.4524767     -13.012293      32.077553      600.28348     -115.92974     -5.8317856      0.0097032974   84647.37       0            
    121100   250.32384      488.17691     -11.355207     -14.711136      32.012203      590.47633     -102.29082     -5.9544681      0.010049293    81732.976      0            
    121200   289.09393      481.17708     -9.0567451     -14.251389      33.813867      585.71498     -109.87004     -5.1735951      0.010329812    79513.412      0            
    121300   295.3315       491.39029     -5.3913418     -12.21985       31.743316      603.35201     -119.90694     -6.1869053      0.010585984    77589.254      0            
    121400   309.78148      492.50292     -10.303688     -16.531893      32.322833      604.03305     -111.49767     -5.5197121      0.010926539    75170.976      0            
    121500   277.05097      496.34946     -6.9180272     -18.114379      39.692749      593.96865     -107.78976     -4.4897718      0.011278826    72823.06       0            
    121600   327.73249      484.27665     -10.007486     -15.012006      25.919023      603.85357     -113.26346     -7.2129889      0.01164289     70545.939      0            
    121700   310.70006      484.64756     -8.8527868     -13.450799      27.609862      597.65695     -112.91607     -5.3995933      0.011973157    68600.003      0            
    121800   291.97952      485.56243     -4.2876425     -13.92221       22.099971      597.78381     -110.52545     -5.5860482      0.012300176    66776.169      0            
    121900   293.6277       482.22253     -9.1404824     -13.831833      27.502104      609.74342     -125.85975     -6.1909249      0.012482961    65798.381      0            
    122000   299.03749      483.93265     -8.5800099     -14.614001      28.82867       588.13273     -104.14123     -5.6935042      0.012630162    65031.519      0            
    122100   334.76958      484.32297     -7.1122102     -17.026891      34.340634      587.64176     -108.92421     -4.5961049      0.012771607    64311.298      0            
    122200   335.87944      493.99268     -7.4092421     -13.532481      30.851716      610.46817     -120.04278     -6.3427089      0.012925194    63547.102      0            
    122300   306.60885      485.14778     -7.0073367     -16.110868      32.660785      595.20885     -113.02685     -6.5767987      0.013083785    62776.835      0            
    122400   299.66173      475.25479     -8.2628258     -16.641672      23.757622      584.30034     -102.1579      -5.7407757      0.013130013    62555.813      0            
    122500   296.80062      478.30697     -8.0653599     -18.857247      30.640819      601.76297     -121.06376     -6.1104527      0.013209495    62179.411      0            
    122600   324.83212      481.45012     -4.1563388     -19.41251       28.142409      602.00534     -118.86606     -6.2627181      0.013260298    61941.186      0            
    122700   352.07471      482.22008     -5.1862148     -18.087267      26.229248      599.16908     -114.28776     -5.6170094      0.013219496    62132.37       0            
    122800   304.02598      489.95985     -5.0011766     -15.47258       30.773526      594.87328     -108.74087     -6.47233        0.013117972    62613.23       0            
    122900   237.42531      488.35043     -5.4404495     -13.185208      28.52732       595.4917      -112.70473     -4.3382065      0.012965159    63351.216      0            
    123000   286.0158       479.56887     -4.4855162     -16.184422      23.160862      602.87097     -119.39505     -6.3979783      0.012994278    63209.255      0            
    123100   303.38838      487.84913     -3.7289318     -15.297788      28.857097      591.14482     -107.26622     -5.8598408      0.012992595    63217.439      0            
    123200   315.74449      488.96911     -6.7357872     -16.352281      30.684521      604.36803     -116.18659     -6.8087858      0.012991732    63221.643      0            
    123300   327.01394      484.99064     -5.691375      -15.061169      23.919483      599.92869     -111.80576     -6.2992304      0.012984836    63255.218      0            
    123400   279.26814      480.51865     -6.5203878     -17.270917      28.450404      591.09279     -109.92004     -5.3132105      0.012995517    63203.226      0            
    123500   254.83623      480.5493      -4.9224084     -16.765279      25.394741      599.99575     -116.39814     -6.755361       0.012946423    63442.899      0            
    123600   255.98908      487.2527      -7.3323969     -14.876329      30.814543      594.17321     -109.96497     -5.5613523      0.012774963    64294.404      0            
    123700   328.70245      477.24733     -4.9506503     -15.643411      21.925263      600.21044     -117.64636     -6.6479525      0.012641073    64975.385      0            
    123800   300.4407       491.54279     -1.8202789     -13.353942      32.022951      588.78259     -108.35952     -5.7290138      0.012515431    65627.67       0            
    123900   269.99041      499.23766     -6.0612808     -17.448137      34.762887      606.29814     -112.5355      -5.7784464      0.012374943    66372.716      0            
    124000   318.81404      484.57196     -3.4283539     -19.388048      35.811339      599.57073     -120.56418     -7.4295308      0.012236558    67123.335      0            
    124100   269.52572      483.0182      -6.3247498     -19.901483      31.094353      603.00908     -118.20996     -6.6490424      0.012178878    67441.239      0            
    124200   271.7755       476.96937     -3.1870042     -20.300526      26.247104      588.44839     -108.942       -5.2965954      0.01210856     67832.891      0            
    124300   299.25979      480.25426     -5.6675852     -18.237775      30.931787      594.38309     -114.34937     -6.8058833      0.011970766    68613.706      0            
    124400   327.15288      484.88282     -8.0464433     -17.423818      34.554916      600.69133     -118.01842     -6.8747463      0.011794844    69637.091      0            
    124500   319.65804      490.62046     -6.7494213     -13.670258      33.696425      599.23847     -116.50471     -5.3900529      0.011580277    70927.373      0            
    124600   308.16582      490.10081     -8.4475775     -11.050751      28.17875       597.83787     -110.30016     -6.1173305      0.011497901    71435.524      0            
    124700   296.965        484.35268     -7.6078587     -15.805157      28.577286      604.55657     -119.07875     -6.2894148      0.011445259    71764.093      0            
    124800   263.15196      490.83601     -6.3871387     -14.791319      29.025181      591.82104     -103.94155     -4.8902103      0.011323127    72538.145      0            
    124900   305.50338      484.28879     -6.0149562     -14.885149      33.819337      588.11058     -111.32985     -5.4111708      0.011097138    74015.357      0            
    125000   296.5668       486.48126     -6.638204      -18.275741      28.06787       610.24171     -120.99246     -5.9219088      0.010845557    75732.269      0            
    125100   264.61012      495.84661     -4.4553853     -17.201521      38.475806      599.46565     -114.49661     -5.9413273      0.010570602    77702.162      0            
    125200   363.53856      484.02008     -6.5679078     -16.92038       30.139192      601.84198     -116.15314     -8.3196665      0.01024281     80188.796      0            
    125300   349.96253      490.22064     -10.362326     -16.891797      29.049942      616.33492     -121.31415     -6.59596        0.0099271206   82738.857      0            
    125400   312.68539      482.18195     -4.2327415     -17.707837      32.731219      589.03229     -111.51726     -6.1237109      0.0097040418   84640.877      0            
    125500   303.01183      478.51149     -8.1922835     -15.381183      29.543776      592.37859     -114.42606     -5.4113525      0.0094684449   86746.939      0            
    125600   282.1312       487.70579     -9.4422566     -13.593341      31.85442       590.76527     -105.74756     -6.1307413      0.0091904003   89371.364      0            
    125700   291.45466      493.86093     -8.801599      -13.827354      37.216577      599.11868     -114.65096     -5.1944071      0.009030588    90952.949      0            
    125800   324.40709      494.85562     -8.1466739     -13.31567       32.407903      611.59775     -121.90741     -5.7802794      0.0088161342   93165.393      0            
    125900   314.22728      498.50024     -9.5614479     -15.335594      26.555466      620.19402     -115.94072     -7.411488       0.0085417346   96158.292      0            
    126000   290.16628      486.53207     -6.8397512     -15.541816      36.441134      592.56945     -113.15618     -6.9407701      0.0081713795   100516.52      0            
    126100   256.71468      487.27361     -9.3011396     -15.393552      35.09707       605.02236     -120.67855     -7.4725669      0.0078316649   104876.63      0            
    126200   297.41163      483.81579     -6.7756116     -14.253089      31.051688      588.48942     -108.86086     -5.8357596      0.0076458889   107424.87      0            
    126300   274.667        498.82936     -7.7250203     -14.91117       43.849095      600.70426     -116.66417     -6.4236378      0.0074777577   109840.23      0            
    126400   320.08599      494.77367     -3.95162       -15.446957      32.575715      591.35215     -104.21033     -5.5452907      0.0073779812   111325.66      0            
    126500   313.62202      488.24046     -6.7034912     -13.748508      33.123237      598.52141     -118.14351     -4.8086845      0.00728693     112716.69      0            
    126600   274.25242      478.57706     -8.8205994     -16.170654      29.85175       598.96545     -117.96167     -7.2872157      0.0072525925   113250.35      0            
    126700   288.44348      478.50155     -7.2227381     -15.578996      34.353911      585.29506     -112.84251     -5.5031752      0.0071910771   114219.14      0            
    126800   299.74411      485.99682     -11.959652     -15.81996       32.05582       594.35377     -106.42907     -6.2040863      0.0071433265   114982.65      0            
    126900   329.83109      486.8585      -11.411384     -15.183964      31.896837      604.48627     -116.55963     -6.3696245      0.0070795428   116018.6       0            
    127000   311.46884      485.42992     -5.9450971     -17.055095      33.529242      585.85003     -105.13316     -5.8159972      0.0070025307   117294.54      0            
    127100   250.97107      484.97201     -11.542511     -15.527051      28.070784      609.5275      -119.06795     -6.4887656      0.0068986225   119061.25      0            
    127200   255.53714      482.58107     -9.5856067     -14.845193      33.845868      592.76417     -114.10881     -5.4893642      0.0068470281   119958.41      0            
    127300   270.09966      483.96218     -9.3718729     -15.830314      32.412841      597.92595     -115.9539      -5.2205279      0.0068269417   120311.35      0            
    127400   277.96162      487.37002     -8.0311605     -16.729659      38.201128      588.69218     -107.93096     -6.831503       0.0067742422   121247.31      0            
    127500   293.17452      487.84061     -9.4520354     -17.712693      42.408983      582.13355     -105.93441     -3.602783       0.0067219932   122189.74      0            
    127600   292.39492      489.89905     -10.153089     -14.052043      42.975587      596.49984     -118.54743     -6.8238165      0.006676666    123019.27      0            
    127700   323.48807      474.01102     -6.4205757     -16.587691      29.005744      584.25159     -111.16263     -5.07542        0.0066686427   123167.28      0            
    127800   282.15879      472.60569     -10.970906     -15.621243      25.205089      592.12422     -112.06485     -6.0666272      0.0066490668   123529.91      0            
    127900   270.56692      482.86716     -11.497782     -14.918471      24.076607      608.61283     -116.91873     -6.4872963      0.0065915292   124608.2       0            
    128000   311.62177      485.97903     -11.96887      -15.376449      31.38513       601.80004     -115.32635     -4.5344708      0.0065515574   125368.45      0            
    128100   312.21736      485.9172      -12.1577       -13.485391      31.41207       593.66699     -106.53284     -6.9859269      0.0065253218   125872.51      0            
    128200   269.26621      492.46413     -7.3278265     -14.709806      33.643703      604.49886     -117.947       -5.6938006      0.0064836465   126681.58      0            
    128300   292.12575      480.84694     -9.9829132     -14.95761       31.076573      590.54778     -109.20659     -6.6303076      0.0064369571   127600.45      0            
    128400   256.21612      479.05619     -10.359366     -14.908772      25.398484      584.37623     -100.14818     -5.3022065      0.0064195368   127946.71      0            
    128500   280.96479      470.75804     -10.738725     -15.104415      25.361134      593.2595      -116.72798     -5.2914792      0.0063847376   128644.07      0            
    128600   289.27906      484.58262     -10.180673     -14.374097      34.276403      602.61129     -121.75789     -5.9924132      0.0063684692   128972.69      0            
    128700   280.22465      494.34417     -9.730011      -15.410123      39.033263      595.84405     -109.07975     -6.313251       0.0062968588   130439.42      0            
    128800   368.23336      476.79704     -9.3835129     -14.953324      24.930563      591.81582     -109.2267      -6.3858056      0.0062583729   131241.56      0            
    128900   304.42467      487.96738     -4.8468973     -16.694636      34.336905      590.21274     -110.08425     -4.9564862      0.0062221109   132006.42      0            
    129000   277.12864      482.13696     -10.539303     -16.4035        28.303208      603.29646     -115.18463     -7.3352751      0.0061578236   133384.56      0            
    129100   277.71323      476.13614     -8.6820865     -17.684823      34.369373      579.24326     -106.06636     -5.0432295      0.0061077808   134477.42      0            
    129200   296.88614      482.45421     -4.7315662     -16.972686      30.894151      590.67036     -110.96401     -6.4420366      0.0060601581   135534.19      0            
    129300   326.96609      486.8007      -10.102291     -15.809531      25.465735      607.95548     -114.02027     -6.6884189      0.0060203935   136429.39      0            
    129400   313.01895      486.39647     -5.8747016     -15.911597      30.806348      592.37414     -108.61075     -6.3869717      0.0059460479   138135.22      0            
    129500   296.8578       482.64761     -10.026564     -15.890565      30.376113      610.30757     -124.81913     -7.2998135      0.0058241521   141026.3       0            
    129600   285.48687      479.5339      -9.7085931     -17.552709      30.358975      607.65505     -124.57766     -6.6411622      0.0057202344   143588.28      0            
    129700   263.34108      485.5467      -6.898876      -16.999442      38.555864      584.57096     -108.29381     -5.3879895      0.0056532821   145288.81      0            
    129800   307.82441      491.68391     -7.3022205     -15.450207      32.775271      607.8178      -118.48956     -7.6671696      0.005522114    148739.89      0            
    129900   284.45947      499.13573     -9.3058356     -17.508309      29.36326       619.19751     -116.46487     -6.1460187      0.0054015359   152060.2       0            
    130000   296.22982      486.80954     -11.404027     -16.44673       29.916009      603.96911     -111.16921     -8.0556193      0.0052620046   156092.34      0            
    130100   268.90699      484.4146      -8.6725374     -15.585903      28.668945      616.37173     -128.91509     -7.4525391      0.0051234965   160312.12      0            
    130200   260.41782      487.99621     -9.5067333     -16.01975       29.789632      614.04296     -122.71829     -7.5916106      0.0049449428   166100.73      0            
    130300   326.84677      476.21225     -9.6224226     -15.699435      25.118557      599.41726     -116.84319     -6.1585265      0.0047942249   171322.5       0            
    130400   311.59454      481.8521      -6.7325622     -16.020745      28.028438      593.42522     -110.33943     -6.5088213      0.0046596609   176270.04      0            
    130500   277.51747      490.30653     -6.2262756     -17.558951      31.053556      602.77157     -113.64277     -6.0906023      0.0044991227   182559.73      0            
    130600   294.07795      494.80931     -5.1136312     -16.736833      30.785167      620.50454     -127.45769     -7.1722499      0.004354086    188640.88      0            
    130700   363.66229      492.27028     -9.2136876     -18.260875      33.701527      614.64576     -122.32915     -6.2732858      0.0042016264   195485.88      0            
    130800   315.69308      494.38284     -6.5245782     -15.81487       31.290328      600.52022     -106.80647     -8.2817871      0.0041152448   199589.25      0            
    130900   290.46587      486.07914     -8.751533      -16.972559      37.895589      594.66268     -115.96656     -4.7884671      0.0039757521   206592.01      0            
    131000   252.91889      491.05615     -7.3218418     -17.222051      34.806072      605.49318     -116.57122     -8.1279999      0.0038455143   213588.76      0            
    131100   274.47355      490.69444     -9.3426198     -16.594005      35.395618      611.56209     -124.13738     -6.1892627      0.0037430575   219435.21      0            
    131200   345.60802      488.35677     -9.0579824     -15.162896      27.791638      596.77956     -106.05519     -5.9383614      0.003664516    224138.36      0            
    131300   349.65539      493.8241      -5.866409      -14.719536      36.221115      595.31228     -112.15412     -4.9692295      0.0035905295   228756.96      0            
    131400   306.1374       485.45587     -10.504726     -14.472506      39.372236      588.97715     -111.89984     -6.016444       0.0034796      236049.72      0            
    131500   270.14572      484.82119     -6.8802625     -16.530612      24.408235      613.69565     -123.38329     -6.4885252      0.0034338881   239192.02      0            
    131600   296.27315      483.71521     -8.2612541     -16.470401      29.198853      600.97735     -116.7905      -4.9388384      0.0033689922   243799.5       0            
    131700   344.91097      484.55858     -6.902098      -14.090576      27.077395      597.86773     -111.93475     -7.4591229      0.0033329691   246434.51      0            
    131800   268.10898      505.92682     -5.0735508     -13.639292      43.705402      592.78952     -106.65157     -5.2036932      0.0032908888   249585.64      0            
    131900   325.05138      478.83235     -8.2695281     -15.984145      25.97164       594.23661     -110.52521     -6.5970098      0.0032434116   253239.09      0            
    132000   265.11076      482.17309     -8.2487601     -14.909447      29.319826      592.47748     -110.21042     -6.2555872      0.0032163392   255370.65      0            
    132100   259.39114      489.95469     -10.54959      -13.777159      36.272756      596.67806     -111.71242     -6.956953       0.0031871863   257706.49      0            
    132200   311.80449      489.43193     -6.6449047     -13.741291      31.079792      605.87027     -120.02549     -7.1064541      0.0031867366   257742.86      0            
    132300   313.0335       492.14493     -9.1848515     -12.69443       28.728102      607.19189     -116.47487     -5.4209091      0.0031653692   259482.72      0            
    132400   325.69875      480.09787     -8.3758323     -15.575773      25.208357      601.70115     -116.97243     -5.8876         0.0031460128   261079.23      0            
    132500   255.77493      478.94846     -7.1116569     -14.435838      30.049302      590.06825     -114.09066     -5.530934       0.0031008693   264880.11      0            
    132600   252.72982      481.45043     -9.099695      -16.82317       25.697252      604.26616     -115.88029     -6.7098236      0.0030891798   265882.42      0            
    132700   266.45192      488.7358      -5.3997497     -16.317043      36.371169      601.04912     -121.16722     -5.8004735      0.0030766719   266963.34      0            
    132800   298.90983      488.54033     -7.0958542     -16.617993      24.47478       616.66301     -121.92191     -6.9617054      0.0030506762   269238.21      0            
    132900   320.00467      487.2818      -3.8969759     -16.692349      32.701956      593.4852      -112.779       -5.5370285      0.0030166821   272272.18      0            
    133000   282.68612      497.51295      0.7630737     -16.086617      34.659249      590.03247     -106.67288     -5.1823478      0.0030164083   272296.89      0            
    133100   271.90892      494.17735     -5.9719438     -14.775648      30.666273      609.21224     -119.8238      -5.1297651      0.0030120465   272691.21      0            
    133200   258.45318      488.94637     -4.892367      -13.203223      33.595964      592.56531     -113.08278     -6.0365455      0.0030257443   271456.72      0            
    133300   276.66288      485.03723     -7.8720463     -15.976956      31.391636      603.79909     -119.15814     -7.1463593      0.0030471732   269547.73      0            
    133400   264.42896      499.93386     -1.9386439     -18.7938        26.669066      616.09166     -116.06208     -6.0323447      0.0030896492   265842.03      0            
    133500   345.49995      488.43859     -6.4809987     -16.355803      31.552997      604.27348     -118.85996     -5.6911221      0.0031318961   262256.02      0            
    133600   303.78669      488.30111     -1.7128576     -21.647319      34.762531      590.89216     -107.71857     -6.2748339      0.003178404    258418.56      0            
    133700   298.69234      486.39233     -6.567694      -17.776049      25.053354      601.38002     -110.6017      -5.0956056      0.0032339378   253980.95      0            
    133800   291.386        478.89052     -9.5934694     -17.945053      25.946468      606.1213      -118.61801     -7.020711       0.0032794418   250456.83      0            
    133900   246.61893      478.3691      -2.6273274     -14.766331      23.07818       594.95406     -116.16473     -6.1047515      0.0033418938   245776.4       0            
    134000   252.98671      483.74911     -7.233575      -13.251304      28.381063      595.4007      -113.94127     -5.6065112      0.0034084531   240976.94      0            
    134100   302.95638      483.94738     -5.8196439     -16.296879      31.067771      592.19731     -112.43716     -4.7640176      0.0035196325   233364.88      0            
    134200   284.08586      497.06699     -2.5853317     -13.869273      35.643758      602.4853      -118.25332     -6.3541506      0.0036568753   224606.67      0            
    134300   340.33507      487.68082     -7.183684      -14.816113      33.864509      591.69003     -110.37632     -5.497592       0.003807928    215696.99      0            
    134400   316.23191      490.77545     -7.5017779     -13.268309      29.792869      598.09405     -110.61192     -5.7294611      0.003925071    209259.56      0            
    134500   259.1451       493.16905     -4.9993682     -11.594651      35.903258      601.96153     -121.09802     -7.0037056      0.0040332896   203644.84      0            
    134600   265.29881      484.99889     -5.9775412     -15.554349      30.705957      600.10237     -117.91531     -6.3622305      0.0041565944   197603.74      0            
    134700   317.4727       484.54623     -6.7597611     -16.133163      28.774561      596.00133     -111.96455     -5.3721747      0.004315721    190317.82      0            
    134800   344.75939      490.98709     -4.2842927     -15.176118      31.39594       593.12629     -108.50399     -5.5707401      0.0044698645   183754.7       0            
    134900   328.97277      488.6131      -6.6160462     -17.417417      36.159575      601.39351     -118.93653     -5.9699933      0.0046052235   178353.69      0            
    135000   291.1546       489.53941     -6.7327367     -16.598307      25.467382      607.72611     -113.67739     -6.6456432      0.0047596658   172566.45      0            
    135100   286.30712      486.56398     -5.3392766     -17.772936      28.877993      607.85542     -120.62804     -6.4291793      0.0048952872   167785.58      0            
    135200   294.15237      500.49581     -3.8903469     -13.726378      28.438316      616.4447      -120.01621     -6.754274       0.0050465702   162755.81      0            
    135300   358.9922       496.38688     -5.0558068     -13.521109      36.557502      596.9809      -113.52519     -5.0494225      0.0051639125   159057.42      0            
    135400   304.01407      497.90847     -7.3318881     -15.664234      31.260858      598.94904     -104.09194     -5.2133608      0.0052874422   155341.39      0            
    135500   285.88985      492.81133     -6.3326465     -12.768903      29.595339      598.38759     -111.21716     -4.8528886      0.0053926362   152311.15      0            
    135600   300.15598      489.67398     -4.6733007     -14.641074      32.650212      596.05526     -113.5405      -6.1766159      0.0055395937   148270.55      0            
    135700   251.40884      504.63242     -5.3202137     -14.133294      41.028624      613.05549     -123.97916     -6.0190299      0.0056184404   146189.79      0            
    135800   303.56243      498.16572     -2.8089267     -16.059577      38.313044      604.93078     -119.61747     -6.5921281      0.005723503    143506.28      0            
    135900   342.54829      500.08319     -7.1243418     -14.992282      38.083763      599.92153     -109.49944     -6.3060353      0.0057597572   142602.99      0            
    136000   318.49658      492.04882     -7.5340904     -16.18583       33.851249      598.59254     -111.88312     -4.7919241      0.0057753567   142217.82      0            
    136100   291.38572      485.0228      -3.5705829     -19.420574      28.352364      590.20607     -105.64462     -4.8998553      0.0058090268   141393.5       0            
    136200   283.389        488.2662      -5.6805116     -15.681538      36.17281       587.08781     -108.90328     -4.7290898      0.0058496518   140411.54      0            
    136300   278.53113      490.637       -5.5684933     -17.782782      32.868101      604.80704     -117.55291     -6.1339622      0.005925314    138618.58      0            
    136400   355.75295      494.10091     -5.7467918     -13.727081      31.843012      596.03699     -109.38929     -4.9159286      0.0059783667   137388.46      0            
    136500   334.33704      501.75189     -6.7252577     -11.964106      31.597109      599.94689     -104.52954     -6.5732066      0.0060534693   135683.95      0            
    136600   338.84846      488.62804     -3.4980798     -13.047523      27.604189      584.20913     -102.49073     -4.1489393      0.0060791494   135110.78      0            
    136700   278.13801      495.56833     -8.6204944     -13.596245      26.287353      617.35939     -119.71219     -6.1494811      0.006126691    134062.35      0            
    136800   284.4828       490.77775     -6.5816858     -14.38539       35.681299      593.20372     -111.49266     -5.6475345      0.0061807681   132889.41      0            
    136900   274.33323      491.48934     -3.9227144     -14.828239      26.147118      595.85722     -106.37657     -5.3874738      0.0062515742   131384.28      0            
    137000   298.9235       487.95538     -10.181447     -17.884952      35.733837      610.77775     -124.01731     -6.4724896      0.0062980908   130413.9       0            
    137100   344.2012       487.66135     -3.9516556     -14.608314      29.189278      590.41684     -107.7059      -5.678894       0.0063904602   128528.87      0            
    137200   328.68572      488.77749     -10.066349     -15.419355      33.402113      602.02954     -115.21967     -5.94879        0.0064355005   127629.33      0            
    137300   302.19642      481.5019      -9.9336389     -16.111311      26.35483       596.26472     -109.11777     -5.9549273      0.0064529476   127284.25      0            
    137400   271.87744      480.74832     -10.222856     -16.104217      23.507757      603.37249     -113.6324      -6.1724553      0.0064217103   127903.4       0            
    137500   298.17353      478.61722     -7.5692711     -16.466097      33.342706      598.36607     -123.12128     -5.9349092      0.0064091575   128153.91      0            
    137600   289.85955      489.01934     -5.1543718     -16.820392      27.200772      606.33269     -116.40797     -6.131388       0.00639289     128480.02      0            
    137700   339.43549      481.54468     -6.0989464     -14.831011      26.719413      591.16411     -109.81019     -5.5986998      0.006353731    129271.86      0            
    137800   294.75343      488.67642     -9.5697191     -16.245424      31.155616      602.17731     -112.00368     -6.8376858      0.0063498755   129350.35      0            
    137900   302.27536      483.42247     -8.5080643     -15.016836      27.124018      598.54196     -112.355       -6.3636019      0.0064095603   128145.86      0            
    138000   282.93216      483.4938      -5.4241086     -16.206959      34.804267      593.64375     -115.36456     -7.9585924      0.0064545684   127252.29      0            
    138100   285.92645      489.79145     -10.495503     -15.696363      36.466379      598.89748     -113.16919     -6.2113598      0.0064666815   127013.93      0            
    138200   362.13942      485.13111     -6.8700851     -17.3145        29.986757      610.71845     -125.13434     -6.2551818      0.0065044692   126276.04      0            
    138300   323.79976      491.28229     -10.865272     -16.586592      30.970999      613.3841      -118.1845      -7.4364508      0.0065330865   125722.9       0            
    138400   293.48508      486.08208     -5.5246157     -15.173758      33.930034      591.23481     -111.98578     -6.398617       0.0065182768   126008.55      0            
    138500   286.62622      481.75247     -6.7823758     -17.855867      24.32745       602.71427     -114.88607     -5.7649394      0.0064209849   127917.85      0            
    138600   306.30692      484.15322     -7.1769344     -15.391808      24.886133      604.87144     -117.21787     -5.8177389      0.0063272788   129812.3       0            
    138700   317.01396      489.09631     -4.5614135     -16.230737      38.542763      585.31505     -107.50139     -6.4679665      0.0062969385   130437.77      0            
    138800   285.87771      506.29851     -5.3471052     -10.342932      29.790504      614.45071     -116.63436     -5.6183083      0.0062746      130902.15      0            
    138900   304.89612      489.3198      -6.0312229     -15.882493      30.661235      606.78149     -118.78466     -7.4245443      0.0062441268   131540.99      0            
    139000   277.21442      482.4611      -4.0732566     -14.521173      27.502716      595.72306     -116.38998     -5.7802681      0.0062313517   131810.67      0            
    139100   282.23802      484.68062     -4.7640788     -14.031723      24.415089      594.17393     -109.48145     -5.6311401      0.0062398664   131630.8       0            
    139200   319.19505      485.96674     -6.1768508     -16.625635      23.204716      615.86634     -123.00718     -7.294655       0.0062481759   131455.74      0            
    139300   332.96855      493.14734     -6.8906074     -11.000241      31.434165      596.32931     -111.38324     -5.3420577      0.0062784927   130820.99      0            
    139400   319.10932      491.45447     -5.6905107     -11.872598      30.149487      581.71165     -97.856091     -4.9874715      0.0062375192   131680.33      0            
    139500   297.10814      488.22664     -8.7235757     -13.247078      30.402968      603.55615     -117.659       -6.1028273      0.0062410636   131605.55      0            
    139600   261.14521      490.18517     -7.24223       -14.886109      29.423413      606.98775     -117.73793     -6.3597254      0.00623902     131648.66      0            
    139700   303.95971      478.40208     -9.3029881     -15.262137      25.571496      592.8255      -109.83948     -5.5903106      0.0062487364   131443.95      0            
    139800   266.58677      491.25321     -6.1051464     -14.117919      30.309742      598.95596     -112.09062     -5.6988054      0.0062917313   130545.72      0            
    139900   311.61405      492.4895      -6.5516007     -14.000694      28.965474      601.72437     -112.53231     -5.1157366      0.0062795683   130798.58      0            
    140000   291.71723      503.59166     -6.8784173     -14.705817      39.570703      594.94254     -103.52424     -5.8131023      0.0062305806   131826.98      0            
    140100   318.55718      490.12182     -6.8714225     -14.205713      27.498319      588.49328     -100.99842     -3.7942234      0.0061199117   134210.86      0            
    140200   303.37476      483.44086     -5.5128755     -11.864488      24.071936      606.70166     -122.47482     -7.4805551      0.0060087592   136693.55      0            
    140300   286.98869      476.8339      -5.6573204     -22.550033      28.522151      597.43615     -114.54849     -6.3685596      0.0059021223   139163.27      0            
    140400   277.24961      485.6489      -4.2587344     -22.407293      34.443132      594.30093     -111.17366     -5.2554803      0.0058116259   141330.26      0            
    140500   301.27549      494.64234     -1.7359221     -15.530793      34.642186      593.40389     -109.68504     -6.4519797      0.0056794175   144620.22      0            
    140600   322.33261      489.73673     -8.4820395     -16.487221      29.392793      611.85358     -119.53221     -7.0081807      0.0055659993   147567.14      0            
    140700   316.82827      492.10446     -2.2445595     -13.12454       29.470578      592.60978     -108.99677     -5.6100359      0.005461583    150388.38      0            
    140800   292.32166      484.46625     -7.0660271     -19.894547      32.256921      601.66886     -116.09866     -6.4003056      0.0053313466   154062.13      0            
    140900   280.68724      488.50565     -6.0145365     -13.14728       29.771999      605.13724     -121.50919     -5.7325778      0.0052348138   156903.12      0            
    141000   270.88301      487.82722     -5.0422988     -13.880916      28.523178      588.41604     -105.08316     -5.105623       0.0051336973   159993.58      0            
    141100   304.05744      493.78173     -7.3729929     -13.641697      34.597477      613.05996     -126.14616     -6.7148578      0.0050684134   162054.38      0            
    141200   328.94137      497.07432     -5.1902752     -13.331378      33.989953      596.26081     -108.80895     -5.8458343      0.0050135993   163826.14      0            
    141300   336.81647      487.40072     -6.903518      -11.836798      29.421244      595.67776     -112.11547     -6.8424973      0.0049309387   166572.46      0            
    141400   250.6143       495.4868      -4.5203119     -13.185999      39.71194       600.89149     -121.25639     -6.1539197      0.0048292552   170079.77      0            
    141500   253.22656      493.93999     -6.6725459     -14.941028      32.65638       601.54536     -112.2082      -6.4399816      0.0047439147   173139.41      0            
    141600   296.21349      489.31376     -9.0032806     -13.11938       37.063407      592.69134     -111.87373     -6.444602       0.0046721301   175799.6       0            
    141700   292.91472      493.82688     -5.441905      -12.745103      33.942284      599.14732     -114.57517     -6.500553       0.0046034238   178423.42      0            
    141800   329.51229      485.02811     -5.7521567     -15.668517      29.118835      607.87235     -123.11293     -7.429473       0.0045236384   181570.35      0            
    141900   288.03637      496.34414     -7.3900435     -17.963459      34.675708      615.59345     -122.51075     -6.0607552      0.0044550255   184366.76      0            
    142000   325.67605      487.16198     -2.9863036     -14.836433      27.122696      598.89125     -115.37229     -5.6569411      0.0043650399   188167.49      0            
    142100   299.56278      487.32226     -3.7548606     -13.676487      33.258394      593.30518     -116.97364     -4.8363324      0.0042317783   194093.01      0            
    142200   275.69849      490.73981     -9.1731828     -13.718265      31.510521      601.95544     -112.93306     -6.9016417      0.0040739381   201612.93      0            
    142300   307.55504      490.61057     -6.4242281     -14.292801      29.320699      593.02979     -105.63009     -5.3927878      0.0039376085   208593.26      0            
    142400   320.15148      498.2554      -3.7337492     -15.04886       34.449587      609.76141     -120.09129     -7.0816906      0.003797579    216284.8       0            
    142500   331.41963      495.0848      -3.3784797     -16.271658      34.931902      589.64806     -105.47303     -4.371992       0.0036961017   222222.95      0            
    142600   271.30717      492.71833     -5.77805       -16.603945      30.037352      585.89308     -96.115865     -4.7142452      0.0035837861   229187.4       0            
    142700   263.14586      492.13826     -3.8836448     -15.458382      37.304811      601.422       -119.74873     -7.497796       0.0035007858   234621.21      0            
    142800   277.00856      497.87032     -5.6518516     -11.32589       34.538726      605.92322     -119.89243     -5.7214457      0.0034199386   240167.64      0            
    142900   319.41675      495.58846     -7.0426885     -11.734829      29.758084      605.16776     -114.31171     -6.2481559      0.0033526049   244991.17      0            
    143000   351.60106      494.06533     -3.3595197     -12.446836      30.570184      603.46381     -117.01701     -7.1453057      0.0032972946   249100.76      0            
    143100   340.92051      496.86456     -2.4468571     -10.307771      29.646786      591.30589     -105.47        -5.8634858      0.0032430121   253270.29      0            
    143200   267.58662      495.86948     -3.9219317     -10.578101      29.784952      595.46091     -109.78462     -5.0917314      0.0032125802   255669.45      0            
    143300   286.40711      484.89161     -3.609771      -15.155199      31.817577      588.48706     -110.35087     -6.2971804      0.0031943227   257130.75      0            
    143400   284.01462      493.52648     -3.8225461     -14.826392      32.208623      592.59469     -107.44706     -5.1808329      0.0031899899   257480.01      0            
    143500   326.23373      495.68555     -4.9404936     -12.785143      38.43212       599.22119     -117.34678     -6.8953332      0.0031879741   257642.81      0            
    143600   351.82413      490.1632      -5.6859712     -11.91204       26.004407      600.82676     -112.57796     -6.4920022      0.0031770167   258531.41      0            
    143700   313.22785      485.46636     -4.6120388     -21.234783      36.970232      607.25448     -124.89062     -8.0209036      0.0031433611   261299.47      0            
    143800   324.99242      488.79011     -6.9051679     -13.606048      37.306809      594.45575     -116.38285     -6.0783829      0.0031250525   262830.34      0            
    143900   315.00457      491.69989     -3.5553115     -8.7554256      26.411952      588.71319     -105.66477     -5.449742       0.0031263923   262717.7       0            
    144000   288.08522      489.45322     -4.4594753     -17.182774      33.8071        598.90632     -116.13552     -5.4824267      0.0031125469   263886.34      0            
    144100   281.60881      488.50901     -5.8324798     -21.929639      34.943035      600.69191     -113.32436     -6.0394605      0.0031135487   263801.44      0            
    144200   354.34501      476.81007     -5.6711641     -20.857118      25.600768      607.17866     -122.74616     -6.6949189      0.0031346462   262025.94      0            
    144300   284.57788      494.98081     -3.5452377     -19.95426       35.720691      621.20893     -131.54037     -6.9089462      0.0031630805   259670.47      0            
    144400   328.051        491.62087     -5.9824804     -14.632447      36.961522      586.75491     -106.337       -5.1436421      0.0031777672   258470.35      0            
    144500   317.16049      481.96572     -6.5288879     -15.64039       28.435823      586.62931     -105.51029     -5.4198459      0.0031935401   257193.77      0            
    144600   273.84733      484.23816     -7.5902672     -15.124533      30.072406      596.2974      -113.54612     -5.8707224      0.0032183116   255214.13      0            
    144700   314.23548      479.79145     -5.2263161     -14.965823      34.259323      580.46725     -108.67519     -6.0677906      0.0032603466   251923.71      0            
    144800   345.63856      490.6903      -11.04978      -15.223631      34.618648      607.34681     -117.87456     -7.1271832      0.0032973964   249093.08      0            
    144900   343.2656       489.87074     -3.4135813     -17.246796      26.681397      620.95373     -129.13459     -7.9694288      0.0033467667   245418.55      0            
    145000   322.70555      485.39694     -4.2170947     -15.693306      34.645703      592.94842     -116.0346      -6.2521803      0.003402043    241430.99      0            
    145100   273.84671      486.5172      -8.8090367     -16.559685      29.775135      598.72608     -110.70718     -5.908107       0.0034047745   241237.3       0            
    145200   288.32158      483.5664      -6.4565808     -17.170071      29.347857      588.05734     -105.07885     -5.133303       0.003410862    240806.75      0            
    145300   314.15174      484.92597     -7.0252212     -14.652729      27.095666      603.2575      -117.82399     -5.9252558      0.0034229542   239956.06      0            
    145400   289.80527      490.21914     -8.7234735     -17.921272      27.462417      614.54714     -118.26043     -6.8852471      0.0034370528   238971.77      0            
    145500   294.85829      492.09438     -4.8831625     -16.23935       35.774619      592.04572     -108.62469     -5.9787555      0.003487219    235533.99      0            
    145600   306.22762      491.73432     -5.2569658     -16.326798      34.137314      600.4942      -113.84667     -7.4667673      0.0035046863   234360.09      0            
    145700   305.44772      492.85037     -7.9929838     -15.726589      34.959405      600.18866     -113.12504     -5.4530771      0.0035252824   232990.87      0            
    145800   306.63214      480.093       -6.1111049     -23.740353      32.1115        593.40906     -109.3373      -6.2387924      0.0035865347   229011.76      0            
    145900   284.91035      476.78087     -6.6668881     -24.793054      29.803009      593.94456     -109.5191      -5.9876618      0.003670765    223756.79      0            
    146000   263.20205      479.94893     -3.1104528     -22.002104      30.018087      607.9658      -125.23691     -7.6854797      0.0037443147   219361.53      0            
    146100   270.8837       488.5402      -5.5072872     -20.946817      23.960203      615.89343     -119.43535     -5.4239843      0.0038063624   215785.71      0            
    146200   352.0514       490.82125     -7.3129062     -13.545737      31.073243      605.55529     -119.26401     -5.6846303      0.0038607159   212747.75      0            
    146300   316.68026      496.5233      -5.8747491     -12.905956      35.36881       593.35175     -107.61462     -5.8019332      0.0039544687   207703.91      0            
    146400   318.84886      485.14257     -8.7428179     -14.244683      27.109321      604.19137     -116.77151     -6.3991089      0.004054477    202580.65      0            
    146500   290.99745      485.93265     -5.7916694     -15.958248      22.019528      605.83843     -114.03083     -6.1445554      0.0041288316   198932.45      0            
    146600   312.77433      482.13595     -7.6127147     -17.717309      29.347282      592.03929     -107.99094     -5.9296555      0.0042164489   194798.66      0            
    146700   312.94559      484.84265     -9.0440607     -15.753319      25.212923      600.07587     -109.75717     -5.89159        0.0042714549   192290.13      0            
    146800   300.51011      485.51591     -6.4454623     -16.089625      32.523112      591.38901     -110.3863      -5.4748238      0.0043439156   189082.54      0            
    146900   274.91055      492.84366     -7.0974119     -14.577744      29.538692      611.8183      -121.33088     -5.5072952      0.004385064    187308.24      0            
    147000   297.94643      491.59978     -10.082229     -15.450585      31.389296      601.68262     -109.6874      -6.2519217      0.0044143031   186067.56      0            
    147100   337.00516      485.92909     -6.6990723     -16.425691      33.290586      601.61979     -119.40556     -6.4509562      0.0044778534   183426.87      0            
    147200   327.86189      485.16467     -7.901695      -16.698822      31.0174        605.39188     -119.35544     -7.2886508      0.0045313295   181262.17      0            
    147300   277.86703      486.33999     -7.8715029     -16.882203      28.658686      607.21589     -118.03452     -6.7463634      0.004572521    179629.27      0            
    147400   254.03529      485.7735      -8.4631273     -15.939362      31.511891      591.34905     -106.77346     -5.9115014      0.0046356078   177184.66      0            
    147500   254.49786      494.31188     -7.5514031     -14.319424      25.011164      602.73778     -106.50836     -5.0578714      0.0047074011   174482.39      0            
    147600   334.51533      492.85473     -10.006638     -15.320665      29.868403      611.36481     -117.3293      -5.7218781      0.004742896    173176.6       0            
    147700   334.67312      489.39282     -6.9086347     -14.626788      29.095255      598.92881     -111.53887     -5.5569429      0.0047844048   171674.15      0            
    147800   268.28661      494.97133     -9.2460001     -14.542037      33.932644      613.61525     -122.13334     -6.6551824      0.0047910712   171435.27      0            
    147900   268.78977      490.54731     -7.7011987     -13.25203       28.13033       603.20705     -113.57421     -6.2626235      0.0048383601   169759.71      0            
    148000   282.32437      490.08525     -9.6511091     -12.827222      35.194489      597.68125     -114.433       -5.879153       0.0048446461   169539.45      0            
    148100   340.78456      498.9878      -7.3846512     -13.755983      30.872782      601.49564     -106.15401     -6.0859745      0.0048857299   168113.8       0            
    148200   331.13648      497.50983     -7.1269454     -12.848734      39.412507      594.88971     -111.10814     -5.7085633      0.0049050823   167450.52      0            
    148300   298.69399      489.7285      -6.3862544     -14.716123      27.924211      603.12092     -114.82405     -5.3902008      0.0049130055   167180.48      0            
    148400   307.71741      481.43785     -10.936587     -14.219036      26.671752      605.01717     -117.63083     -7.464619       0.0049148089   167119.13      0            
    148500   297.59278      484.262       -7.0943196     -15.065548      37.033362      586.57601     -111.51336     -5.6741417      0.0049652769   165420.5       0            
    148600   297.99958      487.87059     -9.8387324     -15.098169      30.387706      604.53591     -116.37564     -5.7404884      0.0050328911   163198.17      0            
    148700   336.46993      487.70126     -2.6329956     -17.782168      30.725251      595.96073     -112.9483      -5.6212618      0.0050779414   161750.31      0            
    148800   347.60693      488.34303     -8.6227069     -15.282507      32.06268       587.19287     -102.36248     -4.6448175      0.0050620547   162257.95      0            
    148900   307.61797      480.86109     -11.608503     -14.71936       33.44952       594.04512     -114.4152      -5.8904889      0.0050200346   163616.12      0            
    149000   280.73248      480.06293     -7.474896      -15.183677      27.335135      588.61115     -108.28607     -4.9387147      0.0050059588   164076.18      0            
    149100   313.9006       480.29502     -10.461715     -15.759317      28.512757      605.51137     -120.55963     -6.9484445      0.0050160436   163746.31      0            
    149200   305.60928      492.145       -5.8829506     -13.818156      29.718231      605.48694     -117.78212     -5.5769424      0.0050447704   162813.87      0            
    149300   331.54964      493.4069      -5.3641883     -12.830409      32.316366      591.05078     -105.66375     -6.1018957      0.005059593    162336.89      0            
    149400   364.74849      486.75191     -6.0764982     -13.686606      23.891041      595.3977      -108.14386     -4.6298684      0.0050372848   163055.82      0            
    149500   309.12442      491.33331     -5.1692989     -10.823114      27.845467      589.73312     -105.72844     -4.5244267      0.0050157871   163754.68      0            
    149600   277.22222      488.10247     -8.0295071     -14.359825      32.67487       598.49121     -116.22042     -4.4538472      0.0050318429   163232.17      0            
    149700   276.45926      491.11152     -8.3523481     -11.917298      32.221716      601.61668     -114.49456     -7.9626654      0.00504726     162733.56      0            
    149800   289.47208      496.87184     -5.780556      -16.375657      31.85027       596.91486     -105.82599     -3.9110853      0.0051018115   160993.52      0            
    149900   300.40611      504.39225     -7.5574216     -14.440718      44.053581      608.57534     -119.15774     -7.0807869      0.0050959597   161178.4       0            
    150000   329.14993      495.315       -6.5374421     -12.037539      30.363963      589.81948     -102.53374     -3.7597261      0.0051502451   159479.52      0            
    150100   286.60705      497.80293     -5.5340651     -11.165056      32.89881       598.53664     -109.74714     -7.1862705      0.0051790196   158593.46      0            
    150200   308.00518      489.00705     -6.4675232     -15.362631      32.950644      600.14477     -117.07451     -5.1837029      0.0051684729   158917.08      0            
    150300   304.8193       490.13833     -5.4051165     -16.159216      23.921404      615.1374      -120.66278     -6.6933575      0.0051844437   158427.53      0            
    150400   330.75321      489.70591     -4.1351179     -12.602739      27.244111      600.91391     -115.90274     -5.8115097      0.0052180147   157408.26      0            
    150500   333.95788      487.91812     -8.1023345     -16.035498      31.242465      607.45153     -118.94856     -7.6894829      0.0052195548   157361.81      0            
    150600   358.78988      485.14686     -5.6201291     -14.405756      30.994494      590.64106     -110.95022     -5.5125882      0.0052031866   157856.84      0            
    150700   290.72604      487.94949     -7.3519368     -18.708762      33.240963      589.96898     -104.94759     -4.2521608      0.0052298453   157052.18      0            
    150800   285.24167      484.83649     -6.7220571     -15.007593      32.851163      599.90593     -119.23612     -6.9548305      0.0052886266   155306.6       0            
    150900   277.56796      486.88077     -4.9983927     -15.261382      28.310928      597.23278     -112.16764     -6.2355157      0.0053879098   152444.76      0            
    151000   314.01285      492.56248     -7.7905232     -17.96003       44.472795      604.29656     -123.51709     -6.939238       0.0054972549   149412.5       0            
    151100   326.71444      495.88183     -8.59203       -17.660793      30.813816      601.37364     -103.03749     -7.0153211      0.0056236287   146054.91      0            
    151200   294.42583      494.25548     -6.5865948     -14.871899      41.572808      592.26841     -113.38879     -4.7384597      0.0057754094   142216.52      0            
    151300   297.00936      484.92113     -9.3717203     -15.600075      25.869613      595.56346     -104.62005     -6.9200981      0.0059111661   138950.35      0            
    151400   297.41829      482.76351     -4.9557573     -17.473311      35.946122      588.50616     -113.8738      -5.3859093      0.0061004768   134638.43      0            
    151500   279.01364      493.57897     -6.9405764     -13.637117      37.925977      590.69381     -108.82859     -5.6345351      0.0062546045   131320.63      0            
    151600   298.94957      494.77204     -7.5381079     -16.271315      39.325454      595.79779     -110.65046     -5.891328       0.0064402445   127535.32      0            
    151700   359.84571      496.74983     -10.41678      -16.102103      34.696245      612.51597     -116.68721     -7.2562961      0.0066573624   123375.98      0            
    151800   289.57868      502.44628     -9.1050828     -16.599525      34.712811      603.79528     -104.97149     -5.3857148      0.0069230555   118641.06      0            
    151900   287.43387      489.27891     -6.7618731     -17.291137      26.425904      608.11094     -114.75846     -6.4464572      0.0072740784   112915.83      0            
    152000   303.22384      483.75332     -8.4733771     -14.954636      35.274953      585.4974      -108.97827     -4.6127438      0.0075416437   108909.76      0            
    152100   268.78975      491.95081     -5.1101111     -13.245373      37.219627      589.82571     -112.31083     -4.4282123      0.0077853032   105501.17      0            
    152200   304.61909      490.418       -7.6570836     -12.676725      32.402212      586.74815     -103.10262     -5.2959344      0.0080007163   102660.63      0            
    152300   326.85259      496.95092     -4.7691244     -15.779906      31.86464       597.01857     -105.20467     -6.1785924      0.0082647241   99381.25       0            
    152400   329.27112      497.35346     -8.4641588     -15.523921      30.412303      613.46148     -116.48011     -6.052132       0.0084956039   96680.427      0            
    152500   273.738        490.54193     -5.843789      -16.17327       20.319468      607.44029     -109.94016     -5.2606154      0.0088063702   93268.689      0            
    152600   294.71135      484.56698     -5.8937666     -14.56157       31.057232      589.57764     -110.07347     -5.5390861      0.0090643173   90614.503      0            
    152700   290.67355      489.4527      -10.054392     -13.9447        32.95297       595.50896     -107.95251     -7.0576248      0.0092878777   88433.4        0            
    152800   313.20237      489.15874     -6.8939877     -15.929185      32.352712      591.79287     -107.70038     -4.4632946      0.0094954227   86500.478      0            
    152900   342.69643      490.70096     -9.522035      -14.512385      33.783659      597.25487     -110.85041     -5.4527441      0.0096521871   85095.595      0            
    153000   332.35692      495.01432     -6.2818546     -13.2661        39.312731      592.91833     -112.26818     -5.4005941      0.0098417063   83456.931      0            
    153100   300.42726      485.98336     -9.5131065     -12.65756       31.714753      593.848       -111.74029     -5.6684317      0.0099073779   82903.733      0            
    153200   275.13213      489.82822     -9.6494582     -9.1526656      30.313907      591.99328     -106.8561      -6.8207494      0.0099618291   82450.582      0            
    153300   283.50495      492.12957     -10.640932     -9.373287       30.814463      601.03702     -113.89945     -5.8082416      0.010064436    81610          0            
    153400   307.36696      492.61531     -11.30709      -15.418661      27.919184      614.42561     -116.5645      -6.4392333      0.010202766    80503.526      0            
    153500   373.47787      485.86608     -8.1649324     -15.525284      31.82694       582.95865     -100.73867     -4.4906221      0.010280568    79894.286      0            
    153600   289.33702      482.37454     -6.3264514     -14.386873      26.077555      587.19785     -105.89135     -4.2961915      0.010313355    79640.292      0            
    153700   301.85777      473.76785     -10.237794     -16.294231      24.212542      609.15735     -125.78507     -7.2849433      0.010237914    80227.146      0            
    153800   308.6865       478.00584     -7.7838619     -15.425257      28.203131      583.86103     -106.25572     -4.5934798      0.010257885    80070.952      0            
    153900   330.536        486.82287     -8.2690674     -10.621496      28.00621       585.41234     -101.88727     -5.8178433      0.010195542    80560.567      0            
    154000   297.77342      499.72161     -7.0665578     -11.14662       35.549012      612.98998     -123.81101     -6.7931819      0.010140184    81000.363      0            
    154100   296.31837      494.78029     -8.9030006     -9.4876291      33.310666      593.10883     -107.12704     -6.1215449      0.010103138    81297.372      0            
    154200   272.50554      480.89427     -11.565785     -13.658197      24.349152      599.56929     -112.81936     -4.9808313      0.010043353    81781.312      0            
    154300   244.53305      490.75028     -3.9159226     -13.017964      30.017485      598.67413     -114.33754     -6.669903       0.0099460866   82581.083      0            
    154400   280.06932      489.03417     -8.6102447     -16.249531      29.397594      612.58912     -121.96995     -6.1228123      0.0098752089   83173.796      0            
    154500   325.6494       488.75221     -6.8744484     -11.544056      32.440705      581.30036     -102.0199      -4.5504436      0.009927555    82735.237      0            
    154600   332.85675      479.23228     -10.216486     -16.804253      25.824071      602.18492     -115.53806     -6.2179154      0.0098749748   83175.768      0            
    154700   282.91014      486.12294     -8.6471989     -17.678877      31.895594      603.67282     -117.3187      -5.8006974      0.0097978919   83830.136      0            
    154800   266.37569      475.2239      -8.1024658     -19.488594      21.579185      592.82298     -105.46937     -6.1178439      0.0096776511   84871.69       0            
    154900   259.67457      475.03251     -8.9653511     -16.27478       31.714981      594.14286     -118.45119     -7.1340026      0.0095257121   86225.428      0            
    155000   312.06957      477.67259     -9.8880762     -16.33811       23.607229      596.63579     -110.01797     -6.3262666      0.0093876316   87493.699      0            
    155100   279.30017      490.86446     -10.047414     -18.799454      32.351077      612.35275     -119.25555     -5.7369551      0.0092379418   88911.429      0            
    155200   320.82981      482.89789     -8.8673541     -18.234484      23.309924      617.46993     -122.29268     -8.4874443      0.0091332714   89930.384      0            
    155300   297.55246      488.52299     -6.5383249     -12.986289      35.113074      593.77224     -115.57401     -5.2636983      0.0090105335   91155.38       0            
    155400   284.20956      483.10178     -7.3079457     -14.422317      23.716149      601.29831     -114.72233     -5.4600819      0.0088597052   92707.217      0            
    155500   288.9868       476.72384     -9.7842843     -14.866003      29.859815      586.34244     -109.34043     -5.4876998      0.0086680633   94756.877      0            
    155600   298.71036      475.76558     -10.153142     -15.611268      25.922507      597.11849     -115.793       -5.7180048      0.0084970906   96663.511      0            
    155700   308.97674      487.51441     -8.1055402     -16.730946      28.084307      593.64909     -104.26258     -5.1199226      0.0082481763   99580.632      0            
    155800   306.88         494.14595     -4.8114792     -15.885681      33.358493      609.01311     -120.39408     -7.1344108      0.0079357959   103500.47      0            
    155900   317.30163      488.06708     -9.2072534     -12.381482      35.115554      589.76266     -110.33456     -4.8878377      0.0076116357   107908.29      0            
    156000   259.42521      492.05271     -8.4628097     -11.544637      26.939163      598.24873     -107.9079      -5.219825       0.0072768023   112873.56      0            
    156100   278.96254      479.34335     -10.061311     -15.237222      29.72167       595.20457     -115.34975     -4.9346045      0.0069133211   118808.11      0            
    156200   268.75559      484.98091     -4.1887657     -15.558894      26.687837      592.13704     -107.57282     -6.5234869      0.006579187    124841.96      0            
    156300   311.8029       490.53764     -9.0776646     -13.729775      34.734637      600.01172     -115.29721     -6.1040631      0.006268131    131037.24      0            
    156400   306.58622      499.23175     -8.5403351     -13.530758      25.545622      610.37685     -108.51854     -6.1011008      0.00598231     137297.9       0            
    156500   308.30653      495.58367     -4.9771325     -12.67603       39.939856      588.05638     -110.09608     -4.6633252      0.0057537667   142751.46      0            
    156600   296.94626      485.04489     -8.1093954     -12.750617      25.563979      590.55507     -106.01799     -4.1961473      0.0055671636   147536.28      0            
    156700   277.83729      488.7449      -6.1524854     -11.208793      26.125289      604.24619     -118.40314     -5.862153       0.0054097408   151829.57      0            
    156800   267.72789      495.10704     -8.486855      -13.457545      30.453503      601.36744     -108.631       -6.1384982      0.0052427527   156665.53      0            
    156900   301.61419      489.27296     -6.4021843     -16.88783       34.336334      600.69051     -117.01512     -5.4487524      0.0051037251   160933.16      0            
    157000   297.20586      493.89702     -8.5991512     -13.022928      32.040429      610.54525     -121.61169     -5.454897       0.0050171843   163709.08      0            
    157100   291.41569      489.24212     -9.3865537     -16.107912      36.229343      583.2472      -99.421693     -5.3182628      0.0049618939   165533.29      0            
    157200   276.2066       484.95326     -7.264869      -19.099514      30.344362      600.82422     -113.96446     -5.8864815      0.004932126    166532.37      0            
    157300   263.17483      481.77695     -8.2479231     -18.237043      32.416942      592.07518     -109.81045     -6.4197572      0.004910029    167281.83      0            
    157400   245.28675      488.7969      -9.6853339     -14.075084      30.98126       594.6061      -107.62164     -5.4083939      0.0048891296   167996.9       0            
    157500   278.59042      491.1371      -11.571251     -17.947105      30.921058      610.55733     -114.95048     -5.8724543      0.0048364751   169825.87      0            
    157600   314.62074      492.38273     -7.7659022     -16.576575      25.393263      603.33152     -107.36211     -4.6374758      0.0047749231   172015.05      0            
    157700   313.20914      490.39802     -8.005336      -14.157739      36.236293      594.19024     -111.98855     -5.8768922      0.0047669869   172301.42      0            
    157800   259.14249      490.85315     -7.9510812     -15.973089      25.121898      593.14779     -98.670766     -4.8216009      0.0047332669   173528.9       0            
    157900   284.76227      482.48783     -7.0947957     -16.965126      25.913244      593.41191     -107.34523     -5.4321735      0.0046964534   174889.12      0            
    158000   306.9514       493.74197     -5.6871657     -16.555791      34.790979      604.10469     -116.13579     -6.7749546      0.0046548778   176451.17      0            
    158100   322.01735      500.53813     -6.5550044     -17.927164      37.638195      617.18548     -123.98685     -5.8165273      0.0046221738   177699.64      0            
    158200   338.27543      485.70865     -9.4776424     -18.515061      28.60328       606.44821     -114.3787      -6.9714408      0.0045725803   179626.94      0            
    158300   291.41319      484.58934     -9.3116139     -17.324952      38.016406      595.36039     -115.6447      -6.5061955      0.0045649766   179926.14      0            
    158400   311.9449       476.96345     -9.6310092     -17.307879      25.524055      596.819       -111.91664     -6.5240787      0.004560797    180091.02      0            
    158500   296.84321      487.74917     -8.2537381     -15.219803      28.493359      599.91317     -111.69657     -5.4872456      0.0045927679   178837.39      0            
    158600   359.4312       495.50504     -8.9012659     -11.725246      33.834535      586.22879     -97.990137     -5.9416354      0.0046001411   178550.74      0            
    158700   348.06559      490.9871      -7.6913195     -16.421525      43.379862      593.40136     -115.7962      -5.8850738      0.0046008789   178522.11      0            
    158800   297.96009      496.24664     -9.0676263     -13.302253      33.908669      607.34046     -117.58325     -5.0493568      0.0046211467   177739.13      0            
    158900   320.24813      483.05153     -7.9791341     -14.366064      33.589643      582.75048     -105.77197     -5.1714157      0.0046052027   178354.5       0            
    159000   256.00301      491.37949     -10.151099     -14.402636      34.509473      602.97304     -115.23933     -6.3099534      0.0046132691   178042.64      0            
    159100   300.58195      481.04234     -7.6209499     -16.111709      30.008122      595.41674     -115.09788     -5.5519739      0.0046157525   177946.85      0            
    159200   305.77526      494.06445     -7.3551976     -16.994851      34.362408      603.70577     -114.08237     -5.571299       0.0046178801   177864.86      0            
    159300   339.65634      491.28315     -11.092742     -17.024244      30.304389      618.18857     -122.27944     -6.8133847      0.0046130923   178049.46      0            
    159400   309.70422      487.81946     -8.2357576     -15.484385      32.438285      587.92922     -104.35613     -4.4717766      0.0046453343   176813.67      0            
    159500   287.5821       487.2226      -10.792837     -13.59505       34.319434      594.64417     -111.93896     -5.4141579      0.0046664824   176012.37      0            
    159600   307.98783      483.55942     -6.7763018     -13.970375      31.416188      599.10449     -119.49343     -6.7211464      0.0046982933   174820.63      0            
    159700   305.06811      488.43594     -9.3453912     -13.384648      26.776854      602.5848      -113.31845     -4.8772356      0.0047124631   174294.97      0            
    159800   322.51078      490.48911     -11.029678     -14.85424       34.43993       602.03585     -112.86601     -7.2367379      0.0047384721   173338.28      0            
    159900   349.30605      496.33683     -8.7874767     -14.383007      34.65025       609.37971     -118.5304      -5.9922489      0.0048099798   170761.34      0            
    160000   307.2089       500.14399     -8.7982778     -13.941036      36.086307      604.49215     -111.61265     -6.0825085      0.0048595766   169018.55      0            
    160100   275.99351      490.37631     -8.2361166     -13.947029      28.871523      603.19487     -112.84004     -6.6669061      0.0049275399   166687.36      0            
    160200   266.56729      492.10454     -10.96425      -13.595612      32.331491      605.07438     -115.81464     -4.9268365      0.0050171987   163708.61      0            
    160300   272.54116      495.2314      -8.9893587     -13.304098      35.778561      607.0054      -119.97932     -5.2797813      0.0051329688   160016.29      0            
    160400   342.06775      490.15053     -11.03214      -15.063921      35.59072       594.72217     -108.00327     -6.0630304      0.0052583627   156200.45      0            
    160500   333.2706       495.16429     -10.986791     -14.996928      31.218988      606.68482     -112.00401     -4.7517895      0.0053720147   152895.82      0            
    160600   288.431        484.8907      -9.9257801     -15.547616      32.21146       596.89868     -113.24212     -5.5039217      0.0055329535   148448.49      0            
    160700   272.07084      485.29424     -8.9126024     -13.891727      31.428133      598.08452     -116.12246     -5.2916217      0.0056758917   144710.06      0            
    160800   296.84221      482.64354     -10.983179     -14.596454      26.733083      601.87114     -114.47426     -5.9067839      0.0058293945   140899.47      0            
    160900   297.93803      493.47739     -10.780388     -15.284504      38.575036      587.47857     -101.98462     -4.5267093      0.0060304531   136201.81      0            
    161000   338.50502      489.02188     -10.878844     -16.083493      36.992775      603.92924     -118.97409     -5.9637121      0.006255419    131303.53      0            
    161100   293.51784      491.40811     -9.2219181     -15.525125      31.480105      610.5828      -120.05691     -5.8508464      0.0064840171   126674.34      0            
    161200   299.66189      486.63166     -10.3867       -15.402897      30.137214      599.90983     -112.93269     -4.693092       0.0066444494   123615.75      0            
    161300   302.63792      484.00172     -11.386302     -14.779963      27.159525      602.98512     -114.08824     -5.8884145      0.0067846801   121060.77      0            
    161400   288.19278      487.23144     -10.747535     -12.20797       32.933491      594.80611     -111.96481     -5.5878395      0.0069216506   118665.14      0            
    161500   290.75932      488.75474     -8.7078361     -13.711992      35.498547      585.7102      -104.60882     -5.4253648      0.0070787393   116031.76      0            
    161600   347.94798      485.56271     -8.2370341     -14.218347      25.322472      599.64537     -110.17465     -6.7751039      0.0072157459   113828.65      0            
    161700   333.52902      495.54129     -7.8851862     -15.037503      35.867311      606.33552     -117.52779     -6.2110578      0.0073643765   111531.32      0            
    161800   335.97012      485.30645     -8.5600223     -12.809506      34.103588      592.93545     -113.97698     -6.3860722      0.0075131408   109322.94      0            
    161900   273.5482       485.72592     -9.1706529     -14.213416      28.00986       605.75231     -116.83178     -7.8203967      0.0076872189   106847.3       0            
    162000   266.92191      492.00706     -6.955503      -12.89335       31.705812      593.97338     -109.09597     -4.7273157      0.0078972831   104005.21      0            
    162100   338.32669      483.30365     -6.5232        -13.984834      21.0057        604.96598     -115.56183     -6.5981746      0.008063138    101865.88      0            
    162200   283.2863       501.57348     -6.4807611     -12.799837      36.53476       601.93072     -112.6117      -4.9996983      0.0082230557   99884.841      0            
    162300   305.34761      495.36742     -8.8468268     -14.6622        33.903941      597.25794     -105.5671      -6.7183364      0.0083550371   98306.998      0            
    162400   285.75416      485.46028     -7.4701874     -15.743471      33.847017      597.01834     -116.67225     -5.5191697      0.0084346329   97379.296      0            
    162500   261.84366      483.06992     -7.2477082     -18.338217      27.461131      598.41319     -110.65354     -6.5649381      0.0085223248   96377.295      0            
    162600   261.91585      487.90167     -8.3625624     -17.579463      40.58233       608.49755     -129.02221     -6.2139695      0.0086017041   95487.894      0            
    162700   305.851        493.42185     -9.1284836     -16.73071       36.976314      606.31233     -116.48129     -7.5263168      0.0087178808   94215.398      0            
    162800   304.07779      496.70046     -6.5916907     -15.513223      38.511934      592.30675     -107.5301      -4.4832148      0.0088979239   92309.017      0            
    162900   313.24967      488.57068     -7.5916565     -15.027386      29.148141      591.69914     -102.39088     -7.2666773      0.0090509305   90748.527      0            
    163000   303.8783       484.30211     -5.6708046     -17.965429      28.767265      600.46519     -115.85023     -5.4438816      0.0092228001   89057.402      0            
    163100   293.28993      483.67008     -8.6161311     -18.083568      26.497975      602.85156     -111.47215     -7.5076003      0.0092939471   88375.649      0            
    163200   284.60112      487.04622     -8.0242542     -15.874879      31.492422      587.26881     -102.91742     -4.8984507      0.0093326401   88009.245      0            
    163300   332.94206      492.68777     -9.2670643     -12.874581      28.885775      594.40613     -104.99817     -3.4643309      0.0093923082   87450.134      0            
    163400   340.35917      499.48701     -7.2652392     -12.044939      41.487229      591.91941     -109.68258     -4.9268695      0.0094965514   86490.198      0            
    163500   312.42439      492.09186     -7.901407      -14.102899      27.14295       587.02361     -95.594887     -4.4755086      0.0095986789   85569.964      0            
    163600   312.23216      479.99564     -9.7485746     -15.284485      29.057691      593.00818     -113.21099     -3.8261788      0.0096958147   84712.697      0            
    163700   284.22931      486.73525     -7.3326125     -13.61583       24.971641      603.03672     -114.10334     -6.2213242      0.0097956332   83849.466      0            
    163800   296.06286      490.05313     -10.769439     -13.233994      35.057648      607.27781     -122.75702     -5.5218742      0.0098972042   82988.952      0            
    163900   337.47545      496.34823     -6.8574812     -13.334115      32.300659      595.52168     -105.85365     -5.4288714      0.010025583    81926.269      0            
    164000   331.16871      499.89903     -9.9815464     -12.413705      40.927123      591.57901     -104.78092     -5.4309347      0.010021062    81963.232      0            
    164100   299.474        489.8948      -9.2054629     -13.3901        35.723182      593.86804     -111.96686     -5.1340002      0.010061217    81636.113      0            
    164200   269.97833      492.17458     -9.2186559     -14.51478       33.849659      597.7955      -110.46994     -5.2672084      0.01009465     81365.731      0            
    164300   276.84271      492.91019     -10.820778     -11.437129      34.29095       595.80354     -109.31219     -5.6142106      0.0100724      81545.469      0            
    164400   283.39267      492.83316     -9.9694237     -10.737681      29.933297      596.43661     -107.56202     -5.2676173      0.010113315    81215.571      0            
    164500   313.77384      489.71824     -9.7840036     -10.862709      32.469215      586.05301     -103.46107     -4.6962054      0.010095128    81361.879      0            
    164600   306.18373      492.90405     -8.4506682     -14.606793      31.819825      585.97155     -96.08488      -5.7449808      0.01011498     81202.196      0            
    164700   326.46787      486.68859     -6.6498941     -14.688887      25.95342       599.25039     -112.07134     -5.1050967      0.010035908    81841.979      0            
    164800   298.75931      479.21428     -6.1695931     -16.869322      26.861584      593.00011     -110.8908      -6.7176882      0.0098848452   83092.714      0            
    164900   273.96504      477.83066     -10.39994      -18.763292      35.467974      589.87981     -111.86362     -6.4902711      0.0097615702   84142.058      0            
    165000   246.54516      493.38445     -7.2547044     -16.8413        34.634277      602.72831     -113.01092     -6.8712197      0.0096663254   84971.132      0            
    165100   344.10501      486.626       -6.4787241     -15.700492      26.079074      596.37561     -107.59463     -6.0548391      0.0094880558   86567.641      0            
    165200   348.5641       483.09259     -9.0867314     -15.977391      29.978616      598.17765     -114.35659     -5.6429615      0.0092751043   88555.189      0            
    165300   301.82575      488.40748     -7.0501443     -14.065802      21.717872      598.23805     -104.12607     -6.306424       0.0090895655   90362.803      0            
    165400   267.35113      489.72502     -5.4225047     -14.156291      29.747445      602.96789     -116.83648     -6.5750427      0.0088990123   92297.728      0            
    165500   301.93742      481.59127     -7.4823898     -13.288192      24.575583      594.23572     -110.03516     -6.4142984      0.0087046334   94358.783      0            
    165600   330.13258      487.42741     -7.4865188     -16.59442       27.809439      612.01825     -121.99426     -6.3250838      0.0084345797   97379.91       0            
    165700   366.41487      490.98307     -8.7744236     -12.619895      32.70174       596.89352     -110.4795      -6.7383576      0.0082048752   100106.17      0            
    165800   315.26452      491.7799      -6.0182239     -11.821592      27.469945      603.73241     -114.63513     -6.9475072      0.0080221277   102386.63      0            
    165900   281.67055      490.3159      -7.2020562     -12.226654      24.758426      605.81096     -114.11384     -6.7109345      0.0077738481   105656.63      0            
    166000   285.8295       486.49161     -6.9508143     -16.101122      34.038608      590.92888     -110.41075     -5.0131936      0.0075262046   109133.18      0            
    166100   311.82695      486.50806     -6.8859919     -15.810816      33.169931      600.06976     -116.2837      -7.7511185      0.0073110107   112345.43      0            
    166200   310.81867      493.96156     -12.17923      -14.301546      32.53775       611.93195     -117.93744     -6.0899213      0.0071287153   115218.32      0            
    166300   293.70647      511.05988     -8.2069209     -14.269893      43.127042      612.12228     -115.08383     -6.6288027      0.006881004    119366.1       0            
    166400   332.21879      497.26715     -8.5184243     -14.902911      37.950018      596.6208      -107.77432     -6.1080165      0.0065926406   124587.2       0            
    166500   281.69998      491.76297     -9.4399489     -15.829317      29.321661      602.71765     -109.98823     -5.0188466      0.0063836138   128666.71      0            
    166600   272.59584      487.68217     -5.4695949     -17.460403      31.895         588.62704     -103.29967     -6.6102029      0.006248121    131456.9       0            
    166700   300.4968       480.40478     -9.7890419     -20.100032      29.908461      613.68934     -126.39602     -6.9079297      0.0060979823   134693.51      0            
    166800   333.24623      484.25159     -6.7921202     -18.112359      39.091128      594.94525     -117.12805     -7.7522554      0.0059669623   137651.05      0            
    166900   349.80696      494.52838     -9.8573141     -16.712152      37.052324      606.76242     -116.81418     -5.9027156      0.0058792598   139704.42      0            
    167000   328.52924      490.58236     -10.007648     -14.425495      29.665138      607.42688     -116.08684     -5.9896828      0.0057906545   141842.1       0            
    167100   322.05641      481.19779     -8.9780052     -14.604845      31.706491      589.32032     -111.52027     -4.7258978      0.0056733726   144774.31      0            
    167200   278.23111      490.47145     -7.8648333     -14.03536       33.910621      598.64487     -114.10981     -6.0740433      0.005532892    148450.14      0            
    167300   302.90636      486.64072     -11.003838     -17.159896      29.815979      588.26078     -97.339192     -5.9331138      0.0054083222   151869.39      0            
    167400   292.09321      494.8578      -4.9307954     -17.328014      41.149635      592.65615     -110.61141     -6.0777654      0.0053247549   154252.85      0            
    167500   322.65137      492.30901     -6.5229951     -17.175042      30.65059       604.56566     -112.99521     -6.2140006      0.0052589826   156182.04      0            
    167600   313.52878      486.64413     -7.9091688     -17.470832      27.802146      610.83858     -121.33329     -5.2833078      0.0052138217   157534.85      0            
    167700   248.68482      487.90626     -4.947094      -18.379095      31.430366      605.66335     -118.53257     -7.328693       0.005192173    158191.69      0            
    167800   296.81186      477.48286     -8.4765096     -17.744783      25.756411      592.23895     -108.04039     -6.2508115      0.0051667377   158970.45      0            
    167900   303.72776      486.71372     -9.0606125     -17.172888      33.021302      598.78674     -113.43316     -5.4276685      0.005129428    160126.75      0            
    168000   331.85552      492.58569     -8.7586865     -17.153348      36.476523      600.35457     -111.28878     -7.0445832      0.0050977404   161122.09      0            
    168100   304.01633      498.04091     -9.1550065     -13.463586      36.829593      609.26975     -118.72043     -6.7194001      0.0050716224   161951.84      0            
    168200   291.25679      492.76497     -6.4222772     -13.520164      38.524786      595.88012     -115.28606     -6.4114253      0.0050548909   162487.9       0            
    168300   317.23755      478.62696     -7.5607002     -16.239663      28.018085      601.02703     -119.92556     -6.6922283      0.0049721092   165193.2       0            
    168400   277.74921      488.64106     -6.3114713     -15.782199      28.19498       591.05431     -103.17923     -5.335329       0.0049344928   166452.49      0            
    168500   321.30315      493.30071     -6.8780347     -16.606541      37.006462      594.30864     -108.10156     -6.4282555      0.0049233677   166828.61      0            
    168600   334.05295      498.11747     -9.0918246     -15.878129      41.308533      602.22097     -114.05051     -6.3915743      0.0048874934   168053.14      0            
    168700   314.74605      487.97169     -5.3744941     -19.647657      28.883699      607.37978     -117.69153     -5.5781013      0.0049010519   167588.23      0            
    168800   265.71998      490.33977     -9.0847745     -18.234452      35.302203      604.86056     -115.44227     -7.0614931      0.0049270153   166705.11      0            
    168900   267.34657      490.90154     -9.8402209     -17.111265      35.991328      589.07323     -103.05162     -4.1599119      0.0049999389   164273.73      0            
    169000   268.27343      494.62648     -7.9986096     -13.963044      35.453085      603.32659     -116.1112      -6.080334       0.0050374171   163051.54      0            
    169100   328.9536       485.27834     -9.1086471     -18.302153      36.177501      591.80746     -110.5986      -4.6972128      0.0050050639   164105.52      0            
    169200   332.45526      499.27402     -8.9161559     -16.563406      39.816353      597.84988     -107.26192     -5.6507405      0.0049848339   164771.51      0            
    169300   332.72968      482.0997      -7.6274723     -23.345414      36.561643      601.58953     -118.54992     -6.5286553      0.0049474166   166017.68      0            
    169400   310.82614      479.9272      -7.8091949     -17.860201      31.929237      591.57634     -111.5186      -6.3903823      0.0049012611   167581.08      0            
    169500   298.31189      483.01081     -9.0894866     -16.195032      29.957073      592.36376     -107.5235      -6.5020015      0.0048529352   169249.86      0            
    169600   291.49325      492.58333     -8.7602235     -15.358567      35.107465      595.3487      -108.07288     -5.6811668      0.0048361968   169835.65      0            
    169700   343.52519      491.1408      -7.2094845     -16.587517      35.367875      603.68415     -118.3664      -5.7478209      0.0048375677   169787.52      0            
    169800   328.8974       495.49372     -5.8585792     -14.684742      37.921632      600.34553     -116.7231      -5.5070205      0.0048773634   168402.18      0            
    169900   246.22508      492.19989     -7.6947026     -14.983466      38.035276      597.60109     -113.50959     -7.2487272      0.0049314003   166556.87      0            
    170000   272.95454      487.33225     -5.3694199     -13.679241      30.415693      595.11494     -113.57021     -5.5795191      0.0050079469   164011.04      0            
    170100   289.4734       491.3491      -9.4252858     -13.471972      32.188894      595.57499     -108.98112     -4.536404       0.0050510926   162610.09      0            
    170200   293.1221       498.34413     -6.5865746     -14.985295      32.722061      605.51286     -112.00997     -6.3089527      0.0050798993   161687.97      0            
    170300   300.53621      497.00827     -7.8471448     -16.251777      39.638815      593.85673     -106.47838     -5.9099655      0.005119473    160438.12      0            
    170400   264.08225      490.14491     -8.658746      -16.860433      31.716443      600.43696     -110.99079     -5.498524       0.0051955739   158088.14      0            
    170500   259.33225      485.31005     -8.4572483     -14.878729      31.706995      603.6784      -119.19111     -7.5482562      0.0053167249   154485.82      0            
    170600   301.60272      482.87709     -8.0619038     -14.828251      29.332984      599.71151     -116.84921     -6.4280436      0.0054857317   149726.36      0            
    170700   303.25613      489.60779     -9.7062707     -15.743365      32.553651      597.76827     -109.96929     -5.2951956      0.0056951769   144220.03      0            
    170800   306.33854      488.50573     -6.1986583     -17.923747      34.159623      604.69319     -119.51225     -6.7124254      0.0059111985   138949.59      0            
    170900   314.48007      485.64288     -6.6284717     -16.916105      28.380699      606.12268     -119.52787     -5.7880528      0.0061371757   133833.32      0            
    171000   270.56888      483.4339      -9.1235196     -15.767246      27.164276      601.01656     -112.64774     -7.2084236      0.0063648744   129045.53      0            
    171100   262.9777       475.77472     -10.581204     -14.44388       30.137837      592.94873     -115.78971     -6.4970624      0.0065865121   124703.12      0            
    171200   281.89492      480.24012     -7.9837742     -14.249185      22.607859      593.54511     -108.37075     -5.3091473      0.006839559    120089.41      0            
    171300   301.42454      486.74864     -8.6885668     -13.255952      34.942693      593.19371     -114.06181     -5.3814392      0.0070755263   116084.45      0            
    171400   324.85371      485.9513      -11.250435     -12.994459      32.563042      605.13123     -121.65875     -5.8393284      0.007310657    112350.86      0            
    171500   297.3563       490.76647     -7.6038661     -14.472485      36.651455      584.91478     -104.21141     -4.5119987      0.0075136329   109315.78      0            
    171600   291.21076      484.07478     -10.465565     -14.560865      27.973551      601.92126     -113.88727     -6.9063304      0.0076999369   106670.82      0            
    171700   254.21644      480.83543     -7.0890785     -14.968289      29.192961      600.1211      -119.8564      -6.5648656      0.0079369493   103485.43      0            
    171800   282.08575      479.21811     -7.447551      -15.144442      32.276328      580.39623     -106.4898      -4.3726606      0.0081642897   100603.81      0            
    171900   277.69423      494.69911     -9.5360193     -15.048949      31.143882      604.75573     -110.29682     -6.3187163      0.0083528232   98333.053      0            
    172000   313.9762       487.25644     -9.2992389     -15.142762      27.536622      593.24345     -104.90747     -4.1741534      0.0084872866   96775.171      0            
    172100   314.48423      481.2432      -5.5590583     -16.561497      33.078627      592.50264     -116.50651     -5.7110091      0.0085939316   95574.255      0            
    172200   284.80493      480.92132     -7.6062595     -15.961272      30.200652      601.59283     -119.91815     -7.3864785      0.0086460087   94998.587      0            
    172300   285.66574      475.43917     -8.2150106     -19.226885      28.155844      589.08341     -109.27717     -5.0810184      0.0087360859   94019.063      0            
    172400   328.09933      478.44774     -8.3104258     -18.789065      34.738586      582.97146     -105.3128      -6.8500137      0.0087557492   93807.918      0            
    172500   295.01729      496.64207     -7.7371176     -17.136685      36.435647      608.38118     -117.42609     -5.8748633      0.0088177587   93148.229      0            
    172600   287.94386      497.85619     -6.1060016     -15.030822      33.244016      604.34089     -112.34549     -6.2464073      0.0089163901   92117.841      0            
    172700   273.24706      490.4148      -3.5639082     -14.69847       29.08735       594.99426     -110.18696     -5.2174655      0.0090375027   90883.36       0            
    172800   261.43653      484.84698     -7.3070235     -14.306269      28.572203      599.69364     -116.08365     -5.7219211      0.0091235024   90026.678      0            
    172900   271.07847      490.68789     -6.4065209     -15.415239      30.068216      594.98758     -107.57365     -4.9724862      0.0092428469   88864.244      0            
    173000   362.20862      486.982       -6.9509233     -15.826382      31.163627      588.02217     -104.64168     -4.7848151      0.0093406641   87933.642      0            
    173100   325.23147      490.64298     -6.1575732     -15.770396      36.500635      596.49481     -114.69508     -5.7294123      0.0093845526   87522.405      0            
    173200   296.52059      483.87342     -6.5734755     -15.280861      31.646516      598.86486     -119.57276     -5.2108559      0.0094148334   87240.907      0            
    173300   299.88647      480.68112     -8.1387879     -16.587607      28.157726      599.49371     -115.65868     -6.5852406      0.0094634425   86792.793      0            
    173400   317.94944      482.9592      -7.4463302     -17.160045      32.340887      598.90036     -118.07892     -5.5967528      0.0094942641   86511.035      0            
    173500   334.11058      495.52447     -6.1738553     -16.110147      29.77889       600.84267     -105.88939     -6.9236955      0.0094866112   86580.823      0            
    173600   362.15504      489.01688     -5.7587251     -14.908678      33.046288      608.26889     -124.35279     -7.2781175      0.0094791322   86649.136      0            
    173700   285.66597      498.26579     -6.4908191     -15.600927      34.254678      605.76921     -114.07014     -5.5962152      0.0095010276   86449.45       0            
    173800   290.90263      491.15057     -7.7227839     -14.792551      31.48527       602.22406     -113.33218     -6.7112505      0.009488241    86565.951      0            
    173900   274.44635      490.51509     -6.0502536     -14.394931      31.289144      600.15149     -114.1974      -6.2829614      0.0094617782   86808.06       0            
    174000   274.56462      489.19449     -6.18977       -16.383668      32.758895      597.8829      -112.57408     -6.2997876      0.0094546804   86873.228      0            
    174100   313.44731      490.011       -7.9213691     -15.25422       35.091546      597.58571     -112.6545      -6.8361635      0.0094219404   87175.101      0            
    174200   321.03577      497.44172     -6.4481669     -13.956548      38.224868      612.49982     -125.77972     -7.0985287      0.0093620333   87732.929      0            
    174300   350.42527      484.41179     -4.5979228     -16.046161      32.285879      585.34195     -107.17225     -5.3997046      0.0093182819   88144.855      0            
    174400   273.43879      486.51588     -6.345345      -16.379967      29.865312      595.16174     -109.95979     -5.8260685      0.0092760578   88546.086      0            
    174500   293.26472      480.91251     -7.7867783     -15.935097      24.523517      603.73226     -116.52785     -7.0935409      0.0092456211   88837.581      0            
    174600   288.85381      485.24071     -6.4608804     -18.780122      36.621826      601.25869     -120.84441     -6.5543952      0.0092273374   89013.61       0            
    174700   299.67933      491.52854     -3.498962      -14.802621      32.351752      604.90468     -120.55276     -6.8735515      0.0092180231   89103.553      0            
    174800   298.76803      494.66323     -4.6446407     -13.23012       29.92072       613.84418     -125.54352     -5.6833844      0.0091517522   89748.781      0            
    174900   295.5429       485.01437     -8.4662963     -13.624833      26.74254       594.03482     -107.39563     -6.2762261      0.0090413435   90844.752      0            
    175000   242.59264      483.91648     -6.5281111     -14.50078       25.739996      594.45157     -110.28084     -4.9653539      0.0088956276   92332.845      0            
    175100   268.25459      483.41242     -8.3385957     -14.99418       35.278553      599.06924     -120.97444     -6.6281465      0.0087278721   94107.545      0            
    175200   330.99694      482.02648     -8.0383336     -14.233087      26.026378      597.81554     -113.52063     -6.0233894      0.0085552241   96006.674      0            
    175300   348.03067      481.80191     -7.8217503     -15.693324      32.17295       592.00726     -112.11351     -6.7497146      0.0083439192   98437.987      0            
    175400   312.73465      486.86676     -5.8384566     -16.293711      28.497456      602.37882     -116.43157     -5.4457778      0.0080957162   101455.95      0            
    175500   309.42874      474.46444     -7.9139618     -16.544481      27.315445      591.97658     -114.86692     -5.5022216      0.0077763726   105622.33      0            
    175600   273.37608      474.08025     -9.8316828     -16.146562      24.700717      592.49605     -111.75533     -5.3829392      0.0074728737   109912.01      0            
    175700   277.13036      478.86273     -5.0372447     -19.26202       28.596305      597.25367     -116.66657     -6.021413       0.0071736941   114495.91      0            
    175800   318.97946      478.12081     -5.8138183     -17.434689      31.802174      594.38414     -118.81697     -6.0000243      0.0068987818   119058.5       0            
    175900   295.4663       489.60576     -7.5381383     -15.952723      30.812775      602.74508     -113.71786     -6.7433762      0.0066423534   123654.76      0            
    176000   292.16595      493.73248     -8.0520135     -14.33823       34.608386      610.81193     -123.06966     -6.2279368      0.0063912793   128512.4       0            
    176100   289.30081      490.39174     -8.6403741     -13.855987      34.431689      594.68255     -110.5644      -5.6617382      0.0061771659   132966.9       0            
    176200   284.90378      481.6585      -6.4818742     -12.184036      29.526902      575.57261     -98.866893     -5.9082094      0.005944905    138161.77      0            
    176300   262.38366      483.75342     -4.6662075     -12.983331      31.651792      591.76126     -117.06585     -4.9442397      0.005720515    143581.23      0            
    176400   304.96086      488.83601     -6.5446682     -14.729409      31.496298      606.16819     -121.05505     -6.4993405      0.0055257762   148641.31      0            
    176500   300.0625       495.62875     -8.9961561     -14.162795      41.005306      592.89743     -108.94166     -6.1733686      0.0053934152   152289.15      0            
    176600   306.02309      492.0034      -6.0782737     -13.766622      37.957994      591.6301      -110.56157     -7.1782349      0.0052735346   155751.06      0            
    176700   294.55532      488.1181      -6.108821      -13.178211      34.087155      599.46696     -118.53582     -7.6131619      0.0052097572   157657.75      0            
    176800   271.96887      484.08274     -5.5891995     -13.159813      29.721296      600.6864      -121.43957     -6.1363709      0.0051694555   158886.87      0            
    176900   245.72666      484.58211     -4.7046898     -13.659469      34.831336      590.27746     -115.25339     -6.9091352      0.0051137682   160617.1       0            
    177000   288.44195      486.08824     -8.4758421     -13.040128      26.458109      593.39054     -107.08323     -5.1612099      0.005047775    162716.96      0            
    177100   315.23847      489.69332     -7.6049772     -15.995712      30.875017      600.19973     -111.11476     -6.6659802      0.0049805243   164914.09      0            
    177200   306.00004      489.62092     -7.6804412     -18.225333      30.765285      610.58993     -120.23114     -5.5973792      0.0048935076   167846.6       0            
    177300   261.86317      495.10281     -3.313393      -14.338975      33.971998      598.93499     -113.06975     -7.0820622      0.0048019005   171048.65      0            
    177400   251.93574      486.38511     -6.543259      -14.620261      27.133242      593.88089     -108.34347     -5.122026       0.0047383238   173343.71      0            
    177500   239.45463      487.88357     -7.1414156     -15.352009      32.166369      596.10761     -111.88422     -6.0127647      0.004687861    175209.68      0            
    177600   256.49874      503.69422     -5.3739387     -14.618956      42.371918      601.14151     -113.97886     -5.847451       0.0046479153   176715.49      0            
    177700   328.35699      490.69982     -6.244761      -17.487046      37.790107      581.92871     -99.002049     -6.2851432      0.0046293908   177422.61      0            
    177800   322.36509      483.61264     -7.9208437     -17.351299      32.590116      594.9147      -112.56245     -6.0575828      0.0045978729   178638.83      0            
    177900   275.4535       484.42501     -4.7721641     -17.958403      32.080892      593.04123     -112.03572     -5.9308222      0.0045649629   179926.68      0            
    178000   281.31059      480.95181     -6.4373092     -18.56329       29.232759      591.97959     -109.97228     -5.2876563      0.0045316224   181250.45      0            
    178100   301.39032      496.28708     -7.1574744     -14.113946      34.953731      594.26608     -106.7744      -4.8869038      0.0045151212   181912.86      0            
    178200   378.7423       487.93337     -4.1080269     -13.482602      30.100013      600.27883     -118.70716     -6.147683       0.0045014622   182464.85      0            
    178300   331.89826      487.92481     -7.8709513     -15.241208      35.855855      600.9245      -120.43442     -5.3089622      0.0045281643   181388.87      0            
    178400   286.25076      490.49354     -6.8717065     -13.908525      30.699001      593.93066     -108.12918     -5.2267112      0.0045630422   180002.42      0            
    178500   281.96982      487.85964     -5.9972758     -16.589206      33.159043      600.00296     -117.67156     -5.0443248      0.0046246131   177605.91      0            
    178600   282.64579      491.64549     -6.329437      -16.775262      37.345961      598.07623     -114.46679     -6.2052099      0.0047223159   173931.31      0            
    178700   355.57112      485.4916      -6.7918464     -17.474073      29.606268      589.32948     -105.07866     -4.0995654      0.0047782613   171894.87      0            
    178800   357.14855      500.07616     -5.9000718     -18.112046      40.036098      604.79434     -115.66881     -5.0733504      0.0048020987   171041.59      0            
    178900   274.41454      504.89943     -7.8824245     -16.876946      44.823389      602.54903     -112.32874     -5.3848708      0.0048023651   171032.1       0            
    179000   313.63368      485.82133     -6.4154324     -17.199267      41.015958      585.84373     -111.68552     -5.7381382      0.0048080323   170830.51      0            
    179100   301.84259      487.14316     -5.2608764     -15.109419      26.509975      602.28013     -116.68724     -4.5894126      0.0048126918   170665.12      0            
    179200   263.47558      497.20613     -6.3027975     -14.530744      34.236037      602.68045     -113.37246     -5.5043613      0.0048394668   169720.89      0            
    179300   320.09205      492.58232     -6.8664576     -16.487952      37.502781      592.76718     -109.09861     -5.2346218      0.0048611806   168962.78      0            
    179400   303.63819      506.83006     -5.2185089     -16.082902      35.603206      600.65875     -103.19909     -4.9313995      0.0049298874   166607.99      0            
    179500   301.76917      494.56564     -5.7804381     -16.022197      39.355791      616.84717     -132.30793     -7.5267572      0.0050406464   162947.08      0            
    179600   274.4574       489.35925     -7.5883702     -16.550822      33.597154      595.00031     -109.94092     -5.1581012      0.0051701507   158865.51      0            
    179700   311.93138      483.12591     -6.584106      -15.080744      33.517489      585.73023     -107.59323     -6.8637363      0.0053405716   153796.01      0            
    179800   322.63065      485.28968     -7.4557372     -15.376326      28.331317      598.75202     -113.74398     -5.2176138      0.0055276312   148591.43      0            
    179900   369.25358      488.13615     -5.783324      -13.576336      32.94474       586.49062     -106.80942     -5.1301212      0.0057724673   142289         0            
    180000   374.12943      492.71359     -4.9015671     -14.17185       27.384115      601.07448     -110.49594     -6.1756399      0.0060740442   135224.34      0            
    180100   307.46197      495.14911     -5.9560567     -13.316032      31.198854      603.08493     -113.94747     -5.9151182      0.0064142634   128051.9       0            
    180200   288.35411      485.80092     -6.5176363     -14.823254      29.989203      609.04026     -126.44044     -5.4472188      0.0067793206   121156.48      0            
    180300   303.94611      482.66545     -6.0397259     -15.781002      31.126785      579.80473     -101.13217     -5.3131723      0.0071538697   114813.19      0            
    180400   289.49243      497.43942     -9.7901674     -12.171333      40.428805      601.1859      -116.04356     -6.1702288      0.0075114911   109346.95      0            
    180500   311.71673      500.07937     -6.4662892     -13.430626      33.495965      601.97975     -110.10575     -5.393678       0.0078275954   104931.15      0            
    180600   345.03534      485.74371     -6.7605718     -12.730736      28.140624      605.03175     -120.72436     -7.2129897      0.0081239932   101102.82      0            
    180700   276.22168      486.0605      -7.3210972     -13.916637      32.031872      596.56689     -115.03137     -6.2691549      0.008370979    98119.779      0            
    180800   302.46907      482.46543     -7.3864892     -12.637409      34.699902      579.05035     -104.08093     -7.1799897      0.008528622    96306.134      0            
    180900   282.33538      493.14709     -7.0662325     -14.52201       35.504431      602.21084     -117.47033     -5.509597       0.0086793429   94633.732      0            
    181000   322.50316      493.78571     -6.1660253     -13.281854      35.306198      597.95138     -113.64187     -6.3821147      0.0088193786   93131.12       0            
    181100   320.24406      492.32451     -7.2417885     -14.415696      36.548138      604.80655     -120.4599      -6.9127885      0.0089666792   91601.204      0            
    181200   248.41271      487.22199     -7.3983688     -15.254545      33.366939      590.96409     -109.28155     -5.1745682      0.0091148172   90112.461      0            
    181300   234.53657      489.92711     -5.2235857     -14.716688      34.723515      595.15453     -112.54324     -7.4674178      0.009280304    88505.571      0            
    181400   300.8852       486.47761     -7.6015669     -15.321112      28.934351      597.98065     -111.95818     -5.5565344      0.0094316973   87084.921      0            
    181500   318.19887      487.66692     -8.8585127     -17.172738      29.940218      605.74176     -114.82328     -7.1605224      0.0096218708   85363.712      0            
    181600   310.09936      491.68894     -7.0394282     -13.180345      36.957359      594.04237     -113.48048     -5.6105327      0.0098092479   83733.088      0            
    181700   293.44911      485.81222     -5.6626168     -13.02021       28.781282      598.20044     -115.90105     -6.5856266      0.0099317497   82700.293      0            
    181800   258.01688      480.79891     -8.5673867     -13.186476      31.465722      599.00499     -121.24329     -6.6746452      0.010044174    81774.626      0            
    181900   282.22683      480.17822     -8.5946858     -12.752546      29.899948      589.22304     -111.10996     -6.487574       0.010133765    81051.669      0            
    182000   298.14771      495.47335     -7.0755766     -11.77105       34.034535      601.45377     -113.44702     -7.721315       0.010183895    80652.702      0            
    182100   295.07688      494.94392     -7.5044109     -13.84219       38.126068      599.23269     -115.68822     -5.3800132      0.010193727    80574.908      0            
    182200   301.86614      486.55564     -7.0686678     -16.837385      31.134471      590.20856     -105.41975     -5.4615884      0.010307869    79682.679      0            
    182300   296.67106      481.58585     -6.2729438     -17.088992      28.474062      588.94487     -106.09573     -6.3754169      0.010310501    79662.335      0            
    182400   272.50351      483.86548     -6.8898637     -16.064461      33.62689       596.72758     -117.21975     -6.3149071      0.010366255    79233.881      0            
    182500   272.00006      487.53482     -5.8464583     -14.847212      21.491906      614.39092     -121.23106     -6.4232768      0.010465916    78479.379      0            
    182600   319.18303      490.77308     -7.4156027     -17.405031      35.77236       602.17757     -115.39644     -6.959777       0.010498898    78232.839      0            
    182700   335.9379       489.9235      -7.5984542     -17.63483       34.504695      611.21574     -122.82128     -7.7423754      0.010565577    77739.119      0            
    182800   299.5624       488.42245     -6.3540342     -17.308195      39.538849      593.53629     -115.16648     -5.8239912      0.010527573    78019.753      0            
    182900   307.78316      481.49302     -5.6126064     -14.173737      29.838021      598.12216     -121.14102     -5.5398027      0.010456391    78550.871      0            
    183000   280.92932      485.3715      -7.9889115     -16.884711      32.701637      593.34475     -109.68528     -6.1159844      0.010350713    79352.851      0            
    183100   306.4427       482.70874     -6.9500948     -18.874622      25.191112      604.48639     -114.74539     -6.3986519      0.010296113    79773.656      0            
    183200   319.18333      486.49278     -5.2220544     -18.624203      24.941856      609.92825     -120.0391      -4.4919728      0.01015915     80849.147      0            
    183300   346.43259      488.94793     -6.0217083     -16.093674      26.606261      609.32594     -117.49221     -7.3766749      0.010131158    81072.532      0            
    183400   317.64567      494.49946     -6.5916046     -13.699965      31.369496      592.38717     -104.11664     -4.8490016      0.010019597    81975.214      0            
    183500   262.25689      495.45535     -3.6347786     -11.736852      36.298167      589.04414     -107.49759     -7.017726       0.0098493212   83392.408      0            
    183600   260.0784       487.64046     -4.8153974     -15.575407      28.482974      592.50043     -108.64497     -4.3071749      0.0097043055   84638.577      0            
    183700   287.49489      488.01785     -6.3492043     -15.872287      31.028823      597.48587     -112.43315     -5.8421936      0.0094952867   86501.717      0            
    183800   343.61144      490.64516     -2.08482       -13.274415      33.596164      586.2229      -108.16141     -5.6532639      0.0093179948   88147.571      0            
    183900   330.56924      489.96682     -6.0200637     -14.776696      25.433431      609.95787     -119.12132     -5.5063994      0.0090953472   90305.361      0            
    184000   297.29216      490.10979     -5.2829284     -18.432411      28.699909      608.45214     -116.9368      -6.3901212      0.0088737366   92560.625      0            
    184100   301.69536      490.10975     -4.1618303     -12.261372      25.492477      594.55262     -108.55711     -4.9550363      0.0085251455   96345.407      0            
    184200   301.47191      487.24646     -4.898166      -14.956797      25.796419      592.19775     -106.09213     -4.8006187      0.0081935873   100244.08      0            
    184300   281.01253      497.97378     -7.1708561     -11.639566      32.585604      609.0193      -118.25908     -6.5616099      0.0077835152   105525.41      0            
    184400   331.61644      501.17535     -4.8043556     -13.445684      30.662675      603.63744     -109.24139     -5.6333409      0.0074512507   110230.97      0            
    184500   296.17493      508.03323     -7.6701346     -8.5077854      38.834933      595.44162     -104.57753     -5.4878772      0.0070980394   115716.27      0            
    184600   310.18297      486.75984     -4.4065922     -14.685083      29.971647      599.85725     -117.98155     -5.9958298      0.0068658959   119628.76      0            
    184700   271.9156       491.43735     -6.7530055     -14.285171      29.206016      594.21865     -105.31039     -5.6387453      0.0066237689   124001.7       0            
    184800   312.7865       488.03235     -7.0021812     -14.573034      36.110559      585.06164     -106.39262     -5.1720118      0.0064691614   126965.24      0            
    184900   323.96291      489.18161     -6.8526443     -15.767512      32.504686      594.8818      -110.25096     -5.3337543      0.0063245809   129867.67      0            
    185000   332.96338      488.9721      -7.5878869     -13.461577      25.850735      596.26516     -106.95511     -5.1392154      0.0062070528   132326.67      0            
    185100   285.40955      479.01232     -7.2147751     -15.843896      28.143914      590.76909     -111.19559     -5.6464231      0.0060950885   134757.46      0            
    185200   230.51985      491.49471     -6.562541      -13.244653      27.846348      604.57234     -114.96965     -6.1471417      0.0059729754   137512.47      0            
    185300   316.80842      482.19904     -5.6315518     -15.500315      28.513125      588.68605     -109.47947     -4.3888025      0.0057917497   141815.28      0            
    185400   317.54802      489.78396     -6.9498352     -15.871251      38.040411      590.21156     -109.60061     -6.0463196      0.0056171772   146222.66      0            
    185500   318.23434      488.39493     -5.9137833     -16.642055      27.905499      614.69843     -125.32655     -6.3266041      0.0054718432   150106.39      0            
    185600   314.96095      482.35606     -6.9172711     -17.664252      30.112154      598.70884     -115.95405     -5.9293627      0.0053354862   153942.6       0            
    185700   256.48996      483.40859     -5.9112775     -17.623746      27.86859       600.42825     -113.94387     -7.4093636      0.0052420218   156687.37      0            
    185800   255.52929      478.28278     -6.1150976     -17.874954      22.662502      592.37509     -107.38552     -5.3792328      0.0051386089   159840.65      0            
    185900   341.77975      477.53157     -6.521429      -16.533754      22.837729      589.1907      -105.89511     -5.5465631      0.0050615512   162274.09      0            
    186000   297.69434      495.5521      -4.2195482     -14.329473      30.693018      596.52474     -108.38465     -4.7319913      0.0049515699   165878.42      0            
    186100   309.78605      492.18083     -6.2366674     -15.77681       27.230085      604.65994     -111.44888     -6.2468384      0.004872807    168559.64      0            
    186200   303.9216       490.03884     -6.0186834     -14.529901      29.040981      598.91466     -111.74258     -5.625639       0.0047762594   171966.92      0            
    186300   269.57273      488.54696     -4.6655487     -14.630028      27.561503      603.81408     -115.97734     -7.5557035      0.004719043    174051.95      0            
    186400   268.9366       484.84013     -5.1136159     -15.452261      21.893822      603.70793     -113.92195     -6.2737879      0.0046706427   175855.59      0            
    186500   299.48036      491.96934     -5.4060353     -15.724375      39.454455      599.78645     -119.42065     -6.7205103      0.004624025    177628.5       0            
    186600   339.33626      491.54964     -5.8903155     -16.458416      25.829007      605.70612     -111.92228     -5.7144728      0.0045709079   179692.66      0            
    186700   320.65113      491.6481      -4.3420502     -16.052671      36.459802      586.9597      -107.23787     -4.1388146      0.0045091074   182155.48      0            
    186800   284.81259      490.5658      -5.5508746     -14.489556      28.065878      599.80105     -110.80917     -6.4515305      0.0044355491   185176.31      0            
    186900   291.94625      483.41377     -6.4876605     -17.034678      26.979112      599.86323     -114.43555     -5.4706926      0.004376023    187695.22      0            
    187000   298.85703      492.10901     -6.6414616     -15.551499      30.836232      591.69103     -103.46751     -4.7577803      0.004335718    189440.04      0            
    187100   337.6497       506.81992     -4.3511504     -11.560786      44.816996      601.44492     -116.62181     -6.908255       0.0043053373   190776.83      0            
    187200   314.39622      502.66254     -4.7391275     -13.354511      39.29729       603.1867      -115.53046     -6.197363       0.004293931    191283.61      0            
    187300   321.40873      486.36497     -7.2844536     -15.336419      34.530743      602.03064     -121.0084      -6.5671447      0.0042839402   191729.71      0            
    187400   276.92407      489.27617     -7.2172874     -14.791586      29.278827      598.98437     -111.94496     -5.0331847      0.0042910357   191412.67      0            
    187500   251.31618      495.47174     -4.5217001     -15.178846      32.557145      607.26879     -118.02157     -6.6320788      0.0042980707   191099.37      0            
    187600   315.83986      495.60068     -7.7279938     -13.637615      31.684073      616.33094     -125.35624     -5.6924765      0.0043010998   190964.79      0            
    187700   323.14687      503.99874     -4.5177164     -14.406535      35.154126      608.95336     -114.31267     -6.8718161      0.0042843676   191710.58      0            
    187800   322.83337      497.16731     -4.9564749     -12.784105      36.454328      599.11367     -114.72994     -5.9301708      0.004235109    193940.37      0            
    187900   320.1468       487.43069     -9.2783356     -14.806749      29.909711      604.55362     -118.23312     -4.7144351      0.004183422    196336.54      0            
    188000   269.20797      494.69113     -8.8789637     -13.509968      31.737574      601.95566     -112.23154     -4.3816312      0.0041468447   198068.33      0            
    188100   281.60542      490.1075      -4.8496863     -14.597738      36.984098      582.20507     -104.53836     -5.0958831      0.0041172231   199493.34      0            
    188200   300.5298       489.8776      -8.4791094     -14.204457      25.520665      603.34861     -109.46092     -6.8471981      0.0040940293   200623.53      0            
    188300   347.38669      488.55246     -5.9273037     -16.37186       32.094811      606.86909     -122.10917     -6.0031129      0.0040850966   201062.23      0            
    188400   339.28522      491.77885     -8.0047363     -15.884409      31.747088      599.01468     -109.11346     -5.9803202      0.004075186    201551.2       0            
    188500   287.15229      486.75582     -6.9520458     -17.353048      27.839109      602.57349     -114.03325     -5.3184333      0.0040739403   201612.83      0            
    188600   303.24495      478.21575     -7.4787019     -17.321956      29.388465      593.25614     -113.30138     -6.3268146      0.0040835542   201138.17      0            
    188700   267.37566      490.91103     -9.3645532     -14.503056      31.924821      594.99626     -107.47057     -4.6718704      0.0041176214   199474.05      0            
    188800   314.31201      486.03686     -8.3633971     -15.47432       28.292503      591.75223     -104.41222     -5.75794        0.004144172    198196.07      0            
    188900   351.8322       490.63004     -9.3413761     -14.658173      29.897891      598.36797     -108.42885     -5.2074292      0.0041428028   198261.57      0            
    189000   381.8913       496.08768     -9.9272018     -14.555117      29.622807      609.08284     -112.17985     -5.9557925      0.004136147    198580.62      0            
    189100   323.62398      491.88663     -3.0198998     -13.588125      38.923008      586.83999     -111.34168     -5.9266601      0.0041171261   199498.05      0            
    189200   308.03196      484.94946     -5.3579642     -15.117836      29.988772      593.89668     -110.89585     -7.5643491      0.0040958923   200532.27      0            
    189300   297.20386      484.29139     -9.0026293     -15.804154      23.021243      602.32761     -112.00633     -4.2443478      0.0040896214   200839.76      0            
    189400   280.8978       491.59665     -5.4174501     -15.79305       34.442822      593.3446      -109.43014     -5.5501382      0.0041200763   199355.19      0            
    189500   322.54176      493.45154     -8.6206712     -12.595134      30.842639      602.82286     -112.81435     -6.1838015      0.0041293712   198906.46      0            
    189600   360.13362      492.21766     -6.5697445     -15.468267      26.805033      609.7565      -115.57267     -6.7331978      0.0041434229   198231.9       0            
    189700   340.49672      484.34388     -7.303432      -14.726384      28.984858      604.91241     -121.23955     -6.2840209      0.0041688448   197023.07      0            
    189800   301.69444      479.24064     -7.9478505     -15.958865      28.077862      597.53063     -114.94184     -7.5192961      0.0042056519   195298.76      0            
    189900   294.16559      482.65862     -6.99076       -15.491975      27.654483      594.41712     -111.04996     -5.8802966      0.0042942625   191268.84      0            
    190000   331.68742      483.42492     -7.4085215     -16.544857      28.101173      594.2569      -109.20215     -5.7776198      0.0043737284   187793.69      0            
    190100   337.9613       492.24581     -11.559016     -15.682208      38.069256      600.9773      -112.531       -7.0285166      0.0044373088   185102.87      0            
    190200   332.04107      489.99791     -9.3755795     -14.676769      37.640352      592.02955     -108.16085     -7.4587962      0.0044747587   183553.72      0            
    190300   269.10936      485.28738     -10.64168      -14.715142      29.995866      602.12915     -115.10381     -6.3769982      0.0044964334   182668.91      0            
    190400   289.86324      480.8119      -10.443816     -14.232935      24.43053       603.77289     -116.23387     -6.4809093      0.004513369    181983.48      0            
    190500   326.4057       483.95956     -7.6848302     -14.11754       28.443969      591.05789     -106.66863     -7.0712995      0.004555994    180280.88      0            
    190600   309.53038      497.23917     -10.013111     -12.623759      27.402842      619.03386     -121.50908     -5.05158        0.0046077981   178254.04      0            
    190700   326.70157      490.4004      -10.419449     -12.251058      29.824872      599.25326     -110.15229     -5.8549301      0.0046730206   175766.1       0            
    190800   283.29103      488.24665     -9.2348377     -14.388258      29.078057      597.65769     -108.16445     -6.701555       0.0047802501   171823.35      0            
    190900   225.34571      485.51521     -8.8345833     -15.344008      37.999903      588.41728     -110.97107     -5.7523084      0.0048610848   168966.12      0            
    191000   244.78866      474.4372      -6.3596781     -14.025269      24.341055      591.6929      -115.41901     -5.7927984      0.0050010472   164237.32      0            
    191100   240.27369      473.2799      -8.1985587     -13.578988      27.930437      583.51037     -111.14384     -5.2395125      0.0051396473   159808.36      0            
    191200   297.11428      477.23486     -6.902607      -13.197568      24.495097      601.4475      -121.83372     -6.7738418      0.0052808132   155536.39      0            
    191300   292.08476      488.24589     -9.0561448     -15.015662      31.958932      603.87185     -117.82822     -5.6848656      0.0054024497   152034.48      0            
    191400   308.27753      492.43717     -8.5431468     -15.058133      28.743684      599.41721     -106.02772     -6.0947236      0.00554765     148055.23      0            
    191500   311.80701      492.46242     -7.5688483     -13.930379      33.821263      605.75345     -119.674       -5.9390652      0.0056797476   144611.82      0            
    191600   263.71676      492.41324     -8.5301734     -13.895914      30.577961      600.37176     -110.69837     -5.4120169      0.0058516288   140364.1       0            
    191700   285.4571       481.225       -7.1786857     -14.413601      24.422481      589.63875     -105.79723     -5.4467123      0.0060722042   135265.31      0            
    191800   338.45156      476.92196     -8.2122297     -14.817666      27.411839      584.3862      -106.53695     -5.3092269      0.0062690379   131018.29      0            
    191900   341.67954      491.21931     -5.8383668     -15.810602      28.617069      603.37049     -112.13963     -6.9796473      0.0065127966   126114.58      0            
    192000   293.30914      497.94976     -4.8171056     -14.59402       29.793742      609.02282     -114.2711      -7.1845758      0.0067588376   121523.65      0            
    192100   305.407        482.65982     -6.1168692     -16.185118      31.734101      584.18909     -105.6462      -5.3151876      0.0070090685   117185.13      0            
    192200   285.24074      485.34866     -6.3274511     -12.747615      26.441482      594.25962     -110.11612     -6.1612475      0.0072803273   112818.91      0            
    192300   292.28633      486.41106     -7.7096274     -15.119905      24.359364      598.89526     -108.8276      -5.186431       0.0075684835   108523.54      0            
    192400   322.74057      499.46219     -6.2427437     -12.796559      28.794208      613.99668     -118.83931     -5.4500803      0.007801055    105288.15      0            
    192500   315.63696      502.69603     -8.2676908     -15.423474      45.8227        608.59332     -119.86491     -8.1639084      0.0079701352   103054.54      0            
    192600   324.83633      492.25135     -5.8418052     -14.000605      29.442137      600.72086     -112.29304     -5.7761907      0.0080804838   101647.21      0            
    192700   297.05789      490.90873     -7.3665102     -13.27875       30.877696      600.16226     -113.07334     -6.412621       0.0081592068   100666.48      0            
    192800   291.67598      485.94982     -6.6564515     -15.719067      28.838374      591.12669     -105.46065     -6.1790739      0.0081986427   100182.27      0            
    192900   312.42703      482.64192     -2.0048522     -15.72912       28.701758      581.49466     -104.35265     -5.4678723      0.0082696957   99321.503      0            
    193000   358.51635      488.01544     -6.5684854     -16.054092      33.001468      595.33164     -112.04583     -5.6492631      0.0083026214   98927.625      0            
    193100   341.85517      495.91709     -7.2868622     -16.214794      31.744615      616.36336     -121.83538     -6.8538436      0.0084016908   97761.109      0            
    193200   333.75659      484.98918     -6.3171716     -16.56854       26.982759      591.77857     -105.1108      -5.7756378      0.0085151202   96458.839      0            
    193300   303.78287      481.69807     -7.7268421     -18.036849      23.646389      603.55734     -112.11547     -7.6264978      0.0085909442   95607.489      0            
    193400   313.75433      481.14243     -6.7186692     -18.181884      30.256785      607.67866     -125.22923     -6.663221       0.0086650487   94789.844      0            
    193500   312.40501      486.13406     -5.1042851     -15.996565      20.978108      597.56772     -106.27414     -5.0367739      0.008698502    94425.294      0            
    193600   308.69714      492.38955     -8.042629      -15.295394      39.507502      600.49136     -117.75568     -6.5156162      0.0087168859   94226.151      0            
    193700   311.66467      497.90243     -8.1601528     -13.730436      29.226017      595.31109     -99.853512     -4.8905776      0.0087514874   93853.601      0            
    193800   288.73857      496.63948     -10.560251     -12.143678      37.424334      605.39366     -117.95076     -5.523821       0.0088020576   93314.387      0            
    193900   297.74245      480.47649     -5.6970023     -15.037434      27.682927      590.82992     -110.72716     -6.5747619      0.0088710574   92588.58       0            
    194000   292.87672      480.79687     -8.1296075     -14.725945      31.960095      587.77123     -110.18902     -5.8898788      0.0089002905   92284.472      0            
    194100   266.1723       493.69142     -10.278052     -14.190265      31.201052      605.80617     -113.6258      -5.2216838      0.0088616799   92686.558      0            
    194200   309.28634      500.49811     -8.6024071     -12.009606      33.721087      609.30095     -115.07135     -6.8405651      0.008803175    93302.543      0            
    194300   336.14775      498.73777     -7.4590333     -11.13931       30.863396      596.83037     -104.68663     -5.6710249      0.0087029329   94377.22       0            
    194400   313.78466      494.2012      -7.4938482     -16.156792      34.19711       596.0754      -106.31689     -6.1037835      0.0085764029   95769.592      0            
    194500   294.45044      490.91205     -7.2991953     -15.180682      24.655718      622.07004     -127.20755     -6.1262818      0.0084979967   96653.204      0            
    194600   298.2826       483.41721     -6.1633408     -15.951881      26.185559      595.09749     -110.13987     -5.6107367      0.0084224552   97520.092      0            
    194700   279.59996      488.4336      -6.8681367     -15.755321      25.23597       600.96139     -107.95785     -7.1824489      0.0083676172   98159.2        0            
    194800   349.09254      485.94957     -9.0200023     -14.447296      24.995384      607.18414     -117.12403     -5.6386304      0.0082919245   99055.245      0            
    194900   331.38481      496.38803     -6.6065784     -17.216327      33.384732      612.91484     -119.27796     -6.8106756      0.0082594256   99445.003      0            
    195000   307.20198      493.70826     -8.5932856     -14.295904      33.874026      597.20421     -107.68982     -6.7909601      0.0081997433   100168.82      0            
    195100   269.86235      484.41702     -8.3845808     -17.845787      27.188023      593.48814     -104.82343     -5.2053445      0.0081270004   101065.41      0            
    195200   272.5416       485.35196     -4.5467517     -17.555512      26.401508      600.24424     -113.65993     -5.5315886      0.0080503142   102028.14      0            
    195300   331.8411       481.42483     -7.9987897     -16.272441      26.878253      606.26828     -120.93327     -6.5172087      0.0078744274   104307.09      0            
    195400   369.28139      482.68912     -6.9652029     -14.907891      21.841397      597.31048     -109.13034     -5.4593219      0.0076969779   106711.83      0            
    195500   315.87232      491.38824     -5.3860555     -15.508875      37.46247       597.67206     -117.18148     -5.669878       0.0075084207   109391.66      0            
    195600   284.64763      483.26686     -6.4914553     -13.816244      23.731438      598.03203     -111.78876     -6.4001538      0.0073274641   112093.16      0            
    195700   250.64539      483.7036      -7.3995939     -17.029846      33.559846      590.44105     -111.41726     -4.4505957      0.00716864     114576.63      0            
    195800   283.82609      487.08871     -5.2424385     -14.857889      30.212664      592.26459     -108.45282     -6.8353984      0.0070196502   117008.48      0            
    195900   287.38873      494.11004     -6.9324426     -14.836593      32.732625      599.53323     -110.49439     -5.8923854      0.0068657307   119631.64      0            
    196000   352.98249      481.5487      -4.4685613     -15.814373      30.86061       587.4436      -110.38673     -6.085849       0.0067229859   122171.7       0            
    196100   310.93734      487.92314     -5.1223013     -16.447556      25.37909       619.12306     -127.11717     -7.8919798      0.0065801123   124824.41      0            
    196200   304.48759      482.12878     -6.2525119     -15.515785      27.333045      590.07947     -107.63354     -5.8818978      0.0064119184   128098.73      0            
    196300   271.20836      477.97649     -4.6538315     -17.583524      27.186027      589.49813     -109.95343     -6.5168768      0.0062747421   130899.18      0            
    196400   285.58461      480.99716     -6.1206123     -16.706542      25.11402       607.14481     -121.57885     -6.855669       0.0061603154   133330.61      0            
    196500   327.56237      485.65035     -4.1214228     -16.273128      29.285679      593.21289     -110.56403     -5.8896368      0.0060708639   135295.18      0            
    196600   325.13339      488.98503     -6.1119694     -14.488825      26.811109      618.0687      -127.88873     -7.4052527      0.005985786    137218.17      0            
    196700   294.49924      494.08961     -3.1978828     -13.575859      31.95844       607.7063      -122.34184     -6.4595481      0.0058737901   139834.52      0            
    196800   305.63912      482.12534     -6.9149674     -14.985997      33.611001      593.416       -116.02406     -6.9766403      0.0057275005   143406.12      0            
    196900   258.36621      480.14291     -6.3937373     -16.511999      26.444041      589.5992      -108.31984     -4.6747499      0.005569492    147474.6       0            
    197000   245.12233      480.88324     -4.4207795     -17.132486      31.049309      590.33083     -112.35994     -6.5837013      0.0054317308   151214.9       0            
    197100   288.95132      485.87198     -6.0820234     -19.491187      38.862794      595.90484     -116.14773     -7.1747153      0.0052961255   155086.7       0            
    197200   310.34924      488.98461     -5.332329      -18.398441      34.336193      594.94215     -111.1152      -5.4477621      0.0051978217   158019.77      0            
    197300   311.09097      491.37689     -3.9069008     -15.935913      31.223294      603.26175     -116.70411     -6.5612382      0.0051108368   160709.22      0            
    197400   299.86709      489.936       -8.1642912     -12.807833      30.363687      596.03639     -109.31637     -6.1755782      0.0050309995   163259.53      0            
    197500   256.22656      486.52386     -6.7628006     -16.306898      30.104227      593.63124     -108.97861     -5.1632937      0.0049859009   164736.25      0            
    197600   255.33472      484.38165     -5.628903      -14.847062      28.781435      591.87183     -109.89146     -5.9041911      0.0049039633   167488.73      0            
    197700   308.77647      489.37049     -6.3877097     -15.665838      31.465149      597.64008     -111.90157     -5.779619       0.0048383138   169761.34      0            
    197800   323.09113      491.57492     -2.544886      -17.864004      30.090725      605.86085     -116.88556     -7.0822101      0.0047446959   173110.91      0            
    197900   323.90983      486.08047     -4.2620106     -18.174565      35.105204      601.9651      -122.42597     -6.1272956      0.0046600269   176256.19      0            
    198000   283.39121      486.8904      -8.6440783     -15.62632       25.152602      602.96751     -111.29677     -5.6625463      0.0045546291   180334.91      0            
    198100   293.15291      482.51908     -5.8723777     -13.682054      32.238174      584.35876     -108.33579     -6.187622       0.0044580306   184242.48      0            
    198200   296.07526      489.90434     -2.953478      -16.961758      26.434701      607.44941     -115.90826     -8.156271       0.0043413521   189194.19      0            
    198300   347.45356      491.16481     -6.2804004     -17.779431      34.76515       611.80333     -125.08611     -6.2577266      0.004241778    193635.45      0            
    198400   307.76861      496.11998     -5.4462908     -16.012775      37.830183      602.4118      -116.03104     -6.631893       0.0041484744   197990.52      0            
    198500   269.22984      493.62808     -4.6201653     -14.658058      31.969817      602.43681     -115.50489     -5.9954369      0.0040783352   201395.56      0            
    198600   261.40243      493.44629     -5.9218212     -13.627743      37.836449      584.32989     -104.42494     -4.7455433      0.0040012278   205276.64      0            
    198700   310.37765      488.96673     -2.6929944     -12.081982      27.566096      583.81874     -102.10937     -5.5337664      0.0039454966   208176.23      0            
    198800   287.15636      490.75071     -4.5392127     -19.822829      29.369612      624.97422     -131.57913     -7.6519563      0.003874192    212007.72      0            
    198900   321.30779      485.11944     -4.1495731     -18.958284      29.16469       599.06193     -114.04886     -5.9504715      0.0038366364   214082.99      0            
    199000   307.2528       487.62405     -4.3878527     -19.231408      35.260991      586.96603     -106.17242     -4.8112937      0.0038076278   215713.99      0            
    199100   295.92719      493.11126     -4.838794      -14.908896      27.985426      591.84731     -102.63655     -4.3372333      0.0037973847   216295.87      0            
    199200   292.77418      497.59027     -6.4508237     -12.076233      26.555713      603.08019     -108.75705     -4.761525       0.0037886438   216794.89      0            
    199300   315.53899      489.62845     -3.5950632     -15.39772       29.363399      590.82009     -107.12528     -4.4369677      0.0037990628   216200.32      0            
    199400   299.79436      492.64607     -5.0266819     -13.780283      29.516562      618.44236     -128.47987     -8.0260167      0.0038136916   215371.01      0            
    199500   319.87089      483.66827     -5.6916515     -15.759954      28.552227      607.54107     -123.56155     -7.4118779      0.0038215283   214929.35      0            
    199600   327.46542      481.81262     -5.4093685     -15.002029      30.750874      576.29428     -99.54011      -5.2810246      0.0038355962   214141.05      0            
    199700   307.85325      487.59118     -6.7325119     -14.051227      30.17638       587.22629     -103.55875     -5.4689963      0.0038501252   213332.96      0            
    199800   285.58959      493.19959     -5.7096968     -15.706189      39.262617      586.39157     -106.38261     -4.6560972      0.0038957943   210832.13      0            
    199900   308.13571      492.55357     -5.9465585     -13.694261      25.660068      606.69117     -113.76487     -6.3919749      0.0039502943   207923.4       0            
    200000   292.45872      494.48148     -6.3211313     -15.711753      41.275799      595.64311     -113.37869     -7.025861       0.0040068757   204987.3       0            
    200100   294.69385      485.17356     -9.9112226     -16.018614      29.294406      603.8509      -115.66643     -6.3754741      0.004026096    204008.7       0            
    200200   282.92096      481.88476     -6.7990229     -12.484802      27.234767      602.95665     -121.71404     -7.3088015      0.0040374347   203435.76      0            
    200300   258.41056      485.98004     -4.687671      -14.898528      32.908662      594.66211     -116.06889     -5.9356434      0.0040369752   203458.92      0            
    200400   312.62144      490.5943      -4.607079      -15.751014      35.472818      598.9514      -116.61427     -6.8575502      0.0040506213   202773.49      0            
    200500   305.26806      493.35496     -3.8230336     -18.419842      36.740054      593.17539     -108.8801      -5.437505       0.0040484293   202883.28      0            
    200600   334.05108      480.82413     -2.781291      -21.217402      32.794316      600.12139     -121.26942     -6.82346        0.0040803717   201295.05      0            
    200700   305.40126      478.80434     -3.5616678     -19.725862      26.539767      591.39447     -110.0139      -5.8284663      0.0041211949   199301.08      0            
    200800   262.89647      482.5308      -7.6102072     -17.960292      29.008355      598.91503     -113.695       -6.1270874      0.0041845077   196285.6       0            
    200900   273.16273      491.06524     -4.5466838     -17.588362      31.452464      602.36319     -113.99885     -6.6165168      0.0042762919   192072.62      0            
    201000   348.85794      494.67562     -2.3572742     -12.20113       30.256665      595.79767     -111.18588     -5.6344234      0.0043893133   187126.9       0            
    201100   334.54364      493.76349     -4.8086914     -14.394417      31.039192      596.27415     -108.9956      -5.3511505      0.0045154831   181898.28      0            
    201200   281.68102      494.34432     -6.1992909     -13.099674      29.006562      597.50354     -107.28923     -5.577575       0.0046549175   176449.66      0            
    201300   250.69733      493.75081     -3.3605013     -14.379394      31.180295      601.69707     -116.21723     -5.1694298      0.0048476345   169434.93      0            
    201400   287.75366      486.84252     -5.9605874     -16.346563      25.908175      592.60354     -103.38367     -5.9783672      0.0050619851   162260.18      0            
    201500   353.50135      493.18908     -6.027158      -15.135849      29.062063      599.18076     -107.60895     -6.2817795      0.0053026826   154894.92      0            
    201600   307.59282      506.24079     -3.1432236     -15.756281      44.671041      607.03931     -119.45374     -7.1163081      0.005526197    148629.99      0            
    201700   312.83702      493.17145     -4.8995725     -16.623187      29.466869      604.75674     -114.34957     -5.1798318      0.0056938604   144253.38      0            
    201800   315.46119      486.21113     -7.4298617     -14.197363      26.181667      595.94204     -109.38616     -4.8991956      0.0058295277   140896.25      0            
    201900   240.8491       499.55634     -5.6323931     -13.026543      33.299226      607.58369     -116.49244     -6.175214       0.0059186073   138775.66      0            
    202000   290.28686      488.1365      -7.6805267     -14.908035      24.695776      613.28538     -119.98664     -7.2694521      0.0060442895   135890.02      0            
    202100   315.06759      495.13208     -6.5171469     -14.236552      29.779743      600.10168     -108.25338     -5.7422623      0.0061678658   133167.39      0            
    202200   323.48287      504.77516     -5.5854643     -13.543586      31.824302      608.79577     -109.79341     -6.922452       0.0063000749   130372.83      0            
    202300   301.14976      500.67835     -7.2947708     -12.945478      30.680715      605.33887     -109.83019     -5.2708042      0.0064199624   127938.23      0            
    202400   290.15286      492.55396     -6.108397      -14.571689      31.365315      600.53079     -112.64286     -6.0191953      0.0065539161   125323.33      0            
    202500   298.59033      488.84745     -6.3016104     -14.457399      32.029341      606.76106     -123.01697     -6.1669756      0.0066546479   123426.31      0            
    202600   343.46975      480.23109     -8.3683638     -12.647886      29.354023      584.00949     -105.95657     -6.1596024      0.0067511676   121661.71      0            
    202700   320.11149      488.66397     -5.4083402     -12.687304      28.155792      592.60617     -109.70428     -4.2980759      0.0068908418   119195.69      0            
    202800   335.09141      499.8548      -4.3188589     -12.341132      33.706194      610.1413      -121.60088     -5.7318268      0.0069883779   117532.08      0            
    202900   350.72267      493.553       -3.3248863     -16.250632      26.038338      596.46187     -104.99652     -4.3751694      0.007113417    115466.11      0            
    203000   292.19235      489.65353     -4.7221209     -18.098916      36.139044      598.08464     -116.58185     -5.1672578      0.0071975607   114116.25      0            
    203100   334.26644      475.91261     -5.2032966     -18.046033      24.777222      593.49333     -113.35611     -5.7525046      0.0072931507   112620.55      0            
    203200   328.63145      481.61697     -6.5323581     -13.586575      30.281826      578.63798     -102.62064     -4.5632534      0.007354987    111673.7       0            
    203300   295.36157      496.29739     -7.3497242     -11.503111      29.172683      602.74247     -111.18831     -5.5766202      0.0074357673   110460.5       0            
    203400   366.10284      493.59765     -7.6406671     -14.331751      28.918687      599.88647     -106.88843     -6.3466612      0.0075002529   109510.79      0            
    203500   322.88846      504.75601     -6.9594406     -12.414636      30.437933      602.36474     -104.684       -3.9885842      0.007600254    108069.89      0            
    203600   286.51059      494.98616     -6.4427669     -12.489728      29.40793       598.70534     -109.69788     -4.4967434      0.0076880194   106836.18      0            
    203700   328.33027      484.22535     -6.7933782     -11.9316        28.26072       593.18683     -112.73986     -5.7573726      0.0077825008   105539.16      0            
    203800   281.61344      491.6082      -7.1560871     -15.156958      30.940496      597.4569      -110.37788     -4.0982743      0.0078472185   104668.76      0            
    203900   315.69655      487.30035     -7.8124605     -16.292408      30.408549      603.29814     -116.3067      -5.9947749      0.0078477136   104662.15      0            
    204000   333.53738      488.53509     -8.0617503     -14.94294       30.281943      598.60148     -111.60258     -5.7410655      0.0078614264   104479.59      0            
    204100   292.62471      500.35151     -8.0766999     -14.34573       35.444261      608.49844     -116.01756     -5.1511969      0.0078395359   104771.33      0            
    204200   317.68601      488.00793     -7.4366384     -12.305521      30.332653      594.16115     -110.95373     -5.7899839      0.0078257007   104956.56      0            
    204300   255.71514      490.77146     -4.6585797     -12.754525      28.71411       595.94001     -109.80231     -6.6672433      0.0078319141   104873.29      0            
    204400   284.82302      486.20804     -4.7852327     -13.394772      25.686078      600.20698     -116.03509     -5.4699195      0.0078414585   104745.64      0            
    204500   309.35658      499.59467     -8.1619442     -10.390912      28.603793      610.65017     -114.55019     -6.5562515      0.007849069    104644.08      0            
    204600   381.83956      483.65522     -7.5299321     -15.351066      32.533407      596.93374     -116.69089     -6.2400461      0.0078625221   104465.03      0            
    204700   296.42619      493.3541      -5.7375368     -18.298512      29.516297      596.96283     -102.78344     -6.3055374      0.0079210571   103693.05      0            
    204800   281.61426      492.43366     -6.786727      -13.445575      31.42986       608.76303     -121.04247     -6.4844622      0.0079511876   103300.12      0            
    204900   287.24934      481.17498     -5.6650898     -20.618925      30.089948      589.78233     -106.75086     -5.66242        0.0079839486   102876.24      0            
    205000   280.28734      484.76699     -7.8589209     -21.4136        36.585958      606.77112     -121.7505      -7.5670696      0.0080401259   102157.43      0            
    205100   346.73483      491.01346     -4.5696295     -15.691217      32.075096      614.38858     -127.65629     -7.533078       0.0081575968   100686.35      0            
    205200   315.15378      500.56694     -3.656221      -15.731645      36.000161      609.60485     -119.63188     -6.0183268      0.0082503351   99554.576      0            
    205300   311.16456      488.36643     -7.3254739     -15.206702      30.320182      603.53676     -114.48684     -8.4714926      0.0082907222   99069.61       0            
    205400   296.75644      481.14795     -7.3026504     -19.381727      25.923894      602.91859     -115.78244     -5.227726       0.0083545229   98313.047      0            
    205500   289.68215      484.79835     -6.3659877     -16.818719      36.380215      583.43782     -106.71695     -5.1180278      0.008468834    96986.033      0            
    205600   310.7504       485.17091     -5.6910383     -14.551564      27.211068      607.45609     -121.44328     -7.8103619      0.0086550746   94899.079      0            
    205700   315.50461      492.0904      -4.5530594     -16.841254      33.536155      603.66521     -117.03239     -6.6842563      0.0087951526   93387.647      0            
    205800   348.65135      500.01355     -6.9552745     -13.71262       34.354709      591.34167     -99.208241     -5.8066925      0.0089939684   91323.27       0            
    205900   302.22241      499.6317      -7.0208129     -14.339359      43.297542      601.06625     -116.06445     -7.3074698      0.0090919058   90339.542      0            
    206000   286.83386      488.38493     -6.87918       -16.247619      35.589391      593.98673     -112.20373     -5.8606661      0.009131322    89949.583      0            
    206100   315.85494      481.14556     -6.8913796     -13.979142      32.05748       599.36092     -121.43178     -7.9705489      0.0091903373   89371.976      0            
    206200   270.91264      495.31779     -5.3897116     -12.495039      34.169182      590.81796     -104.85389     -6.9307178      0.0092624548   88676.126      0            
    206300   314.02835      496.64379     -7.6322018     -11.480148      39.772831      598.81748     -115.90437     -6.9298033      0.0094095106   87290.258      0            
    206400   349.75226      498.32766     -7.4745137     -12.638033      41.211597      593.80992     -111.48193     -5.0993792      0.0095113101   86355.991      0            
    206500   327.03665      487.50013     -7.8323916     -15.162281      32.763278      601.62186     -116.74189     -7.1484466      0.0096372374   85227.6        0            
    206600   289.86888      483.79236     -7.431082      -15.023463      25.926516      596.30467     -111.36422     -4.6200665      0.009796213    83844.503      0            
    206700   297.49648      483.72995     -6.0610475     -15.421083      33.295977      580.80758     -103.12661     -5.7648688      0.010010281    82051.503      0            
    206800   300.31356      488.86039     -8.0564765     -14.854419      28.5354        591.51876     -103.93799     -4.3448869      0.010132796    81059.425      0            
    206900   319.55014      490.17324     -10.661537     -15.751811      33.294137      603.46        -114.50181     -5.6657464      0.010265201    80013.884      0            
    207000   331.3786       489.41973     -8.8144366     -16.79275       36.619573      595.977       -112.85725     -4.712403       0.010408741    78910.464      0            
    207100   254.61428      495.20382     -9.100518      -15.533822      28.732431      617.3081      -117.69907     -8.5032973      0.010497846    78240.683      0            
    207200   250.79102      487.1632      -7.6412797     -15.181341      30.926937      602.57669     -117.73955     -5.778252       0.010646176    77150.576      0            
    207300   294.62828      480.06885     -9.735421      -14.393354      27.76011       593.32328     -111.02919     -5.8565798      0.010779346    76197.447      0            
    207400   310.74276      487.98731     -10.112466     -16.149046      29.722811      603.06836     -112.21966     -6.322687       0.010992604    74719.203      0            
    207500   272.51826      504.73379     -4.5246163     -13.095651      43.64663       591.97032     -108.21048     -5.0524169      0.01120083     73330.154      0            
    207600   320.53293      491.63828     -8.1930982     -12.153327      33.985394      604.03837     -120.02089     -6.0181745      0.011289154    72756.436      0            
    207700   276.66301      495.0637      -6.3014827     -11.916812      32.581763      595.91883     -109.59976     -5.6188313      0.011379761    72177.139      0            
    207800   282.70613      490.0773      -5.549694      -10.67507       32.521929      591.5371      -111.5992      -6.1577688      0.011428678    71868.208      0            
    207900   275.23242      487.73146     -7.7635235     -15.6014        35.121887      598.34285     -116.92974     -5.4386149      0.011469189    71614.36       0            
    208000   320.48667      489.32005     -6.7448553     -15.258857      29.953816      590.32501     -103.62433     -5.3307288      0.01155702     71070.103      0            
    208100   339.73225      491.12768     -7.2280059     -17.80628       33.562118      603.43457     -114.90865     -5.9260682      0.011707654    70155.696      0            
    208200   317.71116      489.73685     -3.111849      -17.207697      27.46709       607.54704     -118.13589     -6.8218504      0.011926046    68870.994      0            
    208300   291.23974      484.00319     -5.445507      -15.542526      27.858232      585.78553     -103.68557     -4.9669692      0.012217548    67227.78       0            
    208400   268.54716      489.23444     -7.4737766     -14.714857      33.837878      591.49364     -109.33582     -4.5726224      0.012543609    65480.247      0            
    208500   286.97806      490.39015     -5.9094286     -13.650991      32.556695      604.43516     -120.75206     -6.2892289      0.012826181    64037.662      0            
    208600   284.68532      496.83596     -2.5933399     -13.053993      37.492281      599.8927      -119.33652     -5.565174       0.013152944    62446.753      0            
    208700   304.27706      491.46329     -5.572344      -15.533907      39.366544      578.33615     -100.44898     -4.6841689      0.013252634    61977.006      0            
    208800   329.33029      481.90513     -5.7587537     -15.992543      25.818847      588.48463     -105.94292     -4.7041242      0.013396803    61310.047      0            
    208900   299.56541      484.93068     -4.9778401     -16.210764      24.757265      602.92213     -114.63728     -6.922822       0.013502777    60828.866      0            
    209000   305.18507      485.20881     -5.632863      -14.566778      33.621832      589.6713      -113.04739     -4.8372837      0.013625347    60281.664      0            
    209100   317.21912      490.76423     -6.3576988     -9.3310921      31.561975      601.13939     -119.6079      -6.6404351      0.013840166    59346.007      0            
    209200   327.71596      488.36061     -5.3399806     -15.693622      32.004662      596.54726     -113.5505      -5.6072149      0.014006657    58640.589      0            
    209300   343.98723      488.08177     -6.9603718     -17.166905      32.957587      587.29794     -103.80274     -4.2437395      0.014165382    57983.514      0            
    209400   287.39814      492.34623     -6.9474994     -15.426672      32.206972      597.89246     -111.00615     -4.3728775      0.01441205     56991.102      0            
    209500   252.58764      492.41853     -4.0636378     -12.450564      33.166462      591.44934     -110.51683     -5.1662465      0.014677041    55962.14       0            
    209600   235.28334      497.12654     -6.8984039     -12.61528       29.260719      608.13906     -115.66973     -5.0898222      0.01482005     55422.122      0            
    209700   276.94779      496.454       -4.2999493     -15.890503      30.653854      613.52876     -121.30824     -6.2299189      0.014939744    54978.09       0            
    209800   317.92608      492.07825     -6.3136288     -17.416551      36.293148      606.35947     -121.48891     -5.3552773      0.014938828    54981.464      0            
    209900   303.90539      492.20633     -7.6230974     -15.889951      36.892496      597.1553      -112.86969     -5.458729       0.015015242    54701.658      0            
    210000   271.56853      492.57695     -6.2932203     -14.706679      33.133972      587.61291     -101.84073     -5.3293025      0.015167293    54153.278      0            
    210100   311.588        474.8343      -6.5479934     -17.692517      29.637955      583.42006     -108.57113     -5.4120833      0.015124439    54306.717      0            
    210200   277.85513      481.64062     -6.9779986     -17.94034       32.938206      603.48333     -123.84713     -6.0154382      0.015198276    54042.879      0            
    210300   318.43025      491.90608     -5.4536072     -15.646383      31.604154      600.64919     -113.55111     -5.6961673      0.015145989    54229.446      0            
    210400   302.03023      493.6254      -6.9202472     -24.547355      38.906735      600.79684     -108.94483     -5.6657482      0.015098864    54398.704      0            
    210500   285.20623      499.65648     -7.1985769     -11.922069      39.768468      596.02668     -111.35289     -5.665122       0.015034531    54631.477      0            
    210600   271.06487      488.69149     -5.9652536     -16.89909       33.397074      578.12524     -95.599226     -4.3672562      0.014964357    54887.666      0            
    210700   265.04064      494.55908     -6.9088874     -11.778499      33.903696      607.43022     -122.53626     -5.5511926      0.014944756    54959.655      0            
    210800   295.48299      486.69206     -4.6613089     -17.070418      33.958104      595.96017     -116.86949     -4.6249987      0.014932027    55006.506      0            
    210900   319.43649      488.91569     -5.7295366     -11.817244      31.047579      582.74469     -100.23731     -7.0924932      0.014956553    54916.303      0            
    211000   301.13293      490.76522     -6.1849626     -15.206182      31.631249      601.72506     -115.97701     -5.2229339      0.014991707    54787.531      0            
    211100   306.38352      489.4545      -6.9648897     -14.00705       27.605056      605.84935     -117.45867     -5.5692974      0.0150129      54710.19       0            
    211200   285.20437      487.12091     -7.7843736     -14.694143      34.197233      580.86845     -100.5521      -4.9141535      0.014950626    54938.074      0            
    211300   254.43705      486.78763     -7.6885171     -13.887655      35.515616      587.70816     -109.93305     -4.926928       0.014752243    55676.864      0            
    211400   292.67222      485.7098      -8.9629192     -13.9311        29.969848      599.41931     -115.28558     -5.4997624      0.014419296    56962.463      0            
    211500   324.83079      489.11062     -7.2723828     -15.2688        39.087906      586.35527     -109.37295     -4.4184218      0.014081308    58329.711      0            
    211600   324.32987      487.92837     -6.4920745     -16.743785      30.312525      589.84874     -103.80112     -5.1959261      0.013791329    59556.16       0            
    211700   286.71289      493.50287     -6.2158445     -14.620507      39.612174      589.30582     -109.61759     -4.9611728      0.013530539    60704.057      0            
    211800   293.01762      481.33578     -4.7058084     -15.343524      26.303294      589.59806     -108.05692     -6.4593142      0.013308785    61715.523      0            
    211900   237.92282      483.59101     -4.6973408     -13.781004      28.489554      597.57034     -118.04874     -5.9418045      0.01304861     62946.061      0            
    212000   204.45903      482.08615     -6.8688396     -15.16307       28.268921      599.65833     -117.58265     -6.2265372      0.012811076    64113.165      0            
    212100   281.69871      482.36027     -5.6895573     -13.543153      29.682509      597.36381     -119.35863     -6.0947174      0.012558819    65400.941      0            
    212200   314.80449      485.10989     -7.5373507     -13.798586      28.079352      596.50799     -111.87555     -6.2659668      0.012317625    66681.571      0            
    212300   299.86223      493.39173     -8.7756908     -16.271877      38.545704      595.23296     -109.90213     -5.4372454      0.012035567    68244.283      0            
    212400   334.59113      491.65439     -6.0032441     -12.424554      34.412163      600.57931     -118.70856     -6.200728       0.011716784    70101.03       0            
    212500   296.91629      488.67406     -7.0164423     -15.522973      27.318159      599.04504     -110.03456     -5.1151585      0.01139142     72103.266      0            
    212600   276.23238      481.40491     -6.9073095     -15.614441      28.543729      591.30016     -110.19839     -5.7188333      0.011011245    74592.711      0            
    212700   260.664        491.07083     -7.16256       -9.7553478      28.141127      593.34818     -106.9718      -6.5287751      0.01060407     77456.918      0            
    212800   300.31179      497.85297     -7.2731528     -14.413864      39.19223       612.47143     -125.59246     -6.5312139      0.010148725    80932.2        0            
    212900   337.25814      489.4692      -6.5577049     -15.915372      29.890244      608.34533     -120.44067     -5.8526271      0.0098284608   83569.404      0            
    213000   287.68502      487.21235     -5.8926884     -19.209057      32.421935      587.17161     -102.99151     -4.2879412      0.0095621079   85897.233      0            
    213100   299.07859      482.01311     -6.1996661     -15.745763      25.969696      602.03727     -118.62313     -5.4252987      0.0093065632   88255.846      0            
    213200   266.21582      492.61177     -5.5808977     -15.611895      30.131145      607.23819     -117.1718      -6.3929826      0.0090694638   90563.083      0            
    213300   361.23848      490.22657     -4.6975882     -16.43946       26.802203      610.57464     -121.35398     -4.659238       0.0088963155   92325.706      0            
    213400   328.01303      500.31268     -3.5237506     -11.952091      30.900387      613.23222     -121.18855     -7.1555318      0.0087681066   93675.71       0            
    213500   304.3177       492.92401     -5.3513224     -14.175675      36.292227      586.96041     -105.32296     -5.4786642      0.0086250777   95229.126      0            
    213600   270.96639      491.24507     -8.1754041     -16.359409      33.948595      592.78634     -106.13543     -4.8196241      0.0085198418   96405.382      0            
    213700   335.77453      473.72624     -5.7467262     -19.852522      30.398145      582.30413     -108.09966     -5.2771242      0.0084277474   97458.854      0            
    213800   267.39596      501.09906     -5.0231027     -11.096246      37.305658      602.79611     -116.10796     -6.7754077      0.0083326032   98571.669      0            
    213900   301.78018      503.33786     -8.6380114     -13.828084      41.181124      605.79        -117.17263     -3.9945431      0.0081748694   100473.61      0            
    214000   301.87165      507.5408      -8.1299194     -14.736232      36.090565      596.66243     -96.674568     -5.6714727      0.008028235    102308.74      0            
    214100   339.01934      484.53175     -5.3224854     -13.084613      35.717832      590.94651     -118.85863     -4.8668606      0.0079142234   103782.59      0            
    214200   300.2427       478.16227     -3.3027878     -21.779054      27.368884      596.95072     -114.53274     -6.5427536      0.0077842858   105514.96      0            
    214300   242.68565      494.62042     -6.4474303     -18.268187      35.93175       597.48904     -109.30372     -4.7810229      0.0076045079   108009.44      0            
    214400   294.06493      493.19512     -3.2697947     -16.055362      26.340585      609.94666     -118.1505      -5.6164707      0.0074317959   110519.53      0            
    214500   318.5189       494.89283     -5.0372437     -21.967823      39.093382      612.25664     -123.77677     -5.6753582      0.0072877179   112704.5       0            
    214600   325.57438      492.76481     -7.5198633     -15.382531      29.43027       591.21795     -100.34857     -4.6324412      0.0071616234   114688.89      0            
    214700   270.93214      486.54667     -3.9927568     -17.332232      33.009131      587.95364     -107.6356      -5.4555183      0.0070401538   116667.71      0            
    214800   269.21997      491.81845     -6.6748265     -13.843391      34.226465      588.99176     -106.47291     -4.4086364      0.0069005866   119027.36      0            
    214900   299.62219      492.27164     -6.0268679     -13.653856      29.872159      590.36171     -104.60272     -3.678787       0.0068176599   120475.15      0            
    215000   340.01849      488.21474     -4.0520338     -17.302477      38.12624       588.71425     -111.72999     -5.5412503      0.0066969214   122647.19      0            
    215100   310.69812      496.95437     -7.7304382     -14.353146      32.47032       604.2149      -112.58377     -5.0634943      0.0065565342   125273.29      0            
    215200   250.42128      491.57881     -5.8599659     -14.753865      37.212552      601.13622     -118.90197     -7.2541688      0.0064219248   127899.13      0            
    215300   257.9301       487.57892     -6.8097896     -15.89167       27.280699      605.01605     -116.70579     -5.3105856      0.0063173753   130015.8       0            
    215400   315.55933      484.43506     -5.7303265     -14.913387      27.937172      606.88272     -123.12998     -6.6111388      0.006221149    132026.84      0            
    215500   292.35331      498.94527     -4.1684918     -13.159323      32.410226      595.5379      -106.1466      -5.5284433      0.0061354481   133871.01      0            
    215600   315.33458      496.79231     -2.5898787     -11.725134      35.978551      579.14558     -99.427169     -4.5896461      0.0060327862   136149.13      0            
    215700   302.44345      497.09276     -5.420639      -10.881085      30.885507      612.4469      -125.15788     -4.7800436      0.0059455714   138146.29      0            
    215800   296.35553      482.25098     -4.8241087     -17.497953      30.371312      607.43478     -126.15198     -7.0810708      0.0058730163   139852.94      0            
    215900   240.34551      486.29306     -6.0897108     -15.416532      33.91818       589.4468      -108.91568     -6.6499991      0.005800004    141613.46      0            
    216000   283.19367      481.31322     -7.1094432     -18.324956      30.555697      593.75132     -112.66314     -4.8962589      0.0057437522   143000.36      0            
    216100   265.36138      496.1921      -1.4236151     -17.183975      33.35626       599.85787     -113.51714     -4.8972984      0.0057026219   144031.75      0            
    216200   308.38225      498.82488     -5.2830627     -9.0800343      32.719586      586.61566     -101.39001     -4.7572616      0.0056952827   144217.35      0            
    216300   310.47772      491.80305     -5.1998087     -13.952026      37.554788      589.55027     -110.64646     -5.5037154      0.0056591449   145138.29      0            
    216400   248.84053      494.35315     -3.3010409     -13.115769      21.132716      618.47953     -121.63632     -7.2059639      0.0056077612   146468.19      0            
    216500   249.19682      485.85821     -7.7090216     -14.997587      32.595589      613.1948      -130.62273     -6.6028385      0.0055532349   147906.33      0            
    216600   292.62103      487.07651     -6.7323452     -10.984324      24.811335      599.05077     -113.04894     -6.019981       0.0054814374   149843.65      0            
    216700   290.65712      491.45773     -4.1099861     -18.520039      35.764421      585.22072     -100.91644     -5.9809449      0.0053924507   152316.39      0            
    216800   305.63226      490.75851     -5.1445583     -14.990927      34.09839       594.39088     -112.33536     -5.2599188      0.0053063987   154786.45      0            
    216900   305.75245      486.74557     -6.6309698     -18.044639      35.513539      607.03997     -124.60639     -6.5259402      0.0052381106   156804.37      0            
    217000   302.06538      480.01461     -6.6652096     -21.962493      32.127722      607.67558     -124.2031      -6.957888       0.0051872828   158340.82      0            
    217100   284.00424      479.82849     -4.2191382     -22.385522      30.636123      597.05153     -114.61788     -6.6366182      0.005155262    159324.32      0            
    217200   277.30976      480.19329     -5.2742785     -27.951515      32.61233       599.0054      -112.52588     -5.672773       0.0050847029   161535.22      0            
    217300   346.08721      483.46494     -6.9502745     -21.588457      31.408724      596.40373     -109.79939     -6.0093993      0.0050404806   162952.44      0            
    217400   295.81898      500.21605     -4.4407811     -16.522667      34.425563      611.31665     -118.41886     -6.143855       0.0050009917   164239.15      0            
    217500   277.54448      488.09212     -7.0480623     -17.12358       27.596606      595.45425     -105.61194     -5.1751453      0.0049254349   166758.6       0            
    217600   227.96147      488.53069     -5.7045213     -21.585952      33.897869      597.94675     -110.07224     -5.9512114      0.0048119126   170692.75      0            
    217700   267.86257      490.83485     -5.1360898     -16.886424      35.269711      602.2278      -118.51167     -6.1284763      0.0047075771   174475.87      0            
    217800   337.03191      484.64103     -4.5989191     -16.530437      27.059606      607.07297     -121.55765     -6.8045417      0.0046106157   178145.1       0            
    217900   326.50834      486.20676     -4.9894321     -19.868762      32.053229      590.88859     -107.15137     -4.7254962      0.0045123178   182025.88      0            
    218000   329.25831      480.93566     -6.3741279     -21.637476      24.7897        599.545       -110.56114     -4.8263025      0.0043985705   186733.08      0            
    218100   266.37008      494.21358     -6.7105613     -15.179898      28.976053      607.05834     -113.70318     -6.2271772      0.0043178011   190226.14      0            
    218200   278.23169      471.75944     -6.380454      -20.257871      22.756164      584.91072     -105.08959     -4.1795296      0.0042590942   192848.19      0            
    218300   250.24153      484.20546     -6.0367395     -19.87561       27.496596      602.86185     -113.96467     -6.2759616      0.0041684202   197043.14      0            
    218400   285.96723      483.06036     -5.2736102     -25.231674      30.919677      617.35175     -127.87008     -6.8356961      0.0040796036   201332.95      0            
    218500   306.53163      483.20255     -6.222411      -25.38094       30.014784      594.79127     -106.04199     -3.9581574      0.0040228625   204172.68      0            
    218600   324.19484      485.32933     -5.2013229     -20.986468      29.91517       592.84543     -105.75988     -5.483598       0.0039491868   207981.71      0            
    218700   293.19172      488.91435     -2.8323197     -19.885302      28.242257      593.3726      -105.00306     -4.9798269      0.0038320284   214340.43      0            
    218800   280.49215      482.62344     -6.8782581     -14.714775      22.410536      590.7877      -105.6284      -3.3533634      0.0037279482   220324.58      0            
    218900   265.58306      488.13694     -5.3097996     -13.400137      31.697775      606.60863     -124.75191     -6.7076191      0.0036190376   226954.98      0            
    219000   275.73803      492.60868     -5.3498091     -18.590266      34.61481       610.74695     -123.00406     -5.8089424      0.0035172877   233520.45      0            
    219100   296.35136      497.19484     -5.5249676     -13.698341      29.853021      593.62993     -102.78606     -4.2787471      0.0033876167   242459.14      0            
    219200   318.3291       493.05383     -7.1564679     -13.009934      28.729162      591.07776     -103.4143      -3.1723849      0.0032442893   253170.58      0            
    219300   286.62148      501.02845     -6.2627772     -10.051909      29.463961      604.71985     -112.58002     -4.2606594      0.003110808    264033.85      0            
    219400   254.66559      505.18093     -3.5780834     -10.802926      34.643587      600.98439     -110.35566     -5.7103784      0.0030002443   273763.91      0            
    219500   270.36053      496.5496      -5.8897709     -11.073549      35.529518      580.31756     -97.952032     -4.382134       0.0028865864   284543.22      0            
    219600   269.85583      496.30507     -5.6174465     -12.425292      33.201305      601.82029     -115.21052     -5.4632674      0.0027996959   293374.22      0            
    219700   311.95874      497.65547     -3.7240366     -16.305191      32.648926      608.56798     -117.95915     -5.5730623      0.0027171771   302283.79      0            
    219800   325.21515      502.16273     -4.8631703     -13.8367        38.919453      590.35672     -105.577       -2.8365696      0.0026671196   307957.17      0            
    219900   289.54655      496.00627     -5.4974952     -18.420647      32.970125      599.8101      -108.29753     -4.5582863      0.0026268844   312674.06      0            
    220000   310.51395      490.16812     -2.3805277     -10.656283      28.016468      592.69115     -112.54406     -4.9586303      0.0025963368   316352.87      0            
    220100   265.19854      495.25478     -5.3027454     -14.707684      29.719309      593.75921     -104.87659     -3.3367209      0.0025777048   318639.52      0            
    220200   301.22056      494.14922     -5.8063909     -11.280058      40.75658       586.80505     -110.62338     -5.7025846      0.0025634689   320409.04      0            
    220300   283.58081      499.93857     -4.3527778     -14.706039      31.580049      610.81121     -117.26383     -6.1300365      0.002548721    322263.06      0            
    220400   316.77866      500.89921     -5.2021402     -12.779073      31.891144      592.24049     -101.64954     -3.6016663      0.0025364493   323822.2       0            
    220500   316.05415      506.67264     -4.7209593     -10.614909      39.8424        605.59862     -118.01925     -5.4132577      0.0025277993   324930.31      0            
    220600   302.49981      484.08286     -4.5697002     -19.586953      26.892405      597.97885     -111.55136     -5.0803847      0.0025220949   325665.23      0            
    220700   250.88937      493.32919     -4.5232831     -16.810172      33.229698      593.02253     -106.24944     -5.3401364      0.0025334741   324202.48      0            
    220800   298.76775      486.28532     -3.5436789     -18.754065      19.404252      603.67729     -108.48573     -6.0127448      0.0025404657   323310.25      0            
    220900   287.53852      496.8121      -4.3569684     -22.22404       42.701966      605.53111     -119.22972     -5.610253       0.0025640265   320339.35      0            
    221000   315.24264      497.70089     -1.5200756     -16.723995      30.272922      608.99251     -118.1356      -5.1848763      0.0026017737   315691.8       0            
    221100   311.4513       497.4035      -5.5647473     -13.572499      36.195716      597.58108     -112.00589     -5.2301599      0.0026271593   312641.34      0            
    221200   299.45574      489.66425     -1.7341682     -18.067766      30.282126      592.3679      -108.10097     -5.082865       0.0026620228   308546.8       0            
    221300   302.94568      487.36643     -5.4961779     -17.884508      32.243027      605.21387     -120.57849     -6.1312913      0.0026883897   305520.67      0            
    221400   328.40918      488.39694     -5.7870874     -20.237547      36.346923      589.25383     -104.74719     -6.4319772      0.0027253275   301379.78      0            
    221500   355.28832      511.77159      1.2809597     -8.726309       32.734069      597.80333     -105.43614     -5.8843148      0.0027812086   295324.35      0            
    221600   306.77313      502.12059     -3.7710226     -19.492609      36.648598      624.38156     -128.96736     -6.678582       0.0028135956   291924.89      0            
    221700   298.68798      493.61544     -2.8479552     -15.973481      34.553172      592.97811     -108.71044     -6.3839676      0.0028618072   287006.97      0            
    221800   280.98147      497.83255     -4.7970735     -12.596225      34.135629      597.84083     -110.96127     -5.7893413      0.0029268932   280624.73      0            
    221900   328.30544      493.40889     -2.8712156     -7.9361524      32.735122      600.81662     -122.22542     -7.1100544      0.0029971784   274043.95      0            
    222000   323.22719      508.14664     -3.5227843     -5.480148       44.947333      590.95244     -112.33466     -6.4155405      0.0030619753   268244.69      0            
    222100   370.13016      495.16015     -5.3993785     -17.395166      35.898995      607.09409     -118.77436     -6.2640275      0.0031211547   263158.57      0            
    222200   268.27328      508.97707     -5.4151962     -12.044486      41.789983      602.83119     -110.93227     -7.2521516      0.003187161    257708.54      0            
    222300   284.20695      488.80449     -3.5547109     -18.614565      37.161484      598.81306     -118.12941     -6.8713575      0.0032754414   250762.73      0            
    222400   269.7858       499.15359     -6.2955544     -12.574557      28.787249      604.13225     -109.28081     -5.6149881      0.0033708205   243667.26      0            
    222500   292.82773      500.16021     -5.3086773     -11.966019      37.154323      604.02456     -117.11906     -6.6249081      0.0034279445   239606.74      0            
    222600   325.94009      503.78359     -4.9449659     -10.989803      37.447317      596.10319     -108.17209     -5.6600639      0.0035030448   234469.91      0            
    222700   361.84837      497.04729     -6.9696004     -12.478748      30.114205      600.02344     -107.26285     -6.3791609      0.0035472908   231545.32      0            
    222800   265.50603      498.72662     -7.0215882     -14.253183      35.529299      598.5144      -108.83478     -5.2075278      0.0035871302   228973.74      0            
    222900   270.20028      493.50182     -2.9925521     -13.003653      26.917577      604.39109     -114.71097     -7.0996756      0.0036516919   224925.5       0            
    223000   295.62307      490.77554     -5.3686212     -14.592334      37.126643      589.6883      -109.44025     -6.6381998      0.003706887    221576.38      0            
    223100   318.41971      498.37806     -5.8322393     -12.853747      40.206697      587.55525     -105.33837     -5.3595299      0.0037905536   216685.66      0            
    223200   348.15103      497.89984     -3.7838202     -13.270616      37.10613       601.49935     -117.52874     -6.1224652      0.0038505016   213312.11      0            
    223300   279.10716      499.90401     -6.9011417     -10.513946      34.921862      598.00057     -110.80224     -4.8010956      0.003905379    210314.7       0            
    223400   244.387        495.63863     -5.9142608     -13.467237      32.671239      600.94159     -113.30287     -5.2898342      0.0039763472   206561.09      0            
    223500   308.00766      484.7831      -3.4362636     -15.716402      31.576025      582.43636     -105.14446     -4.9321606      0.0040521034   202699.32      0            
    223600   319.25144      491.25141     -4.5116824     -17.706281      31.263619      610.28791     -121.60421     -6.4779526      0.0041184473   199434.05      0            
    223700   329.2341       492.83589     -5.0039933     -17.45173       26.433472      600.68461     -107.24676     -4.579703       0.0041886425   196091.84      0            
    223800   284.38813      499.93974     -5.5562518     -16.593648      38.233035      609.85378     -119.65545     -6.3417371      0.0042378308   193815.81      0            
    223900   251.70273      489.63249     -5.8449775     -15.981749      30.137967      594.44652     -106.50113     -6.6241478      0.0043148132   190357.86      0            
    224000   270.04536      480.70141     -4.900821      -18.243724      28.35793       584.69103     -105.04627     -4.1567337      0.004407129    186370.45      0            
    224100   288.20217      487.91807     -6.7185916     -16.420677      29.963891      595.98331     -109.53692     -5.3529419      0.004468311    183818.59      0            
    224200   267.92559      499.92921     -5.0439414     -17.3411        35.223651      611.38622     -118.35668     -5.9389305      0.0045395367   180934.46      0            
    224300   327.9099       491.45002     -4.5793481     -16.132876      40.390912      586.03615     -108.60922     -5.6555942      0.0045859804   179102.07      0            
    224400   275.14482      500.58845     -5.8045906     -14.931126      29.940736      598.96321     -102.37729     -5.2024889      0.0046384992   177074.22      0            
    224500   251.67723      494.95204     -5.3949725     -8.4839407      36.127212      596.46314     -118.86113     -4.8982665      0.0046894919   175148.74      0            
    224600   248.54951      488.4021      -5.5778221     -12.958525      27.811499      588.44492     -103.68802     -5.6299498      0.0047229253   173908.87      0            
    224700   244.33052      499.98712     -6.8936612     -12.533017      36.80116       596.2859      -109.26738     -4.4058833      0.0047830313   171723.44      0            
    224800   274.65508      499.42761     -4.6450718     -13.662453      35.783422      600.41316     -112.7652      -5.6962569      0.0048297186   170063.45      0            
    224900   292.08013      498.14646     -4.1047044     -13.770029      28.904489      594.7878      -103.91353     -3.7575605      0.0048765381   168430.68      0            
    225000   265.37196      500.95544     -6.646198      -13.632009      40.586738      595.26229     -110.04901     -4.5663652      0.0049134125   167166.63      0            
    225100   228.90369      497.75709     -3.3549127     -13.652402      32.799134      584.44302     -97.726426     -4.7513216      0.0049317521   166544.99      0            
    225200   229.91665      490.24523     -3.9107104     -14.006047      33.046219      596.98718     -115.89325     -5.9781546      0.0049312509   166561.92      0            
    225300   306.88553      483.19018     -5.4722405     -13.249365      26.992201      592.79746     -112.16187     -5.7160069      0.0049798082   164937.8       0            
    225400   309.53368      490.929       -5.3255107     -13.747929      28.854743      595.79785     -109.18345     -5.4667105      0.0049891983   164627.37      0            
    225500   305.19978      494.54007     -6.8311377     -11.773632      33.113412      599.33098     -113.31715     -5.982393       0.004996873    164374.52      0            
    225600   296.39711      492.34775     -7.2860891     -12.98188       32.489474      592.12564     -106.66833     -5.3310682      0.0050272463   163381.42      0            
    225700   297.07473      485.64141     -8.5062372     -11.640201      31.681171      590.80188     -111.47005     -5.2251551      0.0050565157   162435.69      0            
    225800   253.49547      484.80051     -6.0292227     -14.775595      28.404544      599.52777     -116.29225     -6.0347385      0.0050932022   161265.66      0            
    225900   266.84894      488.01949     -6.5676332     -17.108273      41.273265      594.67704     -118.57702     -5.6778914      0.0050948776   161212.63      0            
    226000   294.50031      499.44985     -8.1446016     -13.393695      41.195128      597.05073     -110.55035     -6.7073625      0.0051034554   160941.67      0            
    226100   328.60954      486.6712      -5.8909091     -17.355764      33.940732      597.02935     -115.0764      -5.9758042      0.0051219186   160361.51      0            
    226200   302.10146      484.57322     -3.7958412     -18.483614      28.391601      592.7232      -108.97947     -5.2826519      0.0051363883   159909.76      0            
    226300   267.53284      491.52195     -5.2399235     -12.200187      32.403823      600.54889     -117.87145     -6.1192091      0.0051426847   159713.97      0            
    226400   227.86356      492.90519     -4.1908688     -13.796541      25.312678      622.77921     -129.85822     -7.341072       0.0051837846   158447.67      0            
    226500   275.19381      491.49378     -4.5260319     -11.274164      31.549686      597.28881     -115.02061     -6.5239144      0.005237552    156821.09      0            
    226600   358.20831      482.78117     -6.1785874     -14.38834       23.707174      604.30754     -118.0363      -6.6303106      0.005283381    155460.79      0            
    226700   270.77455      505.28682     -7.8090268     -13.662345      47.108818      599.27114     -113.60246     -6.01931        0.0053239258   154276.87      0            
    226800   304.91043      496.09647     -5.6780188     -9.3424478      32.068474      598.45293     -111.37095     -8.0335231      0.0053708235   152929.74      0            
    226900   272.90352      491.78314     -3.8471027     -9.6591743      27.613693      609.84057     -125.4429      -6.7219567      0.005453574    150609.24      0            
    227000   253.0882       489.21993     -6.7843026     -13.266334      32.921292      601.94686     -119.13568     -6.4619147      0.0055171771   148872.98      0            
    227100   291.63061      494.27618     -6.1755333     -15.35993       34.480755      603.83006     -115.9101      -6.5890626      0.0055777385   147256.56      0            
    227200   323.95593      498.48961     -2.5247893     -12.936419      38.832848      605.05688     -123.79941     -6.1394988      0.0056515566   145333.17      0            
    227300   325.0084       493.82568     -5.4849185     -12.748345      37.437781      599.59839     -118.87876     -6.0984781      0.0057575907   142656.65      0            
    227400   283.01844      491.71415     -2.8619065     -14.390816      25.823719      606.32692     -118.0823      -5.1014683      0.0058628907   140094.48      0            
    227500   267.42956      492.35752     -6.9151529     -12.803814      35.350811      615.24897     -130.38701     -8.1362899      0.0059729309   137513.5       0            
    227600   308.67625      485.34028     -7.3419101     -8.514759       32.297311      583.36864     -109.05491     -5.4140907      0.006109989    134428.82      0            
    227700   271.54604      496.98033     -7.561005      -11.86693       32.254126      603.13727     -112.21656     -6.7665762      0.0062901674   130578.18      0            
    227800   294.13398      500.05638     -7.3207254     -14.650541      33.211637      610.58504     -115.12722     -6.6418105      0.0064808114   126737         0            
    227900   298.92442      499.92448     -9.0771363     -14.657619      32.700505      612.51152     -114.65087     -6.9019107      0.0066282628   123917.63      0            
    228000   304.65876      488.35886     -8.2826688     -9.7768329      23.97886       581.53856     -94.603413     -4.4956431      0.0068342363   120182.94      0            
    228100   268.52655      488.83654     -6.6574079     -12.885235      37.382195      595.27223     -117.93543     -6.3398166      0.007052757    116459.23      0            
    228200   264.35988      491.87322     -6.7548979     -13.973117      28.716344      609.86549     -119.51086     -6.4697352      0.0072404507   113440.26      0            
    228300   326.07015      486.00369     -5.7489899     -13.629079      36.426909      589.42891     -114.57443     -5.8996236      0.007402788    110952.6       0            
    228400   340.00147      490.97845     -7.319876      -14.031215      31.038706      601.35609     -113.54589     -6.5193582      0.0075605779   108637.01      0            
    228500   376.50017      492.12189     -5.2578567     -18.164238      30.54376       603.49499     -111.33138     -7.1633861      0.0077430372   106077.06      0            
    228600   328.2366       493.67512     -6.5288929     -17.927905      29.804569      595.51986     -102.04789     -5.1446239      0.0078802327   104230.25      0            
    228700   273.77727      493.73413     -6.5216421     -14.812938      39.379772      597.91732     -115.96792     -6.2604613      0.0080532118   101991.43      0            
    228800   308.23604      481.33513     -5.933458      -15.157873      24.9603        589.2204      -105.31965     -6.4345866      0.0083049781   98899.552      0            
    228900   292.08802      487.70815     -8.101514      -14.958493      36.767778      600.21082     -119.3035      -6.9069346      0.0085943551   95569.546      0            
    229000   323.09811      490.53288     -6.5546167     -13.398648      33.878196      591.92641     -108.95005     -6.3684041      0.0088263087   93057.997      0            
    229100   338.35764      496.38989     -4.8708738     -14.55413       40.417028      596.23122     -114.174       -6.6593545      0.0090356364   90902.131      0            
    229200   352.98464      484.20622     -7.74879       -17.923954      21.375867      607.82888     -112.71781     -6.6079811      0.0091749666   89521.701      0            
    229300   281.29501      485.28368     -4.7997423     -15.734307      35.476348      593.8042      -117.82939     -5.6334354      0.009277182    88535.356      0            
    229400   274.38954      483.48237     -7.5522422     -18.029414      24.914077      593.93961     -104.30714     -5.4825173      0.0093533579   87814.303      0            
    229500   321.35289      482.9088      -6.4193639     -15.240639      36.270998      588.13928     -114.06713     -5.7743436      0.0094061758   87321.205      0            
    229600   315.19874      495.70323     -7.5812862     -15.032191      34.0488        598.12451     -107.19146     -6.6651398      0.0095170795   86303.641      0            
    229700   345.80417      490.33007     -6.7599341     -14.602847      35.735912      601.63956     -118.55525     -7.1273685      0.0096198921   85381.271      0            
    229800   266.3471       490.53597     -9.1278101     -14.402836      32.31508       601.91992     -112.47534     -7.6930388      0.0097312099   84404.572      0            
    229900   292.5938       479.55897     -6.492796      -12.757393      35.316474      580.31841     -110.90171     -5.9240102      0.0098721988   83199.156      0            
    230000   298.71883      484.66355     -6.9426212     -15.387555      23.587664      599.77134     -111.88053     -4.4847528      0.010065066    81604.894      0            
    230100   324.83189      489.17737     -5.6927763     -14.964478      33.310146      595.81776     -113.85374     -5.4395439      0.010204231    80491.968      0            
    230200   311.0125       492.55233     -5.366168      -15.227016      30.524209      599.55606     -111.91925     -5.0155038      0.010226439    80317.17       0            
    230300   289.87168      487.96169     -10.701728     -14.613986      27.646693      601.32365     -110.15177     -5.5411694      0.010163492    80814.605      0            
    230400   271.87789      481.14527     -7.7897625     -13.111394      29.373831      597.2523      -118.32127     -6.258436       0.010182395    80664.583      0            
    230500   248.28849      490.60671     -6.4953843     -13.041322      26.023021      600.20317     -110.35206     -5.7307108      0.010203181    80500.251      0            
    230600   268.70767      493.91671     -9.0369241     -13.152455      37.64032       590.16768     -105.45564     -6.2462749      0.01019742     80545.726      0            
    230700   291.54082      494.13314     -7.8861692     -13.46232       35.771925      590.40957     -105.298       -5.401867       0.010221344    80357.206      0            
    230800   269.86921      500.58547     -10.206041     -14.504441      31.739369      624.0364      -123.83696     -6.6428543      0.010229651    80291.952      0            
    230900   296.84674      491.94793     -8.4027259     -12.413478      33.944711      595.10524     -110.44072     -5.8450956      0.010320422    79585.756      0            
    231000   262.12385      485.97504     -9.1445065     -11.063651      31.105194      599.89531     -118.39863     -6.4186742      0.010325123    79549.522      0            
    231100   301.2932       473.07753     -10.85449      -14.461591      23.636367      594.89596     -114.52837     -5.6103464      0.010282704    79877.686      0            
    231200   321.38717      475.5506      -7.5077474     -18.806449      31.64877       588.14271     -110.89302     -7.0336677      0.010221356    80357.109      0            
    231300   341.86617      483.92883     -6.1708959     -14.573119      27.011179      589.77771     -107.18085     -4.935191       0.010231471    80277.667      0            
    231400   305.77052      489.883       -7.2636458     -15.457612      32.291571      589.8601      -104.23207     -5.3153362      0.010047467    81747.826      0            
    231500   325.76462      482.21657     -7.2732343     -13.546179      32.946153      582.86717     -107.54006     -5.2372826      0.009826721    83584.199      0            
    231600   280.66184      484.24124     -5.5287408     -16.950147      28.501206      599.54434     -116.8034      -4.5220117      0.0096205219   85375.681      0            
    231700   264.76902      484.55893     -7.5503251     -18.87627       32.006547      599.80123     -114.56905     -6.2531907      0.009486323    86583.454      0            
    231800   293.42153      486.39296     -4.6710654     -18.684904      26.249685      591.11714     -101.77621     -5.8416933      0.0093930747   87442.998      0            
    231900   352.98939      485.17488     -5.8402138     -17.479197      35.809024      595.65209     -116.7783      -6.1885112      0.0092416903   88875.366      0            
    232000   319.61001      492.48571     -3.8597125     -16.760321      29.625606      599.30904     -110.11762     -5.7112843      0.0091562594   89704.602      0            
    232100   329.37131      478.55042     -4.1027768     -15.753847      30.206551      571.38898     -98.54783      -4.6406581      0.0090731569   90526.221      0            
    232200   272.03533      482.27714     -3.166386      -17.109649      32.279521      595.23195     -119.76501     -5.1932856      0.0089563322   91707.028      0            
    232300   274.91836      485.74808     -3.924848      -16.517206      29.041062      596.59665     -113.33642     -6.1111545      0.0088298289   93020.897      0            
    232400   303.53316      484.7192      -4.6679897     -16.289815      32.528397      592.44841     -113.94513     -5.3546761      0.0087546305   93819.906      0            
    232500   300.16341      487.63438     -7.6430683     -17.072305      39.766059      592.45587     -112.94888     -6.9232954      0.008654799    94902.102      0            
    232600   295.26385      488.37944     -4.8605358     -18.084523      41.543889      589.25566     -112.35167     -7.1233837      0.008606635    95433.187      0            
    232700   308.67977      481.55651     -5.7293421     -18.875414      31.189727      588.49587     -108.27194     -5.2523846      0.008512511    96488.405      0            
    232800   249.86734      480.89701     -4.4586386     -19.276712      26.315772      609.84612     -123.82972     -7.6998052      0.0084078581   97689.399      0            
    232900   251.73682      485.7292      -0.58973194    -15.363075      32.328822      589.10149     -113.89462     -5.8536856      0.00833851     98501.844      0            
    233000   292.97831      489.53452     -4.7853759     -16.057567      27.434886      595.9363      -107.09021     -5.9035073      0.0082640911   99388.862      0            
    233100   328.26573      485.49162     -6.5953447     -17.241267      35.454116      597.65342     -117.76167     -6.0176285      0.008128185    101050.68      0            
    233200   279.98243      496.9276      -3.0352595     -15.187894      39.179866      598.49086     -116.22391     -6.2960538      0.0080204962   102407.46      0            
    233300   278.87913      487.98337     -6.5086368     -16.480757      34.642951      592.48006     -109.86609     -6.284153       0.0079201308   103705.18      0            
    233400   260.13986      480.34356     -4.8323239     -16.011433      27.940374      594.16207     -114.91755     -5.9975812      0.0078145655   105106.11      0            
    233500   261.13248      479.67127     -6.3845377     -19.723007      35.005193      602.33415     -124.11917     -7.4413586      0.0077071794   106570.58      0            
    233600   316.31531      478.58829     -8.320294      -16.258631      21.41098       596.42113     -108.33554     -6.3293502      0.0076062154   107985.19      0            
    233700   304.8916       486.27905     -5.7347228     -16.988366      34.368794      589.0106      -107.8219      -6.5553544      0.0074809917   109792.74      0            
    233800   341.57306      485.0609      -6.4949866     -17.62754       30.676588      611.63247     -126.6349      -6.4907354      0.0073236083   112152.18      0            
    233900   326.8519       487.64333     -3.5770608     -15.367814      32.389256      598.12379     -116.43681     -7.4880268      0.0071494533   114884.11      0            
    234000   296.05639      480.84128     -6.9274721     -15.9507        25.763469      600.9859      -117.00775     -6.0221673      0.0068955025   119115.12      0            
    234100   256.8008       480.6628      -6.7607668     -16.425647      25.983696      597.24928     -113.43746     -5.946303       0.0065833788   124762.47      0            
    234200   308.75682      482.06354     -7.2728427     -15.484751      29.550645      588.91652     -106.57906     -7.0669671      0.0063254097   129850.66      0            
    234300   309.87439      490.77503     -3.6772947     -15.405307      30.419236      601.93659     -115.71827     -6.7799228      0.0061141394   134337.57      0            
    234400   308.48118      490.91954     -5.5316305     -14.411449      27.694191      612.63166     -122.66495     -6.7982864      0.005876264    139775.65      0            
    234500   264.81855      498.03722     -8.3546313     -14.738398      40.851976      605.69743     -118.30258     -7.1165785      0.0056583974   145157.46      0            
    234600   260.56831      490.39279     -7.3941781     -15.431906      31.572565      593.35481     -105.46324     -6.2452573      0.0055013028   149302.56      0            
    234700   267.23958      477.09338     -6.2086736     -18.107953      31.06836       599.77456     -121.7377      -7.6952132      0.0053491823   153548.44      0            
    234800   266.41585      486.14442     -2.5474052     -17.518905      28.479366      600.13262     -115.0935      -7.3077552      0.005183389    158459.77      0            
    234900   323.86815      488.38515     -9.4776414     -17.704384      31.04036       615.21882     -123.19799     -7.4940065      0.0050151761   163774.63      0            
    235000   329.70457      489.02678     -4.490312      -16.335512      31.284334      610.41391     -124.18785     -7.6577887      0.004897178    167720.8       0            
    235100   326.76797      481.21904     -4.6372943     -14.558447      29.001093      595.9465      -116.9727      -7.5601114      0.0047886759   171521.03      0            
    235200   270.49934      484.22629     -7.3214281     -15.682978      22.315778      612.16892     -120.77435     -6.4796579      0.0046919885   175055.55      0            
    235300   283.10926      482.18287     -4.4068516     -15.962205      24.965069      595.75133     -111.61088     -6.5535929      0.0046265014   177533.42      0            
    235400   354.91113      486.82412     -5.8423132     -16.532284      28.450001      611.94964     -123.3998      -7.8011226      0.0046074339   178268.13      0            
    235500   330.82671      494.63744     -5.8776188     -16.077989      32.795212      604.80799     -115.27375     -5.7363979      0.0045633324   179990.97      0            
    235600   283.42931      493.46832     -6.5375049     -15.698012      24.834392      612.78224     -115.29211     -6.6206807      0.0044711854   183700.41      0            
    235700   263.36663      489.10327     -8.2452571     -15.00845       37.634819      602.4889      -121.03621     -6.7305284      0.00439184     187019.25      0            
    235800   281.51011      486.51156     -6.3159043     -14.579732      22.508391      601.29257     -110.58917     -5.8046012      0.00434899     188861.92      0            
    235900   297.56865      489.81832     -6.0308628     -15.00077       33.389575      590.60997     -107.15665     -5.9929444      0.004336079    189424.27      0            
    236000   303.02118      498.57637     -6.1977996     -8.3514506      31.134157      613.46226     -124.30063     -7.1701733      0.0043208987   190089.76      0            
    236100   323.28322      487.33555     -6.1036438     -15.332605      31.387394      610.6785      -126.57411     -6.7199866      0.0042985458   191078.25      0            
    236200   314.07207      487.12156     -8.1106554     -13.759041      32.928949      588.50939     -106.81075     -5.6363394      0.0042801656   191898.79      0            
    236300   299.40766      486.48172     -8.7565624     -14.162043      33.269641      588.79647     -107.94169     -4.7240906      0.0042997687   191023.9       0            
    236400   298.1276       481.00985     -9.6526769     -13.080539      29.151277      590.78121     -111.62026     -4.5691652      0.0043012007   190960.31      0            
    236500   270.96991      483.18527     -9.89758       -10.505775      27.990743      601.44294     -118.758       -7.0870578      0.0042892091   191494.19      0            
    236600   284.62893      485.7305      -7.6877728     -12.989074      31.792451      585.27692     -106.21883     -4.443192       0.0042986736   191072.57      0            
    236700   317.18377      487.19867     -12.658495     -16.090986      28.949215      600.97486     -108.19644     -5.779482       0.0042934417   191305.41      0            
    236800   307.46367      491.13324     -9.4885796     -16.02128       33.736628      605.47883     -116.4668      -6.1055563      0.0042749851   192131.34      0            
    236900   273.44105      490.2621      -8.736085      -17.968343      29.504688      601.09465     -108.66422     -4.9685943      0.0042198012   194643.91      0            
    237000   264.76979      487.97688     -9.0056906     -12.706442      28.775871      604.32529     -117.8588      -5.5533392      0.004234624    193962.58      0            
    237100   246.9364       478.04647     -7.5127084     -15.563339      25.49095       587.68279     -107.53846     -4.5127609      0.0042610239   192760.86      0            
    237200   291.44695      470.31802     -5.5679336     -19.314434      23.68524       584.04146     -106.61382     -5.9124826      0.0042872849   191580.13      0            
    237300   335.20718      478.57055     -6.6849821     -18.730143      32.802469      602.08237     -124.59276     -6.3063993      0.0043260461   189863.58      0            
    237400   288.45918      499.03501     -6.7075344     -12.380926      30.813695      597.71937     -105.5554      -4.8541997      0.0043778489   187616.94      0            
    237500   318.77525      492.96333     -9.4536799     -14.010994      34.368041      601.59338     -113.49595     -6.0374663      0.0044449719   184783.76      0            
    237600   295.23315      485.51921     -8.3052988     -13.435316      33.544885      590.17538     -111.16696     -5.2934729      0.0045082757   182189.08      0            
    237700   264.62731      486.41448     -10.17382      -12.230349      33.574841      586.34245     -106.70102     -4.3976265      0.0045613518   180069.12      0            
    237800   272.31475      484.06594     -10.453615     -17.101221      34.006261      595.77835     -112.08776     -6.0760718      0.004584253    179169.56      0            
    237900   321.30408      482.5349      -6.047487      -18.058814      25.407138      585.33582     -99.288897     -4.8128577      0.00462678     177522.73      0            
    238000   314.71947      486.43601     -11.151727     -17.011966      32.21809       618.84673     -129.114       -7.3511262      0.0046619946   176181.8       0            
    238100   306.00529      486.97703     -9.0728554     -16.815794      30.978825      594.69912     -107.23282     -5.5794506      0.0047081799   174453.53      0            
    238200   310.64114      480.53847     -5.8343809     -19.052606      26.55812       599.34614     -115.47984     -4.998971       0.004734737    173475.02      0            
    238300   257.12581      489.68562     -7.5030252     -14.761167      27.557334      598.80535     -110.12507     -4.2877936      0.0048003282   171104.68      0            
    238400   285.2983       480.45094     -4.9085494     -16.413759      32.475962      579.38006     -104.99701     -5.0857622      0.0048815597   168257.42      0            
    238500   276.74427      492.55887     -8.8952845     -16.340183      31.006975      625.61058     -130.85577     -7.9674426      0.0049464232   166051.02      0            
    238600   304.00028      499.31424     -8.8314052     -13.278484      25.996757      612.00606     -111.04494     -5.5337533      0.0050963538   161165.93      0            
    238700   302.91547      496.26778     -7.1142065     -12.099102      29.168363      599.32119     -107.30586     -5.7026088      0.0052686991   155894.01      0            
    238800   286.23303      489.8366      -5.3082691     -12.66266       26.632974      608.56669     -120.96932     -6.4228155      0.005519587    148807.98      0            
    238900   267.03489      487.29512     -5.1282679     -13.740265      28.287578      606.9798      -122.24795     -6.8557848      0.0057499365   142846.55      0            
    239000   265.52914      494.67519     -9.793436      -13.022928      30.232458      595.69435     -103.35466     -5.0805914      0.0060250532   136323.88      0            
    239100   360.41331      494.60066     -8.1977331     -14.531113      38.449825      604.31237     -118.61539     -6.8173055      0.0063128367   130109.28      0            
    239200   305.36074      496.31011     -7.1522109     -16.491587      41.803545      600.92554     -116.83666     -5.9385209      0.0066276782   123928.56      0            
    239300   286.71281      488.89818     -8.5029769     -14.149078      34.249316      590.17359     -106.66549     -6.2071881      0.006956196    118075.83      0            
    239400   253.88571      492.25762     -5.6600432     -13.731062      34.036482      602.85522     -118.99668     -6.2462903      0.0072500658   113289.81      0            
    239500   290.13315      491.00531     -8.216112      -13.625341      31.849261      601.69451     -114.59974     -6.0972686      0.0074551232   110173.71      0            
    239600   359.43877      485.66538     -8.8037837     -15.575822      31.719498      599.88751     -116.42836     -5.1336553      0.0076271728   107688.48      0            
    239700   313.11374      492.41328     -4.9433366     -20.936068      29.663066      603.67827     -107.01885     -8.029806       0.0077946955   105374.05      0            
    239800   296.18288      478.68674     -6.3886421     -17.967966      28.804561      597.1444      -116.83114     -6.0744733      0.007937734    103475.2       0            
    239900   261.64538      486.61147     -5.6147022     -16.024983      29.625511      600.52977     -115.68374     -6.2203861      0.0081622672   100628.73      0            
    240000   271.94075      493.33535     -6.2286941     -15.376576      33.933627      599.02044     -112.48943     -5.5240152      0.0083154055   98775.533      0            
    240100   337.18045      492.28923     -3.2768977     -11.834362      32.394527      582.13104     -101.60301     -5.5220688      0.0084751233   96914.061      0            
    240200   335.07695      491.68832     -4.8204241     -14.945775      33.927094      593.57852     -109.80159     -6.2495062      0.0085621539   95928.971      0            
    240300   276.99243      492.28464     -5.5681257     -15.173564      28.358747      609.88542     -119.06086     -6.1569789      0.0085673282   95871.033      0            
    240400   261.01686      476.71966      1.0733206     -21.934692      21.196751      604.86333     -121.70517     -6.7738779      0.008631545    95157.774      0            
    240500   263.67362      486.0023      -4.8964433     -18.374096      27.701606      591.37418     -103.77665     -6.0262898      0.0086326135   95145.996      0            
    240600   275.34296      496.24393     -5.4195927     -15.285769      28.850811      606.19695     -112.07913     -6.019348       0.0086460537   94998.093      0            
    240700   335.33849      490.70895     -1.8473058     -13.081672      27.779517      604.42818     -120.83429     -5.7354774      0.0086492476   94963.012      0            
    240800   321.53946      494.45743      1.1351413     -12.531693      25.896576      591.47387     -106.58952     -4.9269492      0.0087557678   93807.719      0            
    240900   295.75514      485.30674     -3.8844247     -15.823734      30.982503      592.4679      -113.18606     -5.2494383      0.0087908036   93433.848      0            
    241000   263.68958      478.56317     -3.0668234     -17.946882      25.965849      586.46164     -107.16969     -5.680925       0.0088724716   92573.822      0            
    241100   289.98426      479.39327     -5.0040161     -17.952429      28.527659      586.58787     -107.48722     -5.2786021      0.0089572806   91697.318      0            
    241200   314.30629      483.50994     -5.0113589     -17.144694      21.332941      609.49476     -118.32813     -6.8335764      0.0091315957   89946.887      0            
    241300   310.50529      492.94487     -3.3942743     -14.266832      34.985472      600.10982     -118.52649     -5.9628255      0.0093195314   88133.038      0            
    241400   337.35306      483.96583     -3.6429715     -17.771559      21.45729       596.69075     -107.29286     -5.4748107      0.0094779363   86660.069      0            
    241500   296.98021      489.46052     -5.9319579     -16.77837       32.870818      601.01892     -116.10327     -5.6156155      0.0096646621   84985.756      0            
    241600   234.71291      492.16314     -5.065713      -17.844412      31.802511      601.41476     -112.05483     -6.0891749      0.00976929     84075.569      0            
    241700   281.72934      480.48487     -5.3596279     -16.159111      27.038755      594.06554     -113.0948      -6.0058814      0.0097994014   83817.223      0            
    241800   292.56428      492.30115     -6.6707654     -15.206003      30.450441      607.4362      -117.14348     -6.5652382      0.009801953    83795.403      0            
    241900   297.16396      500.02312      0.036672861   -13.909886      24.405395      612.24264     -116.59935     -6.1523567      0.0098222871   83621.93       0            
    242000   292.65655      498.50213     -4.8784589     -14.72027       35.864107      601.27328     -112.89405     -6.1424796      0.0098419542   83454.829      0            
    242100   330.81904      485.79693     -5.3928727     -13.198761      31.841936      588.8001      -110.09271     -6.160766       0.0098877414   83068.375      0            
    242200   287.30846      484.69448     -1.4376162     -15.540364      29.139737      593.69174     -115.71939     -5.4396238      0.0099185443   82810.399      0            
    242300   232.73553      486.70554     -6.3527239     -13.689111      27.599635      604.66731     -118.28903     -7.2305381      0.010019344    81977.285      0            
    242400   273.14062      477.12261     -3.9177888     -17.162806      32.528056      588.57982     -116.16927     -6.7354063      0.0101992      80531.667      0            
    242500   263.11926      498.14631     -3.4132906     -16.209313      26.213776      607.75212     -110.01588     -6.1811         0.010270732    79970.797      0            
    242600   308.54688      495.22149     -4.0871258     -13.706481      32.637189      597.54808     -111.74671     -5.4234587      0.010267914    79992.746      0            
    242700   296.5387       497.44364     -4.5707231     -12.235554      25.733797      618.07102     -122.4148      -7.1401059      0.010200928    80518.028      0            
    242800   291.75379      487.42395     -4.9958385     -16.125142      34.728533      596.20063     -116.59775     -5.7864825      0.010208916    80455.025      0            
    242900   288.82509      482.28751     -5.7378103     -13.576672      24.660894      587.55986     -105.30504     -5.313715       0.010174205    80729.511      0            
    243000   253.36932      490.86221     -4.5076642     -12.944192      33.887123      591.31068     -111.07145     -5.8122847      0.01009962     81325.692      0            
    243100   329.86241      489.91906     -1.2515208     -14.737548      27.160426      600.16717     -114.79509     -6.6243839      0.01005387     81695.77       0            
    243200   362.17604      483.34027     -5.8312359     -18.781391      34.458496      597.67986     -118.30064     -5.8848183      0.01002202     81955.398      0            
    243300   310.22121      490.61072     -4.6161773     -16.554614      29.31252       597.51178     -110.26873     -4.7740567      0.0099110779   82872.783      0            
    243400   276.0815       485.4459      -7.6123704     -16.859407      31.481211      596.67324     -112.35948     -5.8772951      0.0097841676   83947.725      0            
    243500   296.18175      479.3479      -6.6089887     -16.842833      23.401146      599.31811     -114.22618     -5.6933538      0.009700268    84673.806      0            
    243600   281.35348      487.89878     -1.779497      -18.156749      31.636989      597.36093     -115.6033      -5.559585       0.0095631225   85888.12       0            
    243700   315.58384      490.79762     -6.7188664     -11.776696      35.753933      595.19904     -115.56172     -6.0980622      0.009435797    87047.084      0            
    243800   299.99485      494.15408     -7.5251038     -11.496152      24.226069      601.63567     -108.24621     -4.4402003      0.0092624569   88676.106      0            
    243900   332.74967      476.35961     -5.5698011     -20.815832      29.416122      593.76165     -114.42255     -6.0099862      0.0091068488   90191.309      0            
    244000   303.51228      486.12661     -7.3594089     -12.782627      27.383023      599.58287     -114.65457     -6.0426809      0.0089178846   92102.404      0            
    244100   293.51914      478.67801     -5.2771915     -17.656163      27.895445      585.54444     -106.94698     -4.8815399      0.0086918053   94498.046      0            
    244200   269.15324      485.15747     -9.1082967     -18.184045      32.493705      594.10647     -107.49241     -6.6579451      0.008429558    97437.921      0            
    244300   294.4084       491.30546     -8.0688586     -19.675919      37.8637        601.80011     -114.87027     -5.743298       0.0082322879   99772.824      0            
    244400   328.95698      490.28493     -7.6001964     -17.332134      26.184405      603.85936     -109.0074      -5.8191063      0.0080602952   101901.8       0            
    244500   290.82201      488.18933     -6.9493564     -16.076957      38.038354      591.00692     -111.80677     -6.0228625      0.0078256624   104957.07      0            
    244600   261.9285       483.12105     -7.9641403     -17.914176      27.13265       601.35223     -112.92022     -6.5652934      0.0075965497   108122.59      0            
    244700   292.44263      479.3204      -8.6144942     -17.617563      35.415608      601.39776     -125.20406     -6.0568515      0.007344308    111836.08      0            
    244800   293.5116       489.95462     -8.0759152     -13.46011       21.146332      604.88386     -108.55951     -5.9800464      0.007088911    115865.27      0            
    244900   375.52189      481.8074      -9.051287      -10.349061      25.682972      590.13317     -108.88527     -5.7231147      0.0067764414   121207.96      0            
    245000   274.94438      499.94645     -7.2337119     -14.565258      34.452578      597.36086     -106.04039     -4.0276231      0.0064826434   126701.19      0            
    245100   280.9498       483.01705     -8.4246191     -15.622788      32.496976      598.26875     -118.18453     -5.5167369      0.0062631383   131141.7       0            
    245200   274.20292      480.30902     -7.4361458     -14.56452       28.122297      592.32455     -111.85523     -6.2819216      0.0061063315   134509.34      0            
    245300   280.35381      488.11505     -9.4457988     -15.397158      32.503176      589.54633     -103.44981     -5.6416814      0.0059949186   137009.14      0            
    245400   274.70314      501.76741     -6.5620485     -11.779107      38.278735      609.96309     -121.59714     -6.5361227      0.0058838091   139596.41      0            
    245500   324.51859      492.12329     -8.1493485     -12.81901       29.449709      607.06901     -117.07995     -6.3471232      0.00575337     142761.3       0            
    245600   292.07432      494.15302     -7.8571545     -15.548538      35.967247      597.23407     -110.01335     -5.629249       0.0056345182   145772.64      0            
    245700   274.49193      483.84051     -8.2176881     -16.132965      24.587134      592.97556     -104.05771     -5.3138257      0.0055449881   148126.31      0            
    245800   269.6291       473.41948     -6.1119751     -19.779727      25.823331      608.63921     -128.54839     -6.6029784      0.0054495256   150721.12      0            
    245900   257.31541      484.36804     -8.2493094     -19.230456      33.800747      599.47967     -115.51065     -5.9219711      0.0053823494   152602.25      0            
    246000   297.26402      486.38504     -6.5562401     -14.371153      26.813531      595.55851     -109.17151     -5.8881037      0.0053662829   153059.13      0            
    246100   307.42867      484.81991     -7.3740619     -18.190885      33.814622      596.1791      -112.2799      -7.3289644      0.0053518857   153470.88      0            
    246200   300.54714      493.41247     -6.2709133     -13.583495      34.708988      589.14388     -105.02334     -5.5626531      0.0053613936   153198.72      0            
    246300   325.17835      485.83977     -6.6557805     -17.577873      26.540295      601.15629     -112.17447     -5.4486879      0.0053410009   153783.65      0            
    246400   296.37543      486.80336     -7.7291973     -19.747723      30.602727      598.54576     -110.04857     -4.819629       0.0052912273   155230.26      0            
    246500   308.38426      485.03917     -8.3725286     -9.877009       33.610713      597.62535     -121.08018     -6.8671707      0.0052900355   155265.23      0            
    246600   269.84141      487.39673     -8.7328923     -12.688035      27.669366      594.23346     -106.86836     -6.2168118      0.005277894    155622.42      0            
    246700   304.64049      489.25637     -7.1903858     -12.289929      32.004085      596.03249     -113.62878     -5.6710995      0.0052432805   156649.75      0            
    246800   313.9709       496.2518      -5.2131871     -15.228286      32.177954      605.01338     -114.23523     -6.2628376      0.0051830253   158470.89      0            
    246900   329.72036      485.65212     -6.3431574     -17.740759      28.659208      591.81303     -104.78157     -5.9546289      0.005119279    160444.2       0            
    247000   312.50726      483.78452     -4.3950082     -17.089003      32.456296      596.20715     -117.69723     -5.6976804      0.0050803096   161674.91      0            
    247100   280.12024      486.93487     -6.6010484     -16.550674      30.069567      603.37807     -117.18487     -6.17618        0.0050440329   162837.68      0            
    247200   261.55466      490.7905      -6.8841627     -15.071106      39.906134      588.56868     -109.36827     -6.360773       0.0050046831   164118.01      0            
    247300   273.85156      497.17259     -6.6375207     -15.748881      35.616303      601.20221     -111.60844     -5.6510905      0.0049928242   164507.82      0            
    247400   302.80301      504.16031     -6.6940905     -12.028306      42.598663      605.70767     -118.6203      -6.8033258      0.0049817607   164873.15      0            
    247500   340.11565      494.3441      -4.5212734     -12.584673      32.889005      592.47188     -108.62063     -5.2902121      0.0049780141   164997.24      0            
    247600   235.87061      503.60446     -6.1172822     -14.039441      36.549477      596.7971      -105.23438     -4.3510107      0.0049619263   165532.21      0            
    247700   297.95385      481.40493     -5.520908      -14.955863      29.657525      591.59966     -114.52402     -4.8514689      0.0049321563   166531.34      0            
    247800   293.18585      490.51397     -7.428978      -12.39125       29.651745      601.46274     -113.94512     -6.8351686      0.0049331758   166496.93      0            
    247900   296.1236       493.1416      -5.9124408     -14.263868      31.778537      601.612       -114.73701     -5.3356159      0.0049206678   166920.15      0            
    248000   299.47372      491.03395     -6.3261423     -16.710089      30.202675      606.93657     -117.54261     -5.5264481      0.0049166583   167056.27      0            
    248100   289.86676      495.56552     -6.3631879     -13.074936      36.930587      594.69198     -111.57695     -5.0419759      0.0049414464   166218.26      0            
    248200   311.25529      494.25343     -5.7916495     -11.658591      30.073114      586.13695     -99.722116     -4.7842748      0.0049543373   165785.77      0            
    248300   319.76062      493.966       -8.192671      -12.424951      35.670106      592.56255     -109.08812     -4.5609149      0.0049919284   164537.34      0            
    248400   313.52101      498.171       -3.6691503     -14.084219      32.666879      595.81504     -107.23941     -5.3181331      0.0050690176   162035.07      0            
    248500   301.85793      495.19712     -6.6863228     -17.177877      39.91786       592.19603     -107.43338     -5.6191779      0.0051485177   159533.03      0            
    248600   248.31638      499.10935     -4.6336613     -15.290449      37.975683      611.55212     -123.60158     -6.892762       0.0052581032   156208.16      0            
    248700   292.71899      481.25178     -6.5395157     -17.715304      29.183735      592.06245     -109.59586     -6.1437339      0.0053523071   153458.8       0            
    248800   275.02857      489.64469     -7.472075      -18.469017      35.608259      592.31287     -106.20386     -6.131486       0.0054501158   150704.8       0            
    248900   317.28597      497.49493     -5.4289305     -17.248259      40.757177      599.30005     -113.94199     -5.9431174      0.0055960731   146774.1       0            
    249000   313.83757      494.01619     -4.4162619     -18.824768      35.664594      584.53172     -98.814136     -4.1249584      0.005726486    143431.52      0            
    249100   294.68707      487.64278     -4.6658488     -18.048667      33.786419      587.27664     -106.03958     -4.6661789      0.0059151583   138856.57      0            
    249200   310.85633      483.47036     -4.5319121     -15.480282      32.453339      588.26745     -111.8581      -5.3801387      0.0061400967   133769.65      0            
    249300   297.9141       487.45531     -4.5060061     -16.058437      32.638111      592.6893      -111.93774     -5.3699218      0.0063634605   129074.21      0            
    249400   274.79208      492.80733     -6.1191169     -17.471452      32.648149      617.39262     -125.42615     -8.2167213      0.0066207972   124057.36      0            
    249500   297.92734      488.65206     -6.3284247     -17.30067       39.349117      591.554       -113.43978     -5.1821872      0.0068870288   119261.68      0            
    249600   312.45095      488.8947      -7.4573633     -15.155207      34.136551      593.99959     -109.72976     -6.8991142      0.0071556292   114784.96      0            
    249700   322.54105      483.26738     -4.986824      -16.914827      27.855841      598.10468     -114.42554     -6.3659511      0.0074394553   110405.75      0            
    249800   284.34765      479.53403     -6.9038835     -18.234758      23.184951      601.14602     -113.00861     -6.6496868      0.0076734234   107039.4       0            
    249900   263.19955      479.61119     -10.045273     -15.235306      28.454849      605.83701     -123.84207     -5.558021       0.0078484111   104652.85      0            
    250000   276.06333      486.20239     -5.3451486     -14.984254      31.994782      587.17628     -106.44494     -6.1943194      0.0080218408   102390.29      0            
    250100   300.7451       491.66218     -7.6246721     -14.662312      35.752699      589.35478     -107.20235     -3.9559659      0.0081622701   100628.7       0            
    250200   298.22054      490.15625     -6.4004998     -16.326413      32.133957      599.83743     -112.34464     -6.7435845      0.0082871949   99111.777      0            
    250300   287.46006      490.3759      -4.9172617     -16.881076      40.999323      580.47647     -105.03603     -4.2655282      0.0084757867   96906.474      0            
    250400   286.91129      488.03387     -8.1999873     -11.678162      33.136006      592.63258     -111.16489     -6.6916806      0.0086525877   94926.355      0            
    250500   248.37402      484.17867     -7.9121633     -15.444044      35.232742      607.0265      -127.31558     -7.4087943      0.0089052751   92232.817      0            
    250600   260.77418      488.91757     -8.7405369     -11.260202      29.074623      598.44993     -111.07217     -7.5340765      0.0090046603   91214.836      0            
    250700   342.06449      485.06265     -7.5139796     -13.254198      33.307986      589.46841     -111.06212     -5.8834471      0.0090246295   91013.001      0            
    250800   298.24341      490.88195     -8.8245108     -16.829877      34.888873      587.02181     -100.85299     -4.5213643      0.0090207626   91052.015      0            
    250900   316.01034      484.9374      -8.6230637     -11.235186      37.079082      590.56887     -116.96503     -5.8872745      0.0090283985   90975.006      0            
    251000   282.52224      475.64187     -6.2484172     -21.609196      27.772716      592.17464     -110.6301      -5.8177695      0.0090431349   90826.756      0            
    251100   300.01109      473.28972     -8.4412961     -15.56577       26.689888      588.40904     -112.69616     -5.1059779      0.0089501375   91770.502      0            
    251200   323.6737       480.78605     -5.0687521     -12.879665      26.166315      598.01771     -118.80736     -6.6422041      0.0089527787   91743.429      0            
    251300   345.86012      481.70773     -6.8136026     -19.174673      24.632095      596.74343     -107.74274     -5.9367816      0.0089824062   91440.823      0            
    251400   327.74652      493.93689     -3.5543917     -11.616577      34.047035      588.55741     -107.44655     -6.0500405      0.0090550589   90707.152      0            
    251500   278.52804      493.2137      -4.4300064     -16.215829      27.665261      601.68531     -110.61612     -4.8749195      0.0090201202   91058.5        0            
    251600   244.57554      490.75268     -5.2200859     -14.31878       36.860154      600.83532     -119.36461     -8.0393076      0.0089353905   91921.96       0            
    251700   267.79934      486.48646     -7.0206607     -14.507416      31.399964      609.07607     -126.216       -6.2454927      0.0089790866   91474.629      0            
    251800   320.07962      492.99565     -7.2476979     -15.543474      35.228904      593.58011     -106.81493     -6.2072506      0.0090734898   90522.9        0            
    251900   296.72886      499.37219     -3.0635264     -15.620999      40.055117      602.42176     -119.20655     -5.2136138      0.0090825016   90433.082      0            
    252000   297.72641      492.55243     -6.6262802     -14.629849      38.524648      584.26851     -103.37917     -5.6054217      0.0089613501   91655.677      0            
    252100   262.76744      492.50418     -5.315398      -13.791847      32.868024      586.2673      -102.96892     -4.5549843      0.0088308731   93009.898      0            
    252200   262.67886      493.42856     -5.0653839     -12.10715       36.835545      607.37313     -126.13365     -7.4739349      0.0087458468   93914.132      0            
    252300   323.26072      490.5763      -3.222891      -14.065745      26.520375      609.16243     -121.65612     -6.1617408      0.0086785616   94642.251      0            
    252400   351.24023      495.69479     -4.9723921     -13.510201      34.32382       600.07096     -114.58477     -5.6326288      0.0085601119   95951.854      0            
    252500   299.92605      499.89534     -5.2198415     -13.432461      35.956587      607.49114     -117.12788     -7.7721997      0.0083791084   98024.583      0            
    252600   300.41604      488.45601     -4.1622881     -15.612819      32.748375      591.65976     -110.47003     -5.7069908      0.0082748783   99259.298      0            
    252700   268.93092      492.68058     -2.8571251     -14.596472      33.719841      599.31258     -116.70797     -6.1902728      0.0081405422   100897.29      0            
    252800   288.55141      489.97979     -4.045443      -16.527628      38.385933      585.90657     -108.79113     -4.9485029      0.0080266324   102329.17      0            
    252900   259.53964      500.10604     -0.91395517    -15.043927      34.230914      598.78272     -110.86686     -6.0828451      0.0078712726   104348.9       0            
    253000   323.33853      488.5849      -3.7882926     -14.045022      34.643533      584.99354     -107.34276     -5.8760987      0.007750622    105973.25      0            
    253100   297.06231      490.883        0.44794706    -17.688435      31.424298      601.24047     -118.61293     -5.9283452      0.0076043944   108011.05      0            
    253200   301.50127      490.63714     -2.3413698     -16.011971      33.6779        596.10396     -115.25857     -5.532818       0.0074006699   110984.36      0            
    253300   321.13212      492.91921     -3.3454502     -16.755782      34.848015      586.63787     -103.77007     -4.6953669      0.0071959349   114142.03      0            
    253400   337.3718       498.56845     -3.6804081     -14.065591      43.16635       593.67877     -114.22124     -6.3094247      0.0069776169   117713.34      0            
    253500   280.09384      503.91478     -2.6635203     -11.581802      30.228205      606.41864     -112.90018     -5.5865629      0.006743122    121806.87      0            
    253600   259.61526      499.62681     -4.7484511     -10.544543      34.556342      597.45517     -111.45828     -5.6334238      0.0064347355   127644.5       0            
    253700   291.64659      492.53763     -4.2968433     -9.1566295      26.668197      599.96263     -114.9162      -5.7235212      0.0061261467   134074.26      0            
    253800   301.12719      491.06159     -5.1067314     -15.793225      34.168279      588.3503      -104.58247     -5.974559       0.0058386119   140677.03      0            
    253900   328.27953      501.03594     -3.2095973     -17.250801      43.895674      595.09629     -112.80819     -4.687431       0.0055921363   146877.43      0            
    254000   354.17627      503.72242     -3.8410235     -15.860359      34.250832      602.45569     -108.02372     -5.2590005      0.0053698236   152958.21      0            
    254100   249.64569      499.31162      0.70000816    -16.667355      32.829547      609.8966      -121.57053     -5.8766542      0.00516634     158982.69      0            
    254200   291.98496      487.48538     -5.1180392     -14.284446      34.614155      582.48778     -104.66041     -5.5536599      0.0050057916   164081.66      0            
    254300   284.48613      493.26579     -6.803795      -12.186193      31.026999      590.90984     -103.87323     -5.8078296      0.0048112762   170715.33      0            
    254400   309.11519      492.82504     -8.3056833     -14.229707      31.007677      620.50673     -130.44233     -5.7116459      0.0046316061   177337.75      0            
    254500   322.50351      490.61045     -5.8795234     -16.614655      30.691201      595.20209     -106.598       -6.1906638      0.0045142194   181949.2       0            
    254600   291.18338      491.26617     -5.9033726     -16.014204      27.168549      603.62534     -112.79427     -4.8158748      0.004402941    186547.72      0            
    254700   292.38033      483.83319     -5.8197697     -14.729023      22.991451      603.27409     -116.10935     -5.7742124      0.0042963269   191176.94      0            
    254800   278.86514      488.37951     -6.0592869     -13.675934      30.350598      590.03306     -107.59705     -4.6718666      0.0041726914   196841.45      0            
    254900   323.93115      493.57756     -6.2165244     -15.075415      30.627921      601.17104     -111.22507     -5.7043835      0.004073071    201655.85      0            
    255000   306.65897      503.09587     -2.4134355     -13.364769      36.685199      610.5495      -122.03517     -6.3254588      0.0039956145   205565.03      0            
    255100   286.62619      499.44563     -6.159721      -11.990907      33.84743       611.70512     -120.61334     -7.3429436      0.0039050099   210334.58      0            
    255200   311.02898      483.84206     -5.4018259     -14.561103      25.825241      586.29408     -103.09538     -5.2189442      0.0038413076   213822.66      0            
    255300   285.3501       492.63873     -0.78596902    -13.076136      28.635499      588.21712     -104.66296     -5.6888311      0.0038005577   216115.29      0            
    255400   275.61724      496.26808     -5.7968833     -16.21331       35.6781        616.58003     -126.58593     -7.3939259      0.0037509388   218974.14      0            
    255500   297.64324      495.56541     -2.8652635     -16.610651      34.16755       604.57157     -117.96876     -5.7290383      0.0037139351   221155.89      0            
    255600   323.58897      494.30613     -4.6868901     -15.569546      29.040451      600.47562     -109.95509     -4.998409       0.003676112    223431.34      0            
    255700   327.63768      505.57128     -2.495378      -13.311464      31.396009      593.95709     -97.912152     -6.0628236      0.0036450678   225334.25      0            
    255800   325.08852      505.69653     -4.8218931     -13.654538      38.543357      597.17919     -107.3072      -4.2423867      0.0035976379   228304.97      0            
    255900   292.42108      493.05898     -3.3996978     -17.416797      27.668207      600.60973     -108.83216     -5.5702998      0.0035834505   229208.86      0            
    256000   283.26924      489.93535     -1.2226454     -17.295338      25.221787      600.52897     -112.38033     -4.9170871      0.0035480955   231492.81      0            
    256100   298.91777      493.05692     -4.8951548     -14.113269      33.118423      602.65389     -118.01057     -5.6963882      0.0035193359   233384.54      0            
    256200   352.6546       491.5662      -4.2510995     -12.436311      24.569537      607.29548     -118.5737      -5.0377088      0.0034999819   234675.1       0            
    256300   340.80488      503.3518      -5.0502452     -16.555655      31.398594      610.00666     -110.66472     -5.7828406      0.0034701166   236694.81      0            
    256400   339.71527      504.70658     -1.7960118     -12.807579      38.099234      598.69871     -110.22692     -7.2608556      0.0034553034   237709.55      0            
    256500   289.0028       494.18019      0.16606718    -15.031537      30.765541      585.12562     -103.41744     -3.4280592      0.0034253882   239785.56      0            
    256600   262.7843       498.04011     -2.6160918     -13.831322      31.034906      602.41117     -114.39589     -4.5626648      0.0033955617   241891.82      0            
    256700   322.39328      490.52567     -3.604243      -13.514869      28.377631      595.51928     -109.59202     -6.6601119      0.0033721195   243573.4       0            
    256800   355.58717      494.34651     -3.569685      -13.001443      25.208292      591.46845     -102.46561     -3.2934963      0.0033641651   244149.32      0            
    256900   303.78648      505.36701     -4.994323      -15.684327      31.454756      614.82561     -113.33198     -6.9027252      0.0033304833   246618.44      0            
    257000   272.51938      494.59761     -2.7404256     -15.823101      30.581058      600.60775     -114.03928     -3.9883865      0.0033209373   247327.35      0            
    257100   232.95119      497.08558     -2.5053611     -16.576616      30.458785      602.24217     -110.58252     -5.9508762      0.0032882182   249788.35      0            
    257200   285.76781      494.41922     -1.4681043     -16.156051      31.337912      597.20577     -112.30215     -4.1981582      0.0032836242   250137.83      0            
    257300   298.6732       501.79274     -2.8625814     -14.10788       30.466238      603.57436     -110.309       -4.9683947      0.0032783686   250538.82      0            
    257400   354.24433      491.39555     -3.6943166     -13.668965      25.844576      595.83038     -107.10638     -5.8097471      0.003255032    252335.03      0            
    257500   304.00906      495.28201     -3.9924441     -15.906525      41.961219      600.14137     -121.58472     -5.3368868      0.0032290972   254361.68      0            
    257600   283.15004      487.5265      -2.5955385     -16.033716      27.396028      594.78844     -109.70463     -6.3240843      0.003206723    256136.44      0            
    257700   237.29297      482.44074     -4.0739083     -15.083954      29.592205      596.20693     -119.41676     -4.7837747      0.0031856524   257830.59      0            
    257800   233.71965      489.76448     -2.4081491     -15.090846      30.178759      588.77627     -106.72117     -4.9703857      0.0031622815   259736.08      0            
    257900   258.78319      496.86999     -4.0282665     -14.192465      35.092534      584.52991     -99.873184     -4.6585345      0.0031493106   260805.84      0            
    258000   278.84917      503.16094     -3.0346371     -15.741318      40.629413      590.27975     -103.66092     -5.3113528      0.0031265023   262708.46      0            
    258100   302.99448      502.09276      0.085101283   -16.134313      37.516636      601.01145     -114.99929     -5.3868267      0.003119994    263256.47      0            
    258200   322.06985      495.69969     -3.6476669     -15.257413      35.760076      609.06442     -122.40984     -7.8098769      0.0030812347   266568.01      0            
    258300   275.59282      492.79278     -4.6749784     -15.647876      33.236782      594.42971     -108.73008     -5.8207821      0.0030630444   268151.06      0            
    258400   252.55799      493.28248     -3.2749345     -13.813828      35.686777      598.50022     -118.09505     -5.7207032      0.0030612927   268304.5       0            
    258500   293.07278      492.34059     -1.4499761     -14.647778      28.727256      597.03419     -110.55158     -6.7715151      0.003047823    269490.26      0            
    258600   308.65245      500.11071     -1.0582809     -15.359938      34.647206      613.08941     -125.08599     -6.1217016      0.0030292647   271141.25      0            
    258700   334.12251      492.60843     -2.452132      -14.879103      32.750979      600.41291     -116.02774     -7.1964905      0.0030021517   273589.98      0            
    258800   326.39216      489.26865     -3.3844221     -15.218377      26.104495      606.87315     -118.80832     -6.297869       0.0029862249   275049.15      0            
    258900   282.17689      492.21794     -2.349647      -14.131431      35.05122       599.04908     -118.60073     -6.8005531      0.0029768192   275918.2       0            
    259000   303.40417      486.75579     -3.7241594     -15.047423      30.882311      592.67169     -112.78611     -5.2405209      0.002969672    276582.26      0            
    259100   308.68431      499.04379     -4.294988      -16.486217      39.916645      600.56585     -114.3794      -6.2781025      0.0029404749   279328.56      0            
    259200   316.54783      505.36457      0.56270039    -16.253048      39.989331      608.99799     -121.97219     -5.960218       0.0029518577   278251.42      0            
    259300   351.83273      491.32374     -4.2085788     -13.894798      34.656135      590.93865     -110.3357      -5.8319685      0.0029581894   277655.86      0            
    259400   333.09678      487.25098      0.02042521    -14.321604      28.27884       590.59622     -111.45451     -5.8683882      0.0029735645   276220.21      0            
    259500   287.13387      496.88885     -1.7644801     -14.390792      34.634593      598.71577     -114.77043     -5.5358072      0.0029656531   276957.08      0            
    259600   287.4093       496.00202     -2.7364547     -15.971596      35.223854      602.20496     -115.49591     -7.2228311      0.0029577493   277697.17      0            
    259700   286.86892      500.27341     -2.6982877     -14.24643       38.136819      606.43764     -120.70574     -6.6505803      0.0029801712   275607.86      0            
    259800   321.53534      502.45552     -2.6016917     -14.42043       38.771718      593.43276     -106.97263     -5.75421        0.0029989265   273884.2       0            
    259900   304.92122      513.06906      0.051882781   -14.80525       42.806406      600.57339     -110.07618     -5.4811907      0.0030263614   271401.36      0            
    260000   306.02874      498.78207     -1.0413377     -13.81851       28.75243       596.37431     -106.26264     -5.2221817      0.0030452742   269715.82      0            
    260100   263.47404      498.53807     -1.1354344     -14.610626      27.577591      606.61128     -114.10605     -5.7986816      0.0030727968   267300.01      0            
    260200   290.42694      493.26815     -3.0627624     -14.41643       29.222335      605.40818     -118.79377     -5.0894052      0.0031027904   264716.11      0            
    260300   324.04125      493.86658     -2.7276624     -13.956468      31.265244      601.24268     -114.83114     -7.1260757      0.0031416018   261445.8       0            
    260400   322.58524      506.91765     -2.1422849     -13.98549       37.955449      594.58963     -104.34082     -5.1588336      0.0031736526   258805.46      0            
    260500   368.07628      505.15031     -2.6489051     -13.967398      33.33853       602.2881      -106.98446     -6.8755538      0.0032222246   254904.21      0            
    260600   306.77715      499.50634     -0.67047354    -14.684023      35.073448      611.5344      -124.26214     -7.4848743      0.0032837918   250125.06      0            
    260700   276.66057      495.48117     -0.76850748    -15.316871      33.581648      602.86975     -118.89049     -5.9943524      0.0033191415   247461.16      0            
    260800   258.82627      496.97832     -2.0576251     -14.997803      37.218736      596.02783     -112.79622     -6.4165921      0.0033889508   242363.69      0            
    260900   255.2392       503.55079     -2.7483492     -14.447089      35.957392      601.6611      -111.27862     -5.5936413      0.003462312    237228.36      0            
    261000   314.20708      502.88198     -2.1502056     -14.948159      33.956813      601.42644     -109.41822     -5.9846892      0.0035663914   230305.24      0            
    261100   354.48775      493.31151      0.41806329    -15.146003      32.371628      603.77722     -122.15567     -5.9537292      0.003659422    224450.37      0            
    261200   326.13185      481.34705     -1.8489512     -17.36871       26.689856      596.95849     -116.71687     -6.3667771      0.0037637493   218228.83      0            
    261300   287.77722      487.95709     -4.544476      -13.139803      27.875079      598.71999     -115.62903     -5.3246676      0.0038810009   211635.77      0            
    261400   299.8634       492.03576     -2.1745422     -12.824374      31.479857      598.91111     -117.13726     -6.2190314      0.004015599    204541.99      0            
    261500   328.89891      494.70841     -3.0615973     -13.930438      30.317309      605.07785     -116.69079     -7.0039225      0.0041694554   196994.22      0            
    261600   284.74185      505.17929     -2.8171689     -15.330474      41.199143      601.87337     -113.19678     -6.548801       0.0042922142   191360.12      0            
    261700   286.8119       495.32664     -3.0266829     -16.692278      28.837836      608.52944     -116.55198     -5.7696867      0.0044314759   185346.52      0            
    261800   258.03237      487.63545     -3.8623234     -15.924297      23.88017       602.46779     -112.95209     -5.9737891      0.0045694384   179750.45      0            
    261900   284.02459      487.96527     -3.7736891     -14.30674       28.881362      595.97818     -112.81833     -5.9955201      0.0047381518   173350         0            
    262000   315.9559       490.31259     -2.3552389     -14.047368      29.415364      600.10878     -116.91914     -5.8898077      0.0048674708   168744.43      0            
    262100   324.88735      490.95765     -3.7731142     -15.076103      27.853303      603.88102     -115.23585     -6.6916111      0.0049902522   164592.6       0            
    262200   313.23707      492.99089     -1.6452116     -15.937554      25.135363      605.20846     -113.81676     -5.9534065      0.0051225806   160340.79      0            
    262300   275.20048      495.95994     -4.4928055     -15.032349      34.293784      613.58105     -126.13967     -6.2500641      0.0052335649   156940.56      0            
    262400   251.50295      485.77245     -3.4632806     -13.875736      28.364684      586.44871     -106.87863     -4.8232992      0.0053344553   153972.35      0            
    262500   243.75041      490.08908     -2.0208947     -13.539873      28.23119       586.22296     -103.89969     -4.904616       0.0054173199   151617.15      0            
    262600   307.69138      488.17496     -4.6578229     -14.787761      26.536453      602.71235     -116.10922     -5.5190408      0.0054917894   149561.2       0            
    262700   263.49651      503.8287       1.9710567     -14.841995      30.789504      603.61124     -111.42729     -6.2738176      0.0055553685   147849.53      0            
    262800   346.77809      488.31606     -1.4128595     -14.441113      25.370347      597.1232      -112.35493     -5.9685823      0.0055946956   146810.24      0            
    262900   307.5907       494.80748     -2.5509607     -14.940216      29.618004      602.83657     -114.42541     -5.7305151      0.005617364    146217.8       0            
    263000   268.77836      492.12038      0.013229482   -14.903879      33.353599      590.51298     -110.0325      -6.8230447      0.0056578866   145170.57      0            
    263100   248.88423      490.07087     -3.9417183     -14.438141      27.437458      599.44194     -111.78007     -6.6485939      0.005671525    144821.47      0            
    263200   260.00442      495.98092     -1.5477935     -14.477876      32.779825      606.80757     -121.05125     -6.5295545      0.0056719964   144809.44      0            
    263300   290.5891       499.28068     -2.5502955     -16.301664      32.128514      608.76795     -116.66994     -6.0938736      0.0056634118   145028.94      0            
    263400   315.28855      493.84048     -1.2333283     -15.960545      29.580926      599.18072     -111.41433     -6.3129705      0.0056681884   144906.72      0            
    263500   307.95098      492.37666     -1.3448698     -13.854092      29.758028      604.84398     -120.64841     -6.3779739      0.0056836212   144513.26      0            
    263600   324.89161      481.55733     -2.8281037     -13.158447      26.631913      591.77133     -115.42771     -5.4316469      0.0056648864   144991.19      0            
    263700   245.97922      492.87424     -1.7019168     -14.847356      25.263641      598.86791     -109.02295     -5.6850878      0.0056333996   145801.59      0            
    263800   297.74759      483.21009     -1.5186933     -15.823646      33.658921      589.51069     -115.56887     -7.0483058      0.0056060014   146514.16      0            
    263900   303.26683      499.34874      0.79011437    -13.312635      26.28045       612.88844     -119.7586      -7.5390323      0.0056082682   146454.94      0            
    264000   363.31659      488.03947     -2.9048568     -15.304426      25.449727      604.93841     -118.31065     -5.8287332      0.0055878787   146989.34      0            
    264100   278.54928      500.01459     -3.6624176     -14.760927      32.775002      598.17436     -106.65081     -5.8606133      0.0055681672   147509.69      0            
    264200   279.58416      489.82757     -3.6465935     -14.208447      22.593306      599.56343     -108.25937     -6.2147534      0.0055274759   148595.6       0            
    264300   247.78255      492.06942     -3.8796909     -16.650753      33.341696      612.86915     -126.11885     -7.492128       0.0054851965   149740.96      0            
    264400   319.04417      496.76059     -0.72050627    -14.633374      33.539045      599.00274     -114.28806     -6.1392498      0.0054775578   149949.78      0            
    264500   334.29237      499.52276     -4.5999425     -14.411446      36.287836      590.75442     -104.21412     -4.2939824      0.0054154853   151668.52      0            
    264600   318.88172      491.84581     -1.0916805     -13.920959      30.086875      593.35874     -110.256       -6.331173       0.0053794349   152684.93      0            
    264700   285.09342      490.76577     -3.8201937     -13.825182      34.688873      595.12777     -115.97753     -5.4279711      0.0053176465   154459.05      0            
    264800   282.549        490.33032     -2.9882554     -15.860774      26.437002      600.44222     -111.90058     -5.7992882      0.0052593538   156171.01      0            
    264900   285.07826      503.14897     -2.0430085     -15.785189      28.720301      620.25741     -120.46509     -7.5354517      0.0051949929   158105.82      0            
    265000   347.06054      498.7806      -2.616941      -14.819707      25.227253      620.26144     -122.60034     -6.6711046      0.0051364214   159908.73      0            
    265100   331.96462      495.38349     -1.6114164     -14.130062      34.159342      599.36102     -116.41232     -5.9830775      0.0051027122   160965.11      0            
    265200   296.50991      496.13644     -2.0394261     -13.716473      37.311079      590.96176     -109.6022      -6.7782967      0.0050098396   163949.08      0            
    265300   310.78516      490.48844     -0.84405786    -14.246387      27.134783      589.66895     -106.3473      -4.8775503      0.0049370785   166365.31      0            
    265400   323.16776      487.44255     -2.453123      -14.481637      26.797885      603.1366      -118.61948     -6.9376947      0.0048559477   169144.86      0            
    265500   362.16507      489.93811     -1.5261391     -15.505261      32.833999      604.18762     -122.75223     -7.2998828      0.0047770396   171938.83      0            
    265600   341.27565      504.00163     -2.641932      -14.663921      40.11492       597.11791     -110.57624     -5.3491052      0.0046848815   175321.11      0            
    265700   319.17987      495.47259     -3.8983656     -14.276973      32.454725      599.8061      -112.64774     -5.9651544      0.0046098066   178176.37      0            
    265800   289.57335      492.82265      2.951025      -14.235897      33.017098      579.5093      -104.33855     -4.0803204      0.0045513357   180465.4       0            
    265900   334.86832      481.71601     -2.9871817     -14.774103      23.913395      587.84909     -106.38439     -5.9008072      0.004441912    184911.05      0            
    266000   276.3406       498.24771     -3.3257118     -15.424308      34.992522      619.29564     -129.93181     -7.3586263      0.0043271668   189814.41      0            
    266100   364.69299      493.3357      -2.4424042     -15.048451      26.703034      600.63983     -109.9161      -6.6002192      0.0042400309   193715.24      0            
    266200   347.56245      499.64279     -1.3980743     -15.054763      41.344518      598.48337     -116.82615     -6.9061178      0.0041689237   197019.35      0            
    266300   316.45274      492.88752     -3.5512377     -15.360652      31.911138      595.80321     -109.98061     -5.9343349      0.0040615935   202225.7       0            
    266400   294.48273      493.45447     -4.103765      -15.615458      31.40273       596.0997      -108.98801     -5.3407381      0.0039522067   207822.78      0            
    266500   290.10122      494.86544     -3.1307043     -15.832941      36.73574       601.5552      -119.23385     -5.2280055      0.0038612726   212717.08      0            
    266600   320.31983      495.68883     -0.26129451    -13.828031      30.156799      612.64493     -126.05706     -6.9665103      0.00380925     215622.13      0            
    266700   308.16372      502.7854       1.3662453     -13.998194      26.405332      608.16994     -113.71496     -5.4429628      0.0037526279   218875.58      0            
    266800   363.88733      491.11006     -3.4808477     -16.592645      27.142073      600.30786     -110.32842     -5.9379618      0.003635432    225931.5       0            
    266900   297.7849       494.91286     -0.83882447    -15.658917      33.873945      601.408       -118.46957     -5.4017826      0.0035327026   232501.49      0            
    267000   297.40381      484.93568     -2.3804397     -15.41421       25.925283      589.12501     -108.21641     -4.1035555      0.0034673116   236886.3       0            
    267100   289.15678      490.39616     -2.0466634     -13.698472      27.614872      602.90447     -117.97491     -6.4031329      0.0034187001   240254.65      0            
    267200   334.00782      491.19357     -4.3237408     -13.733591      28.125689      598.84289     -111.72218     -5.9955053      0.0033702921   243705.47      0            
    267300   337.56086      499.06656     -3.5895214     -13.241426      27.625636      620.34185     -124.5732      -7.4967755      0.0033191626   247459.59      0            
    267400   313.63773      501.65553     -2.2745607     -13.558658      38.662458      590.93861     -107.58179     -4.5305293      0.0032700574   251175.59      0            
    267500   316.99626      496.2976      -2.7032803     -13.736398      29.700303      587.63873     -98.606805     -5.9949496      0.0032240869   254756.97      0            
    267600   312.93747      492.86417     -2.1354924     -13.625611      32.533282      602.11511     -119.9138      -6.1093111      0.0031645635   259548.78      0            
    267700   296.39841      491.89105     -1.8381668     -13.606887      26.271415      598.09619     -111.65677     -5.3747327      0.0031229221   263009.64      0            
    267800   307.40132      487.24676     -3.3801708     -13.487955      31.213488      598.8874      -120.36133     -5.6246706      0.0030928491   265566.98      0            
    267900   294.36621      493.56868     -4.398729      -13.262684      24.702137      602.09382     -109.36161     -6.2042594      0.0030639417   268072.53      0            
    268000   325.70231      499.7391      -4.8438102     -13.934809      36.530229      604.05325     -114.33621     -7.7295438      0.0030359627   270543.05      0            
    268100   294.69507      508.63615      0.80846364    -14.781072      34.865824      619.92356     -125.91024     -6.2703913      0.0029957067   274178.58      0            
    268200   299.57861      494.03489      0.59924532    -14.264881      28.096342      614.87378     -128.11372     -7.1558796      0.0029634665   277161.43      0            
    268300   297.17351      486.32988     -2.0812721     -14.110677      28.424195      593.9655      -113.67998     -6.187877       0.0029254109   280766.92      0            
    268400   263.18788      495.78801     -2.5125835     -14.40679       34.104527      606.85405     -121.70733     -6.5438594      0.0028827959   284917.37      0            
    268500   302.71253      494.37974     -0.38793536    -13.502862      34.171549      587.87125     -108.14998     -5.6222843      0.0028441873   288785         0            
    268600   301.02292      502.20544     -3.2050705     -13.84256       37.526024      591.13139     -104.30428     -5.1000671      0.0028123506   292054.13      0            
    268700   289.91648      508.84482     -1.0820434     -11.260106      33.144269      606.52477     -113.05399     -5.4280805      0.0027827966   295155.82      0            
    268800   275.69159      498.76338     -1.6168477     -14.468857      35.058503      596.49863     -111.3966      -5.3114466      0.0027678497   296749.72      0            
    268900   235.30432      497.68203     -2.3942207     -13.09717       26.851047      601.52618     -108.9228      -6.2810089      0.0027635095   297215.77      0            
    269000   262.5284       496.04749     -3.1665931     -14.310779      30.237255      596.97476     -107.64259     -6.0445542      0.0027617639   297403.63      0            
    269100   292.0525       502.15524     -0.43073413    -14.388748      36.014382      604.47635     -116.41118     -7.1048349      0.0027714868   296360.28      0            
    269200   312.33412      501.63023     -0.14583002    -13.51197       34.751971      599.27774     -112.31781     -6.4238733      0.0027785015   295612.08      0            
    269300   304.72601      498.02732     -2.7720204     -13.94907       35.373659      595.3169      -110.60087     -5.3412818      0.0027824406   295193.59      0            
    269400   295.58423      494.16567     -4.4168179     -14.243749      29.080189      597.17405     -108.50147     -4.9265358      0.0027994572   293399.23      0            
    269500   282.19662      497.37438      1.3866551     -14.49692       31.355606      599.5885      -114.98207     -5.4773897      0.0028154694   291730.61      0            
    269600   289.66433      498.35532      2.8766077     -14.195808      25.346391      619.18655     -127.75761     -7.1008127      0.0028336558   289858.29      0            
    269700   295.73439      501.13036     -3.8033306     -14.130179      34.066322      598.59372     -108.55994     -5.0362395      0.0028413577   289072.59      0            
    269800   351.2405       490.11555      1.4274534     -14.760047      25.533155      597.85127     -114.63403     -5.3022476      0.0028613996   287047.85      0            
    269900   286.52861      492.97812     -1.7271057     -14.391287      29.455217      603.63683     -118.41337     -5.5821682      0.0028783747   285354.99      0            
    270000   269.18786      487.95935     -3.5852794     -14.717315      24.663438      591.90193     -106.13547     -4.1679558      0.0029162488   281649.02      0            
    270100   277.83104      492.85385     -4.7254473     -13.96371       28.422282      593.36238     -103.92719     -6.3144664      0.0029507556   278355.35      0            
    270200   316.91682      496.8137      -0.7832702     -14.395771      26.831777      607.20234     -115.91126     -6.1301139      0.0030068337   273163.97      0            
    270300   328.57452      495.73045     -1.6010856     -14.882183      37.869018      601.73592     -120.67934     -6.7118775      0.0030761561   267008.11      0            
    270400   305.0504       496.96434     -3.7941669     -13.322668      32.108034      605.85403     -118.17428     -5.7066063      0.0031449327   261168.9       0            
    270500   267.66123      502.85398     -2.722328      -12.95591       30.217824      600.95426     -108.6085      -4.0313684      0.0032593932   251997.4       0            
    270600   271.19573      494.62095     -3.1271692     -13.780131      24.575217      591.52175     -99.953018     -4.6157021      0.0033797512   243023.4       0            
    270700   263.05921      487.48059     -1.434924      -13.820333      27.675964      601.44415     -119.73361     -6.6506554      0.0035107397   233956         0            
    270800   282.23712      488.714       -5.1664803     -13.652791      30.519825      597.85935     -114.98475     -5.8611507      0.0036508968   224974.48      0            
    270900   312.03039      495.30187     -1.9995011     -13.801245      31.788664      594.71699     -109.77035     -5.6326913      0.0037937671   216502.12      0            
    271000   334.67651      494.23975     -2.1569197     -14.624401      28.833232      613.46388     -125.02409     -6.2519415      0.0039462671   208135.58      0            
    271100   323.80289      492.32595     -2.877317      -14.407163      27.521066      602.13486     -114.07561     -5.9698799      0.0040829817   201166.37      0            
    271200   288.3118       489.37128     -1.6349505     -14.721277      30.268908      595.8317      -115.55848     -4.8146185      0.0042268922   194317.38      0            
    271300   254.4669       488.03428     -3.6293026     -14.202251      26.484659      593.49082     -109.63931     -4.4703308      0.0043159404   190308.15      0            
    271400   292.26867      479.88995     -2.2969453     -13.814404      30.889054      578.66901     -108.89049     -4.6662728      0.0044421407   184901.53      0            
    271500   262.97986      502.60277      0.82370387    -14.165637      33.701235      603.73352     -114.84209     -6.6479621      0.0045393034   180943.76      0            
    271600   337.08418      495.34863     -3.4440803     -14.442467      31.221305      605.72418     -118.45028     -5.2600254      0.0046270279   177513.22      0            
    271700   300.59335      505.61625     -0.72570954    -14.196478      36.513287      593.01692     -103.60699     -5.3847835      0.0047218802   173947.36      0            
    271800   310.68905      493.20713     -2.710776      -14.64935       33.116131      588.8311      -106.56614     -4.8138274      0.0048023927   171031.12      0            
    271900   278.94028      491.21575     -0.71906832    -14.560669      28.699644      596.9944      -113.37893     -5.8196286      0.0048544724   169196.27      0            
    272000   298.20576      488.19628     -2.8865628     -12.909648      27.966084      596.13658     -114.37602     -5.7341503      0.0049042486   167478.99      0            
    272100   298.11489      504.80766     -2.2750721     -14.117544      31.778305      606.66023     -112.41349     -4.8247731      0.004972891    165167.23      0            
    272200   355.67192      498.55743      1.2479427     -15.435259      28.026601      613.46642     -122.48468     -6.2636072      0.0049939299   164471.39      0            
    272300   318.57096      498.80042      0.29689841    -13.787113      27.204561      598.43914     -108.11793     -5.2351379      0.0050372408   163057.24      0            
    272400   293.3828       493.79756     -3.7072903     -13.95421       27.489985      592.76178     -102.9157      -5.8770039      0.0050333427   163183.53      0            
    272500   277.77588      492.59331     -1.8036333     -14.743079      29.861578      600.63562     -117.37155     -3.9856209      0.0050452688   162797.79      0            
    272600   257.80125      499.42499     -2.5309141     -14.650185      32.33469       599.9838      -108.70141     -7.0109913      0.0050301919   163285.74      0            
    272700   326.44827      501.9086      -1.8065374     -13.896431      32.240919      604.7665      -115.22458     -4.1712687      0.0050451594   162801.32      0            
    272800   371.5499       495.33876     -1.7939954     -14.617528      35.991995      593.39849     -112.43552     -5.2046794      0.0050111427   163906.45      0            
    272900   295.01173      501.79096     -0.29282086    -13.502084      30.461027      603.89108     -112.97922     -5.7870198      0.0050206902   163594.76      0            
    273000   297.05396      494.82455     -1.1849388     -13.705723      27.33686       590.42853     -102.94372     -5.1064553      0.0050313883   163246.91      0            
    273100   301.23815      491.89233     -3.5923839     -14.175874      29.864679      597.28285     -111.24343     -6.2435093      0.0050170367   163713.89      0            
    273200   315.21506      490.20481     -4.7782205     -14.407806      26.115958      614.7268      -124.45454     -6.9973791      0.0050331474   163189.86      0            
    273300   331.34511      492.32538     -2.8690876     -14.69403       23.509528      607.00868     -114.30155     -6.32816        0.0050230323   163518.48      0            
    273400   306.97669      508.7053      -3.6207176     -13.837541      35.972234      617.72701     -120.71905     -6.8166448      0.0050281736   163351.28      0            
    273500   324.59076      497.35391     -5.8143255     -13.247254      29.625899      609.54004     -117.26263     -5.4878229      0.0050053623   164095.73      0            
    273600   295.61943      490.83582     -2.5607301     -13.946889      33.008184      589.52087     -110.05382     -5.1317956      0.0050029955   164173.36      0            
    273700   266.1259       496.715       -0.73701139    -14.246356      29.849238      594.72011     -107.60996     -5.2610234      0.004955184    165757.44      0            
    273800   303.6148       493.95476     -1.6552718     -14.401656      32.59525       595.52378     -112.89058     -5.2167616      0.0049074641   167369.26      0            
    273900   321.54848      502.13042     -0.65490879    -13.810939      31.048605      602.95575     -112.10971     -5.2983876      0.0048447763   169534.89      0            
    274000   369.77481      502.17654     -4.4661931     -14.268481      32.64727       616.25812     -121.6233      -6.3708739      0.0047411634   173239.89      0            
    274100   294.13511      497.04999     -3.5754904     -13.562946      34.134032      605.78147     -119.98929     -5.737787       0.0046211587   177738.67      0            
    274200   272.14905      494.36094     -3.3033735     -13.526995      31.538017      588.37525     -103.30305     -5.4189088      0.0044770856   183458.32      0            
    274300   307.05288      489.19004     -4.3908792     -13.804635      29.40791       604.61636     -119.81989     -6.8188348      0.0042974213   191128.25      0            
    274400   349.76953      488.81339     -2.6096322     -13.919484      32.185423      598.13614     -118.44303     -6.5360279      0.0040786157   201381.71      0            
    274500   370.63379      490.81048     -1.2263575     -13.578384      23.69675       590.24722     -102.79207     -5.5366797      0.0038636933   212583.8       0            
    274600   304.44436      500.56521     -2.3306757     -13.564719      33.19794       595.41364     -106.5923      -5.5586721      0.0036365831   225859.99      0            
    274700   269.08239      489.89157     -4.2227474     -13.969292      29.175672      602.48331     -116.99216     -6.5832044      0.0034328358   239265.34      0            
    274800   266.99202      491.02637     -3.8738306     -14.880799      27.758103      593.98542     -107.01955     -4.9429729      0.0032494359   252769.6       0            
    274900   283.87443      496.17476     -4.7733373     -14.422809      30.76326       594.21522     -101.84431     -7.7632573      0.0031053098   264501.34      0            
    275000   307.8225       498.33318     -1.0707816     -13.891427      27.834904      628.90223     -135.30526     -8.1364865      0.0029897353   274726.19      0            
    275100   312.33088      497.55198     -2.4752944     -13.848411      38.173945      608.84293     -126.48416     -6.6570382      0.0028881281   284391.34      0            
    275200   293.53952      496.29116     -2.8828813     -17.205132      34.761436      597.13342     -109.20116     -6.3145118      0.0028024454   293086.39      0            
    275300   307.87236      493.53315     -4.3128103     -15.509461      27.328918      607.40756     -114.33959     -7.0414662      0.0027377863   300008.3       0            
    275400   323.47255      491.59997      1.0994276     -14.998476      24.207278      597.65394     -111.52399     -4.8382076      0.0027066525   303459.2       0            
    275500   272.17578      503.18163     -2.1622444     -14.933433      34.060963      603.32948     -111.17206     -5.9410764      0.002673453    307227.62      0            
    275600   302.12202      498.67983     -3.1079562     -14.288101      30.322396      614.27859     -121.78461     -6.7404971      0.002647117    310284.21      0            
    275700   363.79073      490.32734     -3.0686456     -15.876706      29.291802      599.63651     -113.25861     -6.3970184      0.0026222804   313223.03      0            
    275800   297.82336      504.73983     -3.0512166     -15.027747      40.143636      599.154       -109.71152     -6.7673233      0.0026107587   314605.34      0            
    275900   300.51997      492.95665     -2.7089751     -14.596532      37.169032      603.96466     -124.99862     -5.8729185      0.0026143401   314174.36      0            
    276000   294.56799      487.6158      -0.27140043    -15.443874      28.324232      588.55552     -106.69573     -6.8529478      0.0026047401   315332.27      0            
    276100   296.22616      490.75239     -4.050687      -15.528374      36.148855      588.80043     -108.31649     -6.3013435      0.0025897955   317151.92      0            
    276200   306.21285      505.0003      -3.1002566     -14.475154      35.568124      611.02043     -119.42193     -4.5909136      0.0025756528   318893.37      0            
    276300   364.80237      495.01535     -3.1900572     -13.639364      25.962352      609.76163     -117.85448     -6.0247307      0.0025766967   318764.19      0            
    276400   277.99349      507.14037     -1.0304647     -14.146167      39.252212      589.872       -101.89598     -4.9112232      0.0025865518   317549.65      0            
    276500   290.06731      499.20089     -3.2691241     -12.3434        36.945865      587.44717     -104.4139      -5.1657165      0.0025898718   317142.58      0            
    276600   288.15282      498.61402     -2.9676681     -14.337482      38.385564      594.07169     -110.76401     -5.7740742      0.002604982    315302.99      0            
    276700   282.99691      501.90063     -3.349556      -14.556096      35.415675      611.30468     -119.95518     -6.9588958      0.0026180075   313734.24      0            
    276800   318.83492      509.13961      0.59457221    -14.390424      33.677         597.007       -102.31862     -5.4299287      0.0026568764   309144.45      0            
    276900   386.00566      495.36837     -2.688245      -14.850414      39.079843      592.5479      -113.00447     -5.7162407      0.0026719042   307405.72      0            
    277000   331.23092      490.91352     -0.41024567    -14.872386      29.39411       605.47116     -122.78888     -5.8802422      0.0027068127   303441.24      0            
    277100   297.90835      492.8298      -2.6357739     -14.560136      41.07568       590.31798     -115.20877     -6.1591757      0.0027359039   300214.72      0            
    277200   264.79306      499.32358     -3.8406693     -14.265415      31.624577      603.8045      -111.88076     -6.1186491      0.002757097    297907.04      0            
    277300   294.69219      496.06636     -3.0488018     -15.249161      36.980916      594.93423     -112.8508      -4.7000233      0.0027830445   295129.52      0            
    277400   303.87567      507.8665      -2.9535444     -15.320587      36.483687      615.58507     -119.37944     -6.5486811      0.0028212473   291133.15      0            
    277500   340.65627      502.4422      -2.5960245     -15.68296       34.1973        608.44952     -116.32452     -5.6011111      0.0028760972   285580.97      0            
    277600   328.94476      488.80156     -1.568983      -14.870178      31.106068      588.40886     -107.9583      -6.3159098      0.0029412899   279251.15      0            
    277700   317.67771      485.30224     -3.9386734     -15.878572      26.881365      583.86174     -101.62651     -3.9971044      0.0030270765   271337.25      0            
    277800   292.11024      495.46911     -4.0777938     -14.014565      31.647748      597.22796     -110.91126     -4.4029832      0.0031144061   263728.81      0            
    277900   306.87266      498.62245      1.3681125     -14.75614       31.159085      604.98549     -117.51884     -6.6152601      0.0032224299   254887.97      0            
    278000   362.03916      496.49353     -1.269712      -14.609185      26.019674      598.92738     -107.67449     -4.9001407      0.0033241946   247085         0            
    278100   362.88855      503.01574     -2.8801201     -14.828265      37.443272      604.92424     -115.50756     -6.1358266      0.0034578001   237537.91      0            
    278200   309.18335      495.7202      -2.0456715     -14.126614      33.356535      601.18471     -116.76898     -5.8797875      0.0035676556   230223.63      0            
    278300   280.71167      493.52418     -4.4157882     -14.208538      25.107683      608.64289     -114.69634     -6.9057244      0.003678416    223291.39      0            
    278400   299.33928      489.34587     -2.8005197     -13.788401      29.059275      598.25472     -115.51462     -5.8645831      0.0038141196   215346.84      0            
    278500   303.57567      497.62304     -3.9696056     -14.129307      32.098073      599.47343     -110.62186     -5.2276804      0.0039482362   208031.78      0            
    278600   347.86901      498.39622     -3.5137977     -14.053158      33.614521      596.38393     -107.44367     -6.5916029      0.0040694051   201837.51      0            
    278700   319.88427      502.24713     -2.3660244     -13.20905       34.383629      589.63483     -102.42638     -3.7698762      0.0042056912   195296.94      0            
    278800   285.52882      489.3594      -4.017874      -14.071259      28.728079      593.53661     -108.90838     -5.907783       0.0043207519   190096.22      0            
    278900   275.45814      492.54851     -0.051384026   -14.175815      28.277959      596.56134     -113.25954     -4.8040579      0.0044343109   185228.02      0            
    279000   279.2813       501.56272      0.63760111    -14.484358      30.392806      602.50023     -109.57189     -7.9116697      0.0045081333   182194.84      0            
    279100   311.67635      501.95838     -0.26062005    -14.191826      36.649296      602.65512     -116.77051     -6.123088       0.0045655788   179902.4       0            
    279200   313.12775      497.83758     -3.620431      -13.286759      31.801151      608.28471     -117.73031     -7.6107773      0.0046082447   178236.76      0            
    279300   286.98253      485.90701     -2.6232841     -14.10036       31.175647      585.63378     -109.37436     -4.8044149      0.004641876    176945.4       0            
    279400   265.19418      489.155       -3.1202851     -13.813917      31.074844      601.45384     -118.70101     -7.7384817      0.0046837783   175362.4       0            
    279500   260.31371      498.18678     -4.0102611     -14.08397       37.22583       602.2027      -117.46968     -5.6778386      0.0046834432   175374.95      0            
    279600   356.4982       485.91753     -5.7560556     -13.503857      32.79545       591.67394     -113.09853     -6.193421       0.0047289826   173686.11      0            
    279700   339.72526      491.77443     -4.250378      -14.284693      25.452552      610.46596     -119.2782      -6.3308082      0.0047416724   173221.29      0            
    279800   292.73212      495.40874     -2.7541432     -14.293993      35.321152      598.84907     -115.34052     -6.3728374      0.0047319411   173577.52      0            
    279900   251.72683      489.00552     -2.3481909     -14.138406      29.885688      587.77723     -106.75374     -5.4170682      0.0047382247   173347.33      0            
    280000   266.10504      488.72117     -3.923011      -13.707421      31.731978      584.34707     -105.12555     -4.6019019      0.0047233838   173891.99      0            
    280100   282.07759      494.81081     -5.1178063     -13.89296       25.404626      623.81056     -127.6313      -7.7623133      0.0047024679   174665.44      0            
    280200   278.63866      499.35139     -3.4908314     -15.230089      31.48787       599.36697     -107.13691     -5.6456252      0.0046679066   175958.66      0            
    280300   262.17368      503.92674     -3.2324472     -15.103314      33.441365      615.48072     -119.7919      -6.8676811      0.0046578163   176339.85      0            
    280400   287.91756      497.82412     -2.2510249     -15.237208      29.923283      600.38093     -108.91987     -6.0719971      0.0046150768   177972.9       0            
    280500   318.18103      488.60519     -2.7874198     -13.582988      29.657125      599.79917     -118.7508      -5.7299084      0.00460541     178346.47      0            
    280600   254.69787      499.42046     -3.1867114     -13.494325      27.459073      598.77365     -104.74898     -5.3822506      0.0045942612   178779.26      0            
    280700   292.74262      493.58743      0.43907584    -13.809408      34.227517      579.79583     -101.68443     -5.3811564      0.0045720049   179649.55      0            
    280800   328.30009      495.71067     -3.5910252     -14.767589      31.704428      609.53373     -120.76113     -6.4077444      0.0045841309   179174.34      0            
    280900   318.72126      502.92383     -2.3856201     -14.315992      31.205143      605.82394     -110.9818      -6.4218458      0.0045679059   179810.75      0            
    281000   274.05277      499.01557      1.1008712     -14.821766      38.726729      594.63948     -113.67699     -6.9527508      0.0045784597   179396.27      0            
    281100   265.79434      490.51087     -0.60782959    -13.98433       29.616586      597.6433      -116.50447     -5.6523883      0.004553245    180389.73      0            
    281200   282.85441      492.70471     -2.8723886     -13.397024      31.27918       608.51595     -124.13893     -6.6820739      0.0045557365   180291.07      0            
    281300   291.59065      499.62077     -1.7116864     -14.764609      25.558802      602.47841     -106.38352     -5.5566257      0.0045129392   182000.81      0            
    281400   292.41549      502.16716     -4.0024328     -14.812339      41.926058      600.83072     -116.17362     -5.6012325      0.0044774639   183442.82      0            
    281500   317.91638      491.41342     -4.0280055     -14.45627       22.071425      604.64122     -110.92433     -5.8906174      0.0044344986   185220.17      0            
    281600   278.66101      490.00362     -1.6348559     -14.843577      36.657709      591.51857     -116.37779     -5.3164296      0.004376594    187670.73      0            
    281700   246.03127      480.36608     -2.3470187     -14.926783      22.914033      597.41854     -116.96252     -5.7301793      0.0043413635   189193.7       0            
    281800   268.23404      483.06538     -2.8452767     -14.970517      28.90792       593.21323     -115.88553     -5.3544452      0.0042954251   191217.07      0            
    281900   292.23336      490.20802     -1.4101368     -14.174743      30.084565      593.22125     -111.72524     -5.7876731      0.0042710202   192309.7       0            
    282000   290.12181      499.7158      -4.976437      -14.515449      31.475185      611.6614      -116.31159     -7.6173119      0.0042040591   195372.76      0            
    282100   305.19689      499.73065      0.45060082    -14.994033      33.538941      606.80458     -118.8677      -7.2017342      0.0041645374   197226.86      0            
    282200   282.1152       502.62858     -0.95782582    -15.209243      28.227164      611.1317      -114.8794      -5.6838207      0.0040856822   201033.41      0            
    282300   290.05402      491.73194     -2.0086434     -14.803022      31.651212      613.34437     -129.18285     -7.269125       0.0040191128   204363.16      0            
    282400   257.00347      489.80347      0.52355726    -14.556361      32.172844      577.76083     -102.00058     -4.0968158      0.0039299796   208998.18      0            
    282500   285.57652      488.09569     -1.9387171     -14.153277      26.615572      594.35904     -112.09006     -4.696864       0.0038434594   213702.95      0            
    282600   293.94024      500.22372     -5.6976941     -14.759816      37.124071      607.40075     -117.14352     -6.7000751      0.0037465175   219232.56      0            
    282700   308.69107      497.63142     -4.3817912     -15.016724      35.816332      585.97651     -100.35183     -4.4110726      0.0036382866   225754.23      0            
    282800   290.19423      497.61791     -2.5700519     -15.33813       31.147804      601.671       -111.11235     -6.1803588      0.0035399629   232024.64      0            
    282900   302.10251      487.5921      -3.1144184     -14.891525      24.497436      599.29662     -112.1667      -6.0293136      0.0034282148   239587.85      0            
    283000   235.90379      490.73467     -2.5584427     -14.223368      28.023685      601.0848      -116.30824     -5.2837632      0.0033271716   246863.91      0            
    283100   247.06454      489.25303     -1.7064214     -15.103339      22.293835      596.85961     -106.61777     -6.4728849      0.0032171532   255306.03      0            
    283200   308.96247      493.05991     -3.8034548     -14.27118       27.364461      609.60115     -121.28094     -4.5501142      0.0031073723   264325.78      0            
    283300   318.67602      496.17347     -0.77729189    -14.219562      32.345519      596.32094     -111.87376     -5.6223781      0.003010092    272868.27      0            
    283400   304.1187       498.91174     -3.0862807     -13.420922      32.078725      593.05639     -105.72999     -3.98617        0.0028993029   283295.21      0            
    283500   274.67242      504.1643      -3.2482339     -9.7136843      32.089783      601.4327      -110.48539     -5.9108798      0.0028136267   291921.68      0            
    283600   248.33514      497.40874     -1.7299742     -14.020285      31.271232      592.29576     -106.75757     -3.6504196      0.0027413362   299619.8       0            
    283700   279.17313      486.66229     -1.8722175     -13.894051      31.068401      598.4411      -120.61428     -6.4666613      0.0026754348   307000.05      0            
    283800   289.70205      495.42579     -1.0506464     -13.774554      32.607754      589.27373     -106.12224     -5.5082495      0.0026170035   313854.6       0            
    283900   313.06632      500.79292     -4.1505589     -14.113644      31.678219      608.00249     -114.85069     -5.7729011      0.0025805883   318283.47      0            
    284000   295.95448      503.52698     -4.5194934     -14.064371      24.209235      610.34358     -106.66656     -5.7754025      0.0025439501   322867.42      0            
    284100   267.89935      500.67167      2.9139791     -14.883926      26.634683      601.94916     -109.97235     -5.9698789      0.0025212929   325768.82      0            
    284200   272.46834      489.90659     -3.239675      -14.356599      21.373554      606.16065     -114.08269     -5.9486565      0.0025005578   328470.16      0            
    284300   261.16052      495.29555     -2.4426471     -13.697811      29.89958       586.86803     -99.752301     -5.579303       0.002496461    329009.19      0            
    284400   297.73511      494.80779     -2.2340177     -13.963779      28.976414      598.93911     -112.40892     -4.50102        0.002485006    330525.8       0            
    284500   297.48907      496.62994      1.5038167     -14.490724      29.496414      600.95457     -114.8535      -5.9806361      0.0024925293   329528.17      0            
    284600   307.86439      495.82388     -2.3503057     -13.006987      32.833545      586.05384     -104.37337     -3.3328462      0.0025015497   328339.91      0            
    284700   309.40653      495.68099     -4.9018073     -12.788425      28.567696      602.33317     -110.70013     -6.8295099      0.0025038526   328037.92      0            
    284800   302.45523      499.02548     -1.7856087     -14.255023      38.807786      601.33276     -119.1678      -5.9066354      0.0025021851   328256.53      0            
    284900   308.30642      497.72865     -1.9596745     -14.296714      28.687822      610.36617     -119.08499     -5.9839602      0.0025021969   328254.99      0            
    285000   292.89722      495.54026     -5.4568669     -13.669667      26.286673      614.78424     -119.35345     -7.0506658      0.0025068342   327647.76      0            
    285100   281.11826      491.61173      0.62973463    -15.188585      25.24286       592.37677     -105.99389     -5.4551542      0.0025143794   326664.55      0            
    285200   252.77231      500.83369     -2.478756      -13.95015       29.546932      596.28273     -104.19067     -4.3763915      0.0025219524   325683.62      0            
    285300   325.90524      500.39527     -3.2752167     -13.821852      30.147133      606.94097     -114.49783     -5.097926       0.0025383505   323579.67      0            
    285400   308.93265      505.76433     -2.8482348     -14.256866      31.694684      606.8294      -109.10759     -6.5470714      0.0025595957   320893.89      0            
    285500   300.77201      499.86652     -3.6582001     -13.802118      31.23954       595.87653     -104.98516     -4.8040691      0.0025816799   318148.9       0            
    285600   278.87521      498.34114     -0.88703965    -12.802185      32.488484      594.35086     -109.71865     -5.0903326      0.002601634    315708.75      0            
    285700   259.82751      502.8411      -1.5100837     -13.46532       38.135948      596.73495     -112.29056     -4.7638321      0.0026328491   311965.69      0            
    285800   300.49881      496.05019     -4.4623661     -13.801113      28.215772      595.40183     -104.64209     -4.6618403      0.0026641008   308306.14      0            
    285900   294.10624      499.97826     -3.913854      -13.117205      37.134491      604.55096     -118.54059     -6.1355424      0.0026962954   304624.86      0            
    286000   266.70283      508.83623      2.1111968     -14.940715      34.034793      602.87375     -110.45792     -4.7848699      0.0027336027   300467.45      0            
    286100   327.97479      502.68889     -2.9020953     -14.712173      33.986445      602.20082     -110.32543     -5.5586784      0.0027884894   294553.25      0            
    286200   364.95799      494.08255     -2.58893       -15.487522      31.003573      588.09002     -102.68276     -4.2518312      0.0028233501   290916.31      0            
    286300   270.96456      501.05689     -0.63227342    -14.362752      37.039562      598.7184      -114.63424     -5.0718019      0.0028599107   287197.29      0            
    286400   265.84844      496.40344     -2.8830682     -15.10908       34.88955       594.44004     -109.91083     -5.0231772      0.0029181776   281462.85      0            
    286500   317.31878      488.56936     -1.2375227     -13.850308      26.103909      593.09128     -110.42744     -5.1105645      0.0029718145   276382.87      0            
    286600   322.29402      500.22446     -4.2309973     -14.298013      30.211322      606.01026     -112.90701     -4.5611012      0.0030176115   272188.32      0            
    286700   337.41627      507.47085     -1.9012472     -14.753326      35.051326      590.20004     -97.346657     -3.7792853      0.0030796997   266700.87      0            
    286800   320.57685      499.07971     -0.98731767    -15.890365      26.721854      607.58046     -113.72126     -4.6236508      0.0031586237   260036.87      0            
    286900   323.03049      492.55061     -3.5383045     -15.970109      25.512019      602.7238      -111.76995     -4.4068444      0.0032329568   254058.02      0            
    287000   285.44635      496.98794     -1.6766629     -15.981163      33.270995      594.88076     -107.64262     -5.8633702      0.0033222111   247232.51      0            
    287100   314.83498      487.33366     -4.2373922