LAMMPS (22 Dec 2022)
WARNING: Using I/O redirection is unreliable with parallel runs. Better to use the -in switch to read input files. (../lammps.cpp:531)
# PREREQUISITES:
#
#     You must use moltemplate.sh to create 3 files:
#        system.data  system.in.init  system.in.settings
#     (Follow the instructions in README_setup.sh,
#      or run the file as a script using ./README_setup.sh)

# ------------------------------- Initialization Section --------------------

units real
atom_style full
pair_style lj/class2/coul/cut 10.0
bond_style class2
angle_style class2
dihedral_style class2
improper_style class2


# ------------------------------- Atom Definition Section -------------------

read_data       "pack_mol.data" extra/bond/per/atom 1 extra/angle/per/atom 12 extra/dihedral/per/atom 12 extra/improper/per/atom 12 extra/special/per/atom 12
Reading data file ...
  orthogonal box = (0 0 0) to (47.259173 47.259173 47.259173)
  1 by 2 by 3 MPI processor grid
  reading atoms ...
  5021 atoms
  scanning bonds ...
  5 = max bonds/atom
  scanning angles ...
  18 = max angles/atom
  scanning dihedrals ...
  46 = max dihedrals/atom
  scanning impropers ...
  16 = max impropers/atom
  reading bonds ...
  5104 bonds
  reading angles ...
  9975 angles
  reading dihedrals ...
  14214 dihedrals
  reading impropers ...
  6384 impropers
Finding 1-2 1-3 1-4 neighbors ...
  special bond factors lj:    0        0        0       
  special bond factors coul:  0        0        0       
     4 = max # of 1-2 neighbors
    12 = max # of 1-3 neighbors
    18 = max # of 1-4 neighbors
    34 = max # of special neighbors
  special bonds CPU = 0.001 seconds
  read_data CPU = 0.084 seconds

include calc.pram

# Masses

mass	1	12.01115	#	c
mass	2	1.00797	#	h
mass	3	1.00797	#	hc
mass	4	15.99940	#	o4e
mass	5	15.99940	#	oc
mass	6	15.99940	#	oh

# Potentials

pair_coeff	1	1	0.05400	4.01000	#	c,c
pair_coeff	2	2	0.02000	2.99500	#	h,h
pair_coeff	3	3	0.02000	2.99500	#	hc,hc
pair_coeff	4	4	0.24000	3.53500	#	o4e,o4e
pair_coeff	5	5	0.24000	3.53500	#	oc,oc
pair_coeff	6	6	0.24000	3.53500	#	oh,oh

# Bond Coeffs

bond_coeff	1	1.53000	299.67000	-501.77000	679.81000	#	c,c
bond_coeff	2	1.10100	345.00000	-691.89000	844.60000	#	c,hc
bond_coeff	3	1.42000	400.39540	-835.19510	1313.01420	#	c,o4e
bond_coeff	4	1.42000	400.39540	-835.19510	1313.01420	#	c,oc
bond_coeff	5	1.42000	400.39540	-835.19510	1313.01420	#	c,oh
bond_coeff	6	0.96000	493.84800	0.00000	0.00000	#	h,oh

# Angle Coeffs

angle_coeff	1	112.67000	39.51600	-7.44300	-9.55830	#	c,c,c
angle_coeff	2	110.77000	41.45300	-10.60400	5.12900	#	c,c,hc
angle_coeff	3	111.27000	54.53810	-8.36420	-13.08380	#	c,c,o4e
angle_coeff	4	111.27000	54.53810	-8.36420	-13.08380	#	c,c,oc
angle_coeff	5	111.27000	54.53810	-8.36420	-13.08380	#	c,c,oh
angle_coeff	6	104.50000	35.74540	-10.00670	-6.27290	#	c,o4e,c
angle_coeff	7	104.50000	35.74540	-10.00670	-6.27290	#	c,oc,c
angle_coeff	8	109.00000	58.50000	0.00000	0.00000	#	c,oh,h
angle_coeff	9	107.66000	39.64100	-12.92100	-2.43180	#	hc,c,hc
angle_coeff	10	108.72800	58.54460	-10.80880	-12.40060	#	hc,c,o4e
angle_coeff	11	108.72800	58.54460	-10.80880	-12.40060	#	hc,c,oc
angle_coeff	12	108.72800	58.54460	-10.80880	-12.40060	#	hc,c,oh

# BondBond Coeffs

angle_coeff	1	bb	0.00000	1.53000	1.53000	#	c,c,c
angle_coeff	2	bb	3.38720	1.53000	1.10100	#	c,c,hc
angle_coeff	3	bb	11.43180	1.53000	1.42000	#	c,c,o4e
angle_coeff	4	bb	11.43180	1.53000	1.42000	#	c,c,oc
angle_coeff	5	bb	11.43180	1.53000	1.42000	#	c,c,oh
angle_coeff	6	bb	-7.11310	1.42000	1.42000	#	c,o4e,c
angle_coeff	7	bb	-7.11310	1.42000	1.42000	#	c,oc,c
angle_coeff	8	bb	0.00000	1.42000	0.96000	#	c,oh,h
angle_coeff	9	bb	5.33160	1.10100	1.10100	#	hc,c,hc
angle_coeff	10	bb	23.19790	1.10100	1.42000	#	hc,c,o4e
angle_coeff	11	bb	23.19790	1.10100	1.42000	#	hc,c,oc
angle_coeff	12	bb	23.19790	1.10100	1.42000	#	hc,c,oh

# BondAngle Coeffs

angle_coeff	1	ba	8.01600	8.01600	1.53000	1.53000	#	c,c,c
angle_coeff	2	ba	20.75400	11.42100	1.53000	1.10100	#	c,c,hc
angle_coeff	3	ba	2.68680	20.40330	1.53000	1.42000	#	c,c,o4e
angle_coeff	4	ba	2.68680	20.40330	1.53000	1.42000	#	c,c,oc
angle_coeff	5	ba	2.68680	20.40330	1.53000	1.42000	#	c,c,oh
angle_coeff	6	ba	-2.81120	-2.81120	1.42000	1.42000	#	c,o4e,c
angle_coeff	7	ba	-2.81120	-2.81120	1.42000	1.42000	#	c,oc,c
angle_coeff	8	ba	0.00000	0.00000	1.42000	0.96000	#	c,oh,h
angle_coeff	9	ba	18.10300	18.10300	1.10100	1.10100	#	hc,c,hc
angle_coeff	10	ba	4.61890	55.32700	1.10100	1.42000	#	hc,c,o4e
angle_coeff	11	ba	4.61890	55.32700	1.10100	1.42000	#	hc,c,oc
angle_coeff	12	ba	4.61890	55.32700	1.10100	1.42000	#	hc,c,oh

# Dihedral Coeffs

dihedral_coeff	1	0.00000	0.00000	0.05140	0.00000	-0.14300	0.00000	#	c,c,c,c
dihedral_coeff	2	0.00000	0.00000	0.03160	0.00000	-0.16810	0.00000	#	c,c,c,hc
dihedral_coeff	3	0.71370	0.00000	0.26600	0.00000	-0.25450	0.00000	#	c,c,c,o4e
dihedral_coeff	4	0.71370	0.00000	0.26600	0.00000	-0.25450	0.00000	#	c,c,c,oc
dihedral_coeff	5	0.71370	0.00000	0.26600	0.00000	-0.25450	0.00000	#	c,c,c,oh
dihedral_coeff	6	-0.52030	0.00000	-0.30280	0.00000	-0.34500	0.00000	#	c,c,o4e,c
dihedral_coeff	7	-0.52030	0.00000	-0.30280	0.00000	-0.34500	0.00000	#	c,c,oc,c
dihedral_coeff	8	0.00000	0.00000	0.00000	0.00000	0.13000	180.00000	#	c,c,oh,h
dihedral_coeff	9	0.53020	0.00000	0.00000	0.00000	-0.39660	0.00000	#	c,o4e,c,hc
dihedral_coeff	10	0.53020	0.00000	0.00000	0.00000	-0.39660	0.00000	#	c,oc,c,hc
dihedral_coeff	11	0.00000	0.00000	0.00000	0.00000	0.13000	180.00000	#	h,oh,c,hc
dihedral_coeff	12	-0.14320	0.00000	0.06170	0.00000	-0.10830	0.00000	#	hc,c,c,hc

# MiddleBondTorsion Coeffs

dihedral_coeff	1	mbt	-17.78700	-7.18770	0.00000	1.53000	#	c,c,c,c
dihedral_coeff	2	mbt	-14.87900	-3.65810	-0.31380	1.53000	#	c,c,c,hc
dihedral_coeff	3	mbt	-21.88420	-7.67640	-0.68680	1.53000	#	c,c,c,o4e
dihedral_coeff	4	mbt	-21.88420	-7.67640	-0.68680	1.53000	#	c,c,c,oc
dihedral_coeff	5	mbt	-21.88420	-7.67640	-0.68680	1.53000	#	c,c,c,oh
dihedral_coeff	6	mbt	-5.92880	-2.70070	-0.31750	1.42000	#	c,c,o4e,c
dihedral_coeff	7	mbt	-5.92880	-2.70070	-0.31750	1.42000	#	c,c,oc,c
dihedral_coeff	8	mbt	0.00000	0.00000	0.00000	1.42000	#	c,c,oh,h
dihedral_coeff	9	mbt	-6.80070	-4.65460	-1.41010	1.42000	#	c,o4e,c,hc
dihedral_coeff	10	mbt	-6.80070	-4.65460	-1.41010	1.42000	#	c,oc,c,hc
dihedral_coeff	11	mbt	0.00000	0.00000	0.00000	1.42000	#	h,oh,c,hc
dihedral_coeff	12	mbt	-14.26100	-0.53220	-0.48640	1.53000	#	hc,c,c,hc

# EndBondTorsion Coeffs

dihedral_coeff	1	ebt	-0.07320	0.00000	0.00000	-0.07320	0.00000	0.00000	1.53000	1.53000	#	c,c,c,c
dihedral_coeff	2	ebt	0.24860	0.24220	-0.09250	0.08140	0.05910	0.22190	1.53000	1.10100	#	c,c,c,hc
dihedral_coeff	3	ebt	-0.31900	0.44110	-0.71740	1.15380	0.84090	-0.91380	1.53000	1.42000	#	c,c,c,o4e
dihedral_coeff	4	ebt	-0.31900	0.44110	-0.71740	1.15380	0.84090	-0.91380	1.53000	1.42000	#	c,c,c,oc
dihedral_coeff	5	ebt	-0.31900	0.44110	-0.71740	1.15380	0.84090	-0.91380	1.53000	1.42000	#	c,c,c,oh
dihedral_coeff	6	ebt	-0.24560	1.05170	-0.77950	0.47410	1.26350	0.55760	1.53000	1.42000	#	c,c,o4e,c
dihedral_coeff	7	ebt	-0.24560	1.05170	-0.77950	0.47410	1.26350	0.55760	1.53000	1.42000	#	c,c,oc,c
dihedral_coeff	8	ebt	0.00000	0.00000	0.00000	0.00000	0.00000	0.00000	1.53000	0.96000	#	c,c,oh,h
dihedral_coeff	9	ebt	-0.16200	0.15640	-1.14080	-0.60540	1.33390	0.96480	1.42000	1.10100	#	c,o4e,c,hc
dihedral_coeff	10	ebt	-0.16200	0.15640	-1.14080	-0.60540	1.33390	0.96480	1.42000	1.10100	#	c,oc,c,hc
dihedral_coeff	11	ebt	0.00000	0.00000	0.00000	0.00000	0.00000	0.00000	0.96000	1.10100	#	h,oh,c,hc
dihedral_coeff	12	ebt	0.21300	0.31200	0.07770	0.21300	0.31200	0.07770	1.10100	1.10100	#	hc,c,c,hc

# AngleTorsion Coeffs

dihedral_coeff	1	at	0.38860	-0.31390	0.13890	0.38860	-0.31390	0.13890	112.67000	112.67000	#	c,c,c,c
dihedral_coeff	2	at	-0.24540	0.00000	-0.11360	0.31130	0.45160	-0.19880	112.67000	110.77000	#	c,c,c,hc
dihedral_coeff	3	at	0.56230	-0.30410	-0.40150	0.96720	-0.75660	-1.23310	112.67000	111.27000	#	c,c,c,o4e
dihedral_coeff	4	at	0.56230	-0.30410	-0.40150	0.96720	-0.75660	-1.23310	112.67000	111.27000	#	c,c,c,oc
dihedral_coeff	5	at	0.56230	-0.30410	-0.40150	0.96720	-0.75660	-1.23310	112.67000	111.27000	#	c,c,c,oh
dihedral_coeff	6	at	-2.74660	1.48770	-0.89550	0.56760	0.94500	0.07030	111.27000	104.50000	#	c,c,o4e,c
dihedral_coeff	7	at	-2.74660	1.48770	-0.89550	0.56760	0.94500	0.07030	111.27000	104.50000	#	c,c,oc,c
dihedral_coeff	8	at	0.00000	0.00000	0.00000	0.00000	0.00000	0.00000	111.27000	109.00000	#	c,c,oh,h
dihedral_coeff	9	at	-0.77770	0.43400	-0.66530	-1.82340	1.63930	0.51440	104.50000	108.72800	#	c,o4e,c,hc
dihedral_coeff	10	at	-0.77770	0.43400	-0.66530	-1.82340	1.63930	0.51440	104.50000	108.72800	#	c,oc,c,hc
dihedral_coeff	11	at	0.00000	0.00000	0.00000	0.00000	0.00000	0.00000	109.00000	108.72800	#	h,oh,c,hc
dihedral_coeff	12	at	-0.80850	0.55690	-0.24660	-0.80850	0.55690	-0.24660	110.77000	110.77000	#	hc,c,c,hc

# AngleAngleTorsion Coeffs

dihedral_coeff	1	aat	-22.04500	112.67000	112.67000	#	c,c,c,c
dihedral_coeff	2	aat	-16.16400	112.67000	110.77000	#	c,c,c,hc
dihedral_coeff	3	aat	-29.04200	112.67000	111.27000	#	c,c,c,o4e
dihedral_coeff	4	aat	-29.04200	112.67000	111.27000	#	c,c,c,oc
dihedral_coeff	5	aat	-29.04200	112.67000	111.27000	#	c,c,c,oh
dihedral_coeff	6	aat	-19.00590	111.27000	104.50000	#	c,c,o4e,c
dihedral_coeff	7	aat	-19.00590	111.27000	104.50000	#	c,c,oc,c
dihedral_coeff	8	aat	0.00000	111.27000	109.00000	#	c,c,oh,h
dihedral_coeff	9	aat	-16.44380	104.50000	108.72800	#	c,o4e,c,hc
dihedral_coeff	10	aat	-16.44380	104.50000	108.72800	#	c,oc,c,hc
dihedral_coeff	11	aat	0.00000	109.00000	108.72800	#	h,oh,c,hc
dihedral_coeff	12	aat	-12.56400	110.77000	110.77000	#	hc,c,c,hc

# BondBond13 Coeffs

dihedral_coeff	1	bb13	0.00000	1.53000	1.53000	#	c,c,c,c
dihedral_coeff	2	bb13	0.00000	1.53000	1.10100	#	c,c,c,hc
dihedral_coeff	3	bb13	0.00000	1.53000	1.42000	#	c,c,c,o4e
dihedral_coeff	4	bb13	0.00000	1.53000	1.42000	#	c,c,c,oc
dihedral_coeff	5	bb13	0.00000	1.53000	1.42000	#	c,c,c,oh
dihedral_coeff	6	bb13	0.00000	1.53000	1.42000	#	c,c,o4e,c
dihedral_coeff	7	bb13	0.00000	1.53000	1.42000	#	c,c,oc,c
dihedral_coeff	8	bb13	0.00000	1.53000	0.96000	#	c,c,oh,h
dihedral_coeff	9	bb13	0.00000	1.42000	1.10100	#	c,o4e,c,hc
dihedral_coeff	10	bb13	0.00000	1.42000	1.10100	#	c,oc,c,hc
dihedral_coeff	11	bb13	0.00000	0.96000	1.10100	#	h,oh,c,hc
dihedral_coeff	12	bb13	0.00000	1.10100	1.10100	#	hc,c,c,hc

# Improper Coeffs

improper_coeff	1	0.00000	0.00000	#	c,c,c,c
improper_coeff	2	0.00000	0.00000	#	c,c,c,hc
improper_coeff	3	0.00000	0.00000	#	c,c,hc,hc
improper_coeff	4	0.00000	0.00000	#	c,c,hc,o4e
improper_coeff	5	0.00000	0.00000	#	c,c,hc,oc
improper_coeff	6	0.00000	0.00000	#	c,c,o4e,hc
improper_coeff	7	0.00000	0.00000	#	c,c,oc,hc
improper_coeff	8	0.00000	0.00000	#	c,c,oh,hc
improper_coeff	9	0.00000	0.00000	#	c,hc,hc,hc
improper_coeff	10	0.00000	0.00000	#	c,hc,hc,o4e
improper_coeff	11	0.00000	0.00000	#	c,hc,hc,oc
improper_coeff	12	0.00000	0.00000	#	c,hc,hc,oh

# AngleAngle Coeffs

improper_coeff	1	aa	-0.17290	-0.17290	-0.17290	112.67000	112.67000	112.67000	#	c,c,c,c
improper_coeff	2	aa	-1.31990	-1.31990	0.11840	112.67000	110.77000	110.77000	#	c,c,c,hc
improper_coeff	3	aa	0.27380	-0.48250	0.27380	110.77000	110.77000	107.66000	#	c,c,hc,hc
improper_coeff	4	aa	3.91770	2.59260	0.16890	110.77000	111.27000	108.72800	#	c,c,hc,o4e
improper_coeff	5	aa	3.91770	2.59260	0.16890	110.77000	111.27000	108.72800	#	c,c,hc,oc
improper_coeff	6	aa	0.16890	2.59260	3.91770	111.27000	110.77000	108.72800	#	c,c,o4e,hc
improper_coeff	7	aa	0.16890	2.59260	3.91770	111.27000	110.77000	108.72800	#	c,c,oc,hc
improper_coeff	8	aa	0.16890	2.59260	3.91770	111.27000	110.77000	108.72800	#	c,c,oh,hc
improper_coeff	9	aa	-0.31570	-0.31570	-0.31570	107.66000	107.66000	107.66000	#	c,hc,hc,hc
improper_coeff	10	aa	2.42590	2.42590	2.12830	107.66000	108.72800	108.72800	#	c,hc,hc,o4e
improper_coeff	11	aa	2.42590	2.42590	2.12830	107.66000	108.72800	108.72800	#	c,hc,hc,oc
improper_coeff	12	aa	2.42590	2.42590	2.12830	107.66000	108.72800	108.72800	#	c,hc,hc,oh

# ------------------------------- OPT Section -------------------------------
minimize 1.0e-5 1.0e-7 100000 400000
Generated 15 of 15 mixed pair_coeff terms from sixthpower/geometric mixing rule
Neighbor list info ...
  update: every = 1 steps, delay = 0 steps, check = yes
  max neighbors/atom: 2000, page size: 100000
  master list distance cutoff = 12
  ghost atom cutoff = 12
  binsize = 6, bins = 8 8 8
  1 neighbor lists, perpetual/occasional/extra = 1 0 0
  (1) pair lj/class2/coul/cut, perpetual
      attributes: half, newton on
      pair build: half/bin/newton
      stencil: half/bin/3d
      bin: standard
Per MPI rank memory allocation (min/avg/max) = 34.62 | 34.65 | 34.68 Mbytes
   Step          Temp          E_pair         E_mol          TotEng         Press     
         0   0             -111.49712      6914.0793      6802.5822     -2884.4124    
        51   0             -1097.6981      1751.9119      654.21379      159.21864    
Loop time of 1.68402 on 6 procs for 51 steps with 5021 atoms

99.0% CPU use with 6 MPI tasks x no OpenMP threads

Minimization stats:
  Stopping criterion = linesearch alpha is zero
  Energy initial, next-to-last, final = 
       6802.5822260671   654.213790249399   654.213790249396
  Force two-norm initial, final = 2341.0569 149.0717
  Force max component initial, final = 114.45298 9.274248
  Final line search alpha, max atom move = 5.0524794e-13 4.6857947e-12
  Iterations, force evaluations = 51 205

MPI task timing breakdown:
Section |  min time  |  avg time  |  max time  |%varavg| %total
---------------------------------------------------------------
Pair    | 0.35271    | 0.5254     | 0.8039     |  20.5 | 31.20
Bond    | 0.49199    | 0.6493     | 0.7971     |  15.0 | 38.56
Neigh   | 0.014096   | 0.014119   | 0.01416    |   0.0 |  0.84
Comm    | 0.06811    | 0.48405    | 0.80455    |  37.6 | 28.74
Output  | 0          | 0          | 0          |   0.0 |  0.00
Modify  | 0          | 0          | 0          |   0.0 |  0.00
Other   |            | 0.01115    |            |       |  0.66

Nlocal:        836.833 ave        1002 max         686 min
Histogram: 2 0 1 0 0 0 0 1 1 1
Nghost:         5364.5 ave        5532 max        5109 min
Histogram: 1 0 0 0 1 0 1 1 1 1
Neighs:         152551 ave      182898 max      109634 min
Histogram: 1 1 0 0 0 1 0 0 1 2

Total # of neighbors = 915305
Ave neighs/atom = 182.29536
Ave special neighs/atom = 10.874726
Neighbor list builds = 3
Dangerous builds = 0
# ------------------------------- Run Section -------------------------------
#

thermo_style custom step temp pe evdwl ecoul ebond eangle edihed eimp density vol
thermo          100

fix Langevin  all langevin 300 300 100.0 482432
fix moveLimit all nve/limit 0.1
run 20000
Generated 15 of 15 mixed pair_coeff terms from sixthpower/geometric mixing rule
Per MPI rank memory allocation (min/avg/max) = 33.49 | 33.52 | 33.56 Mbytes
   Step          Temp          PotEng         E_vdwl         E_coul         E_bond        E_angle        E_dihed        E_impro        Density         Volume    
        51   0              654.21379     -925.17756     -172.5205       68.633426      7204.1421     -5482.4315     -38.432109      0.44999999     105550.03    
       100   123.06434      2195.8189     -854.65252     -131.05571      709.83216      7902.4622     -5390.1511     -40.616147      0.44999999     105550.03    
       200   240.85354      3855.3302     -791.94901     -138.19045      1399.6747      8734.3341     -5301.8853     -46.653833      0.44999999     105550.03    
       300   284.01371      4158.4659     -791.31913     -180.85488      1506.83        8957.1195     -5283.4019     -49.907699      0.44999999     105550.03    
       400   293.90536      4197.113      -855.31651     -298.00591      1637.3288      8900.5143     -5141.6535     -45.754164      0.44999999     105550.03    
       500   296.97759      4313.0112     -844.99202     -239.45231      1663.7366      9010.2518     -5220.4363     -56.096557      0.44999999     105550.03    
       600   299.82305      4331.6537     -845.528       -242.72795      1676.3017      9028.055      -5234.4848     -49.962294      0.44999999     105550.03    
       700   305.64195      4492.1631     -867.50307     -115.46845      1727.8475      9115.1004     -5313.4568     -54.356469      0.44999999     105550.03    
       800   297.27022      4236.47       -851.98235     -273.36021      1696.9556      8990.933      -5277.4587     -48.617263      0.44999999     105550.03    
       900   299.21535      4389.6193     -851.01363     -122.64142      1725.3079      8949.2348     -5257.9888     -53.279466      0.44999999     105550.03    
      1000   302.93271      4098.179      -892.84032     -259.35435      1652.9442      9012.0529     -5361.1945     -53.428908      0.44999999     105550.03    
      1100   297.72218      4139.3484     -845.3298      -294.50964      1706.8508      9016.9272     -5395.7839     -48.806244      0.44999999     105550.03    
      1200   294.82578      4372.2127     -862.11265     -180.11808      1710.3689      9146.4055     -5392.1107     -50.220226      0.44999999     105550.03    
      1300   298.4568       4185.1534     -885.27459     -272.66788      1634.6471      9090.12       -5336.9127     -44.758436      0.44999999     105550.03    
      1400   301.72182      4388.6147     -836.92574     -79.396159      1737.2726      9032.4086     -5417.1594     -47.58521       0.44999999     105550.03    
      1500   292.74408      4230.4974     -872.98033     -161.98993      1735.4405      8918.9136     -5338.9142     -49.97226       0.44999999     105550.03    
      1600   294.9057       4211.2659     -882.4274      -161.78363      1691.7401      9025.7143     -5409.2967     -52.680821      0.44999999     105550.03    
      1700   301.64394      4080.422      -886.99789     -262.62502      1723.3678      8917.9239     -5360.8505     -50.396267      0.44999999     105550.03    
      1800   292.4027       4163.4511     -869.60656     -286.24105      1748.9226      8994.7466     -5374.8416     -49.529034      0.44999999     105550.03    
      1900   303.15084      4067.8588     -907.29484     -277.81229      1730.3058      8933.1843     -5361.3357     -49.188388      0.44999999     105550.03    
      2000   297.92815      4193.2481     -883.94113     -183.48963      1706.0634      9019.0191     -5410.7478     -53.655769      0.44999999     105550.03    
      2100   305.6231       3986.1967     -861.3399      -314.12457      1682.8851      8867.9206     -5336.5013     -52.643302      0.44999999     105550.03    
      2200   297.80979      3927.5826     -868.49545     -315.54182      1670.8443      8919.5483     -5424.4108     -54.361864      0.44999999     105550.03    
      2300   300.46364      3957.2005     -875.49559     -344.91502      1671.804       8958.0104     -5401.2717     -50.931573      0.44999999     105550.03    
      2400   298.55156      4094.8296     -865.40014     -238.34987      1732.2213      9028.7748     -5509.7392     -52.677203      0.44999999     105550.03    
      2500   300.17275      4035.4699     -886.14592     -258.08893      1669.1531      8954.581      -5396.984      -47.045396      0.44999999     105550.03    
      2600   297.27115      4042.0967     -855.14588     -208.86737      1656.425       8972.0779     -5472.6472     -49.745717      0.44999999     105550.03    
      2700   296.1474       3945.5728     -879.29502     -289.62838      1673.4601      9009.4774     -5514.7645     -53.676873      0.44999999     105550.03    
      2800   298.34025      3930.6969     -896.09797     -325.81028      1687.2963      8922.0914     -5404.9558     -51.826669      0.44999999     105550.03    
      2900   300.20688      4141.722      -909.33934     -192.88923      1735.7755      9063.6469     -5504.0355     -51.436346      0.44999999     105550.03    
      3000   301.76533      4168.0671     -869.9956      -149.38546      1735.2689      8916.51       -5414.9025     -49.428233      0.44999999     105550.03    
      3100   300.70606      3849.7294     -894.07613     -351.91007      1689.5653      8940.683      -5479.6716     -54.861059      0.44999999     105550.03    
      3200   301.10634      3882.8106     -927.16578     -298.1744       1696.1787      8923.4239     -5457.738      -53.713859      0.44999999     105550.03    
      3300   299.64546      3997.2266     -903.23126     -235.64315      1721.793       8908.9482     -5445.7753     -48.864781      0.44999999     105550.03    
      3400   296.0583       3887.7336     -887.37537     -296.64308      1655.0132      8974.3929     -5508.9111     -48.742945      0.44999999     105550.03    
      3500   300.15014      3898.133      -849.50756     -342.09658      1650.378       9013.1845     -5520.408      -53.417361      0.44999999     105550.03    
      3600   301.2921       3917.7383     -883.01808     -261.024        1709.0012      8845.6566     -5439.779      -53.098401      0.44999999     105550.03    
      3700   302.38471      3923.129      -877.63049     -324.96054      1650.4876      8977.1711     -5452.5167     -49.421975      0.44999999     105550.03    
      3800   302.44868      4007.2617     -883.17948     -163.12696      1654.5496      9028.2956     -5577.0168     -52.260333      0.44999999     105550.03    
      3900   296.05533      3909.1022     -870.54432     -293.45175      1703.8203      8921.3478     -5505.1116     -46.958208      0.44999999     105550.03    
      4000   300.97145      3810.9434     -886.45524     -322.56888      1674.4898      8846.1738     -5448.2203     -52.475821      0.44999999     105550.03    
      4100   304.67275      3795.1125     -900.64154     -332.20825      1672.9245      8900.6401     -5491.1714     -54.430897      0.44999999     105550.03    
      4200   300.37289      3924.0862     -933.27063     -246.18738      1683.5742      8987.1775     -5514.2062     -53.001321      0.44999999     105550.03    
      4300   297.73268      3966.586      -914.00563     -308.78536      1744.1085      8910.0602     -5411.1852     -53.606553      0.44999999     105550.03    
      4400   298.22739      3820.7964     -885.98293     -396.84976      1693.0748      9026.3903     -5561.0848     -54.751199      0.44999999     105550.03    
      4500   300.56505      3925.9819     -920.97344     -191.20611      1667.4771      8764.4359     -5347.759      -45.992541      0.44999999     105550.03    
      4600   299.50589      3870.5573     -943.86555     -246.69075      1693.7412      8993.0828     -5574.3852     -51.325071      0.44999999     105550.03    
      4700   303.81531      3812.7716     -915.95765     -290.91792      1674.8385      8893.4018     -5497.6803     -50.912824      0.44999999     105550.03    
      4800   303.73561      3990.6688     -956.55027     -183.85097      1661.4401      8972.3844     -5450.4635     -52.290905      0.44999999     105550.03    
      4900   304.60324      3833.5392     -886.04915     -285.16027      1669.0594      8945.6292     -5557.2207     -52.719339      0.44999999     105550.03    
      5000   295.87655      3870.9573     -918.63053     -264.45313      1693.741       8982.9244     -5569.5562     -53.068121      0.44999999     105550.03    
      5100   304.14154      3816.6774     -911.95562     -309.80195      1679.1695      9015.5334     -5601.5538     -54.714043      0.44999999     105550.03    
      5200   295.53726      3843.7653     -953.83616     -213.30535      1692.1115      8809.4409     -5436.5238     -54.12185       0.44999999     105550.03    
      5300   297.95795      3852.0836     -940.28815     -208.10879      1707.295       8809.5399     -5463.8077     -52.546533      0.44999999     105550.03    
      5400   296.49171      3911.2674     -932.64204     -171.98733      1651.2205      8954.7722     -5535.0845     -55.011445      0.44999999     105550.03    
      5500   302.94972      3837.8115     -940.28562     -241.806        1704.6099      8914.5598     -5548.7308     -50.535782      0.44999999     105550.03    
      5600   296.85769      3627.2129     -935.585       -368.18341      1671.9419      8913.8682     -5602.651      -52.177823      0.44999999     105550.03    
      5700   298.01501      3617.0866     -924.10644     -414.37207      1675.9692      8899.7685     -5570.314      -49.858543      0.44999999     105550.03    
      5800   293.69336      3658.8915     -934.37914     -381.79215      1742.4462      8848.2463     -5564.2794     -51.350371      0.44999999     105550.03    
      5900   299.13252      3600.8536     -936.88181     -434.27301      1698.0451      8942.3191     -5616.1782     -52.177522      0.44999999     105550.03    
      6000   295.75903      3659.677      -946.86884     -389.49869      1736.8089      8951.7443     -5640.2479     -52.260815      0.44999999     105550.03    
      6100   294.58926      3591.7613     -933.8772      -393.82084      1632.4787      8934.4084     -5595.2548     -52.173018      0.44999999     105550.03    
      6200   296.87388      3611.9465     -938.45928     -368.55823      1674.9928      8920.3544     -5625.7623     -50.620967      0.44999999     105550.03    
      6300   300.90224      3609.2249     -925.22823     -458.75153      1678.5865      8889.6906     -5522.5439     -52.528627      0.44999999     105550.03    
      6400   303.27576      3615.8364     -933.69319     -379.73454      1671.9333      8923.5385     -5615.0948     -51.112791      0.44999999     105550.03    
      6500   300.21983      3490.7211     -954.8201      -511.04747      1711.0663      8868.3902     -5572.84       -50.027886      0.44999999     105550.03    
      6600   300.42783      3591.3003     -934.73523     -351.45718      1664.3621      8913.9018     -5650.8882     -49.882944      0.44999999     105550.03    
      6700   304.0848       3645.7086     -979.68738     -380.41186      1676.4728      8972.5209     -5586.2409     -56.944921      0.44999999     105550.03    
      6800   300.21867      3707.5215     -934.10226     -306.64471      1676.3671      8968.7561     -5645.302      -51.552642      0.44999999     105550.03    
      6900   297.37021      3821.6995     -953.38576     -204.1218       1682.1667      8964.1        -5616.3959     -50.663709      0.44999999     105550.03    
      7000   299.98205      3780.9129     -969.0248      -297.90491      1729.8802      8988.7176     -5620.5644     -50.190752      0.44999999     105550.03    
      7100   299.33172      3706.7686     -963.71511     -237.0235       1669.7012      8830.333      -5542.318      -50.209046      0.44999999     105550.03    
      7200   298.4066       3640.9319     -947.07634     -358.01905      1652.8616      8878.5492     -5535.0904     -50.293099      0.44999999     105550.03    
      7300   299.29441      3673.4713     -958.47526     -384.71916      1710.6714      8920.6176     -5560.3353     -54.28805       0.44999999     105550.03    
      7400   300.05812      3618.1623     -986.8468      -302.50038      1639.4681      8861.0306     -5540.139      -52.850263      0.44999999     105550.03    
      7500   297.24273      3581.3419     -971.6273      -366.03323      1655.5308      8827.297      -5509.2977     -54.527589      0.44999999     105550.03    
      7600   298.48589      3729.7495     -951.33125     -286.48178      1664.0244      8865.7467     -5511.0663     -51.142218      0.44999999     105550.03    
      7700   305.50541      3797.5148     -947.50762     -207.30173      1622.9177      9068.807      -5686.3068     -53.0937        0.44999999     105550.03    
      7800   298.09918      3751.3506     -947.34546     -231.2801       1648.5076      8834.0566     -5498.2622     -54.325855      0.44999999     105550.03    
      7900   293.7615       3640.6875     -975.4099      -309.39228      1670.7294      8905.7521     -5598.3761     -52.615608      0.44999999     105550.03    
      8000   300.83942      3588.4067     -948.02624     -401.01905      1690.5173      8922.9986     -5622.5586     -53.505277      0.44999999     105550.03    
      8100   301.59454      3698.4604     -991.79814     -275.28456      1694.4688      8827.3885     -5500.3608     -55.953441      0.44999999     105550.03    
      8200   303.29405      3730.4436     -981.48447     -292.18979      1709.6695      8929.1254     -5577.0737     -57.603287      0.44999999     105550.03    
      8300   299.18191      3655.3239     -984.69069     -282.04241      1680.4524      8884.8141     -5591.8958     -51.313758      0.44999999     105550.03    
      8400   305.2078       3555.7172     -992.92428     -396.77001      1655.4623      8872.2504     -5528.1927     -54.108515      0.44999999     105550.03    
      8500   301.25154      3683.2191     -981.88743     -278.02956      1700.8661      8942.5014     -5650.6315     -49.599838      0.44999999     105550.03    
      8600   296.85903      3615.184      -959.80824     -373.92147      1679.8748      8849.876      -5531.2123     -49.624694      0.44999999     105550.03    
      8700   296.28706      3677.5472     -957.8781      -367.56979      1687.4765      8976.6396     -5606.1742     -54.946844      0.44999999     105550.03    
      8800   300.42191      3554.8218     -962.60527     -471.78025      1720.0392      8813.1431     -5487.3126     -56.662349      0.44999999     105550.03    
      8900   302.86223      3704.9906     -955.92109     -320.86232      1688.2986      8967.5112     -5620.2494     -53.786404      0.44999999     105550.03    
      9000   300.42813      3717.0673     -1001.5389     -289.27397      1703.8958      9007.9362     -5647.7402     -56.211688      0.44999999     105550.03    
      9100   298.49399      3540.9        -993.33577     -300.45481      1697.8382      8916.7855     -5727.0656     -52.867562      0.44999999     105550.03    
      9200   303.52976      3497.6703     -1002.6346     -373.63298      1660.6239      8844.1539     -5578.8002     -52.039689      0.44999999     105550.03    
      9300   301.69461      3630.58       -981.88488     -291.73846      1682.6524      8938.8574     -5663.2679     -54.038666      0.44999999     105550.03    
      9400   298.75059      3495.1198     -977.50439     -378.87435      1666.75        8826.2477     -5594.5325     -46.966663      0.44999999     105550.03    
      9500   300.29137      3517.3354     -1008.4073     -354.39562      1606.7223      8957.8438     -5637.8938     -46.534005      0.44999999     105550.03    
      9600   299.94375      3591.9942     -1024.279      -290.00376      1699.4883      8893.1688     -5638.8953     -47.484786      0.44999999     105550.03    
      9700   294.77807      3562.0668     -1000.4753     -314.30222      1730.88        8912.7011     -5717.3979     -49.33902       0.44999999     105550.03    
      9800   292.60739      3597.7229     -992.04587     -345.10778      1706.0167      8868.8294     -5585.5551     -54.414453      0.44999999     105550.03    
      9900   302.42318      3487.8758     -1050.6411     -367.73501      1728.5215      8855.2973     -5625.6584     -51.908524      0.44999999     105550.03    
     10000   302.92586      3538.4563     -981.64409     -486.27401      1729.415       8998.2561     -5668.7554     -52.54132       0.44999999     105550.03    
     10100   306.7661       3364.7506     -1033.7449     -472.73709      1646.8616      8885.5549     -5607.9932     -53.190582      0.44999999     105550.03    
     10200   304.1663       3463.1644     -947.02949     -472.47403      1627.2981      8881.1036     -5573.1896     -52.544284      0.44999999     105550.03    
     10300   306.43604      3405.1305     -1028.1761     -462.63816      1620.7832      8939.4042     -5611.9508     -52.291868      0.44999999     105550.03    
     10400   300.12252      3658.536      -979.92212     -307.55396      1638.9221      9053.8383     -5690.3202     -56.428048      0.44999999     105550.03    
     10500   299.88606      3535.2662     -994.29968     -350.253        1704.5908      8952.8418     -5725.9519     -51.661826      0.44999999     105550.03    
     10600   298.25324      3334.1214     -984.72825     -475.52833      1627.4424      8985.1683     -5766.1505     -52.082265      0.44999999     105550.03    
     10700   300.7417       3507.6373     -1014.8373     -378.25483      1665.1925      8921.8633     -5640.0867     -46.239619      0.44999999     105550.03    
     10800   298.86922      3570.7044     -1028.2758     -383.52019      1687.8858      8995.437      -5646.4844     -54.338013      0.44999999     105550.03    
     10900   301.17867      3516.9266     -1036.4305     -395.20125      1693.9846      8911.9489     -5605.0238     -52.351407      0.44999999     105550.03    
     11000   302.74598      3632.4686     -996.42016     -391.15262      1800.5926      9055.4215     -5784.6838     -51.288847      0.44999999     105550.03    
     11100   301.9449       3526.8117     -1024.9071     -350.2745       1672.7229      8985.0536     -5701.9088     -53.87446       0.44999999     105550.03    
     11200   305.20706      3472.1163     -1006.9171     -391.04783      1684.4153      8822.9935     -5581.4992     -55.828195      0.44999999     105550.03    
     11300   295.28917      3302.8723     -999.52734     -649.10363      1717.6454      9094.4755     -5806.3546     -54.263036      0.44999999     105550.03    
     11400   299.54717      3533.6967     -1027.2348     -424.24857      1697.9288      8890.5439     -5545.5067     -57.785992      0.44999999     105550.03    
     11500   299.34431      3493.5314     -1009.1026     -438.7081       1667.4002      8894.6879     -5570.6181     -50.127837      0.44999999     105550.03    
     11600   299.55041      3566.4038     -1029.9179     -376.08974      1702.2931      8870.5262     -5545.669      -54.739014      0.44999999     105550.03    
     11700   303.87093      3464.975      -1033.2429     -452.09929      1713.4733      8865.6172     -5574.8796     -53.893853      0.44999999     105550.03    
     11800   299.14596      3425.4608     -1042.8652     -470.85474      1683.8653      8960.9379     -5650.2204     -55.402077      0.44999999     105550.03    
     11900   304.64627      3496.5619     -1019.8        -384.04447      1709.8437      8854.2386     -5612.9138     -50.762124      0.44999999     105550.03    
     12000   299.64101      3400.7199     -1036.0554     -490.8249       1666.4301      9032.6845     -5718.0481     -53.466221      0.44999999     105550.03    
     12100   306.66832      3298.7638     -1046.9122     -428.30825      1605.3596      8882.8337     -5662.1036     -52.1054        0.44999999     105550.03    
     12200   299.57179      3476.4894     -979.80977     -410.20873      1660.8486      8972.6662     -5717.1444     -49.862437      0.44999999     105550.03    
     12300   296.39559      3504.0549     -1047.0589     -428.63496      1733.0388      8904.4148     -5604.3867     -53.318085      0.44999999     105550.03    
     12400   297.40141      3432.8892     -1060.3771     -352.96987      1657.7135      8906.1155     -5664.4588     -53.134173      0.44999999     105550.03    
     12500   309.32135      3464.0795     -1025.7102     -393.4357       1689.5672      8955.4171     -5707.7095     -54.049346      0.44999999     105550.03    
     12600   303.57744      3607.5573     -1061.0357     -283.39944      1735.7818      8881.0542     -5613.3801     -51.463543      0.44999999     105550.03    
     12700   299.07245      3543.9548     -1063.104      -326.50423      1652.607       8969.9563     -5638.1329     -50.867361      0.44999999     105550.03    
     12800   295.9897       3391.3784     -1043.7765     -457.06649      1693.98        8808.8672     -5559.2595     -51.366319      0.44999999     105550.03    
     12900   300.77642      3492.5037     -1012.5159     -406.81788      1707.4444      8866.5599     -5609.9883     -52.178557      0.44999999     105550.03    
     13000   297.19926      3509.3337     -1020.8546     -342.90133      1642.5549      8949.2773     -5665.0655     -53.677047      0.44999999     105550.03    
     13100   295.52613      3432.8161     -996.50973     -392.37013      1694.797       8884.1072     -5705.6403     -51.56789       0.44999999     105550.03    
     13200   300.46119      3516.2235     -1037.4411     -319.61813      1710.7732      8828.5217     -5616.3071     -49.705158      0.44999999     105550.03    
     13300   300.13414      3402.5886     -1014.4096     -405.89835      1672.673       8839.2409     -5639.1007     -49.916708      0.44999999     105550.03    
     13400   298.8697       3570.1507     -1029.98       -294.49575      1728.6356      8845.6719     -5630.8016     -48.879533      0.44999999     105550.03    
     13500   305.45503      3613.4027     -989.19319     -278.3057       1700.2328      8866.4823     -5631.8857     -53.927687      0.44999999     105550.03    
     13600   304.62999      3414.9589     -1031.8721     -395.65102      1675.4776      8896.0642     -5678.5129     -50.546929      0.44999999     105550.03    
     13700   299.68411      3442.0589     -1026.5872     -377.06996      1655.008       8955.1286     -5705.3355     -59.085082      0.44999999     105550.03    
     13800   300.02929      3386.4316     -1024.8412     -399.87697      1669.7209      8799.1057     -5603.8181     -53.858649      0.44999999     105550.03    
     13900   300.43453      3454.8402     -1036.3359     -379.16358      1673.6139      8908.8146     -5656.597      -55.491911      0.44999999     105550.03    
     14000   301.27318      3624.347      -1036.3889     -289.19514      1710.7684      9000.5905     -5707.1666     -54.261375      0.44999999     105550.03    
     14100   304.23936      3531.1357     -1035.2546     -354.69489      1696.7181      8927.5404     -5647.9651     -55.208232      0.44999999     105550.03    
     14200   297.49516      3345.7035     -985.98023     -471.11225      1665.9736      8831.7265     -5642.9063     -51.997765      0.44999999     105550.03    
     14300   305.86871      3458.7389     -1026.5736     -390.83663      1708.9773      9006.8022     -5786.5054     -53.125034      0.44999999     105550.03    
     14400   301.94327      3337.921      -1021.9786     -474.31546      1669.7824      8834.1844     -5618.0124     -51.73936       0.44999999     105550.03    
     14500   299.08135      3420.7853     -1042.5115     -386.0786       1695.1975      8933.9705     -5726.1243     -53.668375      0.44999999     105550.03    
     14600   298.03796      3480.7897     -1050.2593     -429.10021      1698.8822      8920.3129     -5601.4651     -57.580806      0.44999999     105550.03    
     14700   303.28037      3456.515      -1028.4557     -396.30899      1657.0958      8958.3244     -5682.0662     -52.074257      0.44999999     105550.03    
     14800   306.86367      3452.1047     -1021.2502     -366.68197      1644.1297      8837.0433     -5587.9889     -53.147157      0.44999999     105550.03    
     14900   308.49151      3342.23       -1010.3379     -479.04047      1663.3804      8967.7102     -5749.6523     -49.829987      0.44999999     105550.03    
     15000   300.84939      3308.3923     -1046.2659     -500.19484      1713.1947      8883.3799     -5691.2557     -50.46592       0.44999999     105550.03    
     15100   294.93262      3297.7107     -1036.2019     -479.61054      1632.3671      8860.4655     -5626.7055     -52.603913      0.44999999     105550.03    
     15200   297.61044      3371.3292     -1001.6065     -377.55473      1669.4759      8873.5063     -5742.9118     -49.579978      0.44999999     105550.03    
     15300   293.11987      3299.0754     -1025.5763     -486.17617      1616.7934      8840.6206     -5596.1702     -50.415948      0.44999999     105550.03    
     15400   298.70604      3216.8449     -1022.0795     -597.18711      1677.1615      8891.6677     -5678.213      -54.504681      0.44999999     105550.03    
     15500   300.70827      3411.735      -1028.983      -394.02226      1663.3986      8841.1394     -5617.8833     -51.914546      0.44999999     105550.03    
     15600   301.94958      3352.4736     -1040.5989     -466.20185      1676.8369      8878.8645     -5646.5588     -49.868263      0.44999999     105550.03    
     15700   293.94961      3557.4974     -1035.2903     -390.0886       1747.3735      8846.3974     -5560.0638     -50.830829      0.44999999     105550.03    
     15800   295.60875      3421.8879     -1015.7009     -410.60544      1689.9004      8942.9173     -5729.6082     -55.015284      0.44999999     105550.03    
     15900   301.19344      3482.1939     -1051.9796     -322.07708      1730.3735      8909.7802     -5731.7678     -52.135433      0.44999999     105550.03    
     16000   301.20146      3487.292      -1066.7897     -319.14128      1672.5214      8940.7921     -5684.9045     -55.186071      0.44999999     105550.03    
     16100   303.67935      3305.6402     -1068.0392     -505.94441      1649.8163      8887.1727     -5608.8192     -48.54599       0.44999999     105550.03    
     16200   303.92955      3412.1778     -1049.7886     -405.96353      1674.3914      8948.6015     -5702.3005     -52.762474      0.44999999     105550.03    
     16300   304.13286      3493.0765     -1083.6934     -309.34238      1673.805       8879.4228     -5613.3569     -53.758735      0.44999999     105550.03    
     16400   301.19225      3420.8243     -1036.1572     -325.10384      1649.4837      8948.7279     -5761.9671     -54.159101      0.44999999     105550.03    
     16500   303.24891      3391.2975     -1046.7295     -446.40153      1691.1144      8893.5944     -5647.8425     -52.437829      0.44999999     105550.03    
     16600   300.5294       3366.8817     -1036.4827     -427.41595      1667.3545      8980.2896     -5762.8167     -54.046954      0.44999999     105550.03    
     16700   300.50521      3318.4529     -1048.3323     -423.39174      1702.2251      8880.214      -5739.1483     -53.113923      0.44999999     105550.03    
     16800   300.85005      3192.4344     -1046.9033     -521.50034      1697.7873      8832.8938     -5715.8175     -54.025545      0.44999999     105550.03    
     16900   300.86875      3507.0845     -1040.1911     -392.13083      1741.9471      8902.1492     -5649.9052     -54.784663      0.44999999     105550.03    
     17000   304.88732      3435.2556     -1063.0577     -388.6001       1686.4358      8901.9963     -5648.6475     -52.87117       0.44999999     105550.03    
     17100   297.59298      3380.5453     -1063.4262     -430.08293      1696.3972      8900.5924     -5676.0953     -46.839899      0.44999999     105550.03    
     17200   299.96894      3390.4454     -1073.4896     -330.98252      1695.1222      8768.7329     -5620.8003     -48.137262      0.44999999     105550.03    
     17300   298.66778      3325.6507     -1032.2297     -438.70863      1662.3222      8958.1957     -5771.0931     -52.835854      0.44999999     105550.03    
     17400   305.34802      3224.9335     -1052.7862     -490.59047      1633.9434      8793.9894     -5602.9298     -56.692782      0.44999999     105550.03    
     17500   300.11575      3317.3273     -1033.6578     -454.47213      1660.566       8912.9946     -5715.8683     -52.235217      0.44999999     105550.03    
     17600   307.38269      3360.7782     -1047.9999     -396.10988      1705.1581      8872.8935     -5717.9638     -55.199843      0.44999999     105550.03    
     17700   302.68129      3260.5312     -1050.2288     -470.23569      1725.1345      8781.7805     -5674.0147     -51.904624      0.44999999     105550.03    
     17800   300.51442      3310.149      -1048.699      -412.56937      1677.0241      8840.0428     -5696.0817     -49.567866      0.44999999     105550.03    
     17900   300.13183      3441.4526     -1031.7931     -357.81276      1661.9615      8960.2779     -5736.0883     -55.092535      0.44999999     105550.03    
     18000   294.46533      3251.1215     -1054.8078     -548.90197      1691.302       8870.248      -5654.561      -52.157582      0.44999999     105550.03    
     18100   299.81382      3336.9374     -1066.6659     -408.62027      1628.5456      8863.5143     -5623.1712     -56.665154      0.44999999     105550.03    
     18200   299.34645      3367.6011     -1041.0698     -391.06805      1644.9423      8896.9432     -5687.4668     -54.679617      0.44999999     105550.03    
     18300   299.54909      3500.8834     -1062.9767     -355.3859       1688.7168      8895.0102     -5610.6948     -53.786123      0.44999999     105550.03    
     18400   299.79407      3305.4115     -1050.177      -445.87659      1646.0645      8850.9167     -5642.4621     -53.054001      0.44999999     105550.03    
     18500   304.28253      3241.9208     -1061.896      -484.85423      1682.3393      8707.9566     -5549.0881     -52.536718      0.44999999     105550.03    
     18600   300.86382      3493.19       -1050.9649     -339.28283      1703.549       8922.2233     -5686.5118     -55.822778      0.44999999     105550.03    
     18700   301.78268      3404.7302     -1039.5637     -384.37236      1710.841       8840.2912     -5669.6852     -52.780614      0.44999999     105550.03    
     18800   296.65386      3420.5213     -1085.646      -282.04882      1671.2026      8861.7138     -5693.4606     -51.23959       0.44999999     105550.03    
     18900   299.65923      3564.243      -1103.4669     -291.18212      1676.6565      8901.7053     -5570.0224     -49.447332      0.44999999     105550.03    
     19000   301.72525      3321.6547     -1106.9674     -467.32868      1689.4128      8938.9409     -5682.3954     -50.007434      0.44999999     105550.03    
     19100   298.79719      3545.9684     -1073.9323     -294.97719      1698.8364      9100.0394     -5831.2908     -52.707027      0.44999999     105550.03    
     19200   300.48092      3518.6423     -1056.9399     -306.15715      1693.2731      8932.9959     -5694.4801     -50.049651      0.44999999     105550.03    
     19300   301.79461      3427.6209     -1074.0494     -376.94963      1713.5237      8972.8274     -5753.0527     -54.678378      0.44999999     105550.03    
     19400   294.70557      3420.4916     -1071.8962     -345.54088      1702.2159      8962.3889     -5774.754      -51.921977      0.44999999     105550.03    
     19500   299.50548      3312.2015     -1048.6919     -391.36813      1669.3414      8898.9267     -5767.0845     -48.92194       0.44999999     105550.03    
     19600   300.38723      3421.9217     -1056.6515     -292.60902      1676.1301      9000.6965     -5855.1936     -50.450759      0.44999999     105550.03    
     19700   297.42791      3395.9011     -1059.6766     -443.07744      1707.6055      8937.4954     -5696.456      -49.989621      0.44999999     105550.03    
     19800   305.21204      3375.007      -1055.1323     -420.15369      1730.016       8936.2041     -5764.4376     -51.489599      0.44999999     105550.03    
     19900   304.00359      3265.1735     -1072.2148     -475.262        1664.7984      8859.5787     -5657.0697     -54.65704       0.44999999     105550.03    
     20000   309.03485      3236.3878     -1071.0991     -459.02127      1659.5238      8877.6986     -5718.8878     -51.826449      0.44999999     105550.03    
     20051   304.11355      3298.2488     -1051.786      -496.0585       1694.6193      8932.6578     -5728.3875     -52.796367      0.44999999     105550.03    
Loop time of 122.736 on 6 procs for 20000 steps with 5021 atoms

Performance: 14.079 ns/day, 1.705 hours/ns, 162.951 timesteps/s, 818.178 katom-step/s
99.1% CPU use with 6 MPI tasks x no OpenMP threads

MPI task timing breakdown:
Section |  min time  |  avg time  |  max time  |%varavg| %total
---------------------------------------------------------------
Pair    | 27.047     | 35.885     | 46.187     | 124.1 | 29.24
Bond    | 35.4       | 44.594     | 62.539     | 163.0 | 36.33
Neigh   | 3.9076     | 3.9126     | 3.9181     |   0.2 |  3.19
Comm    | 8.3233     | 36.489     | 54.496     | 288.7 | 29.73
Output  | 0.010775   | 0.020579   | 0.055956   |  11.1 |  0.02
Modify  | 0.6639     | 0.82038    | 1.0163     |  15.0 |  0.67
Other   |            | 1.014      |            |       |  0.83

Nlocal:        836.833 ave        1083 max         656 min
Histogram: 2 1 0 0 0 1 0 1 0 1
Nghost:         5386.5 ave        5579 max        5070 min
Histogram: 1 0 0 0 0 2 0 1 1 1
Neighs:         162161 ave      221351 max      120501 min
Histogram: 2 0 1 0 0 1 1 0 0 1

Total # of neighbors = 972965
Ave neighs/atom = 193.77913
Ave special neighs/atom = 10.874726
Neighbor list builds = 715
Dangerous builds = 0
unfix Langevin
unfix moveLimit



fix 		relax all npt temp 300.0 300.0 100 iso 1.0 1.0 1000
run 10000
Generated 15 of 15 mixed pair_coeff terms from sixthpower/geometric mixing rule
Per MPI rank memory allocation (min/avg/max) = 33.49 | 33.59 | 33.94 Mbytes
   Step          Temp          PotEng         E_vdwl         E_coul         E_bond        E_angle        E_dihed        E_impro        Density         Volume    
     20051   304.11355      3298.2488     -1051.786      -496.0585       1694.6193      8932.6578     -5728.3875     -52.796367      0.44999999     105550.03    
     20100   298.89006      3514.4483     -1075.9122     -354.6516       1705.4949      8929.4719     -5635.4648     -54.489835      0.45011639     105522.74    
     20200   297.27806      3517.0628     -1034.5513     -299.10902      1697.2309      8966.2285     -5764.1028     -48.633487      0.45196289     105091.62    
     20300   295.52012      3291.7872     -1063.695      -420.51772      1573.972       9012.529      -5759.7581     -50.743062      0.4556708      104236.46    
     20400   297.40134      3191.6826     -1111.2473     -519.60523      1645.1612      8982.9539     -5756.0324     -49.547567      0.46012685     103227       
     20500   298.97739      3200.3366     -1086.8702     -519.59882      1660.4763      8913.5124     -5715.6631     -51.519955      0.46488615     102170.2     
     20600   304.02374      3247.0478     -1133.1604     -431.63449      1667.6238      8939.8387     -5745.9736     -49.646194      0.46851305     101379.27    
     20700   298.90793      3379.8575     -1145.7992     -332.88702      1623.6264      8876.7026     -5591.0866     -50.698764      0.47226333     100574.21    
     20800   298.3232       3261.6331     -1120.3509     -348.27257      1640.8411      8871.8764     -5727.2575     -55.203333      0.47630748     99720.274    
     20900   299.90292      3145.5938     -1154.4414     -421.43564      1616.7391      8850.2804     -5691.7477     -53.800952      0.47918075     99122.33     
     21000   299.12784      3392.3015     -1149.7061     -271.57949      1622.4399      8937.5197     -5698.191      -48.181413      0.48179615     98584.25     
     21100   301.35394      3325.2638     -1151.8468     -375.21355      1642.2472      8998.0759     -5737.8431     -50.155807      0.48524352     97883.868    
     21200   302.53253      3258.5776     -1154.5786     -383.61246      1585.865       8946.7697     -5683.1197     -52.746282      0.48854871     97221.652    
     21300   301.83124      3185.6615     -1176.3588     -447.29383      1638.9275      8947.8501     -5723.4692     -53.994307      0.49162828     96612.653    
     21400   299.95133      3240.6084     -1159.5913     -393.58776      1592.6108      8908.7003     -5659.4073     -48.116345      0.49388763     96170.687    
     21500   296.49534      3216.5545     -1155.3612     -440.28127      1679.0076      8891.7927     -5708.8726     -49.730715      0.49627762     95707.545    
     21600   298.33848      2936.1775     -1182.4244     -643.75273      1562.9666      8945.2339     -5691.5427     -54.30315       0.49883435     95217.006    
     21700   291.5466       3076.2935     -1144.8925     -517.36856      1623.7552      8952.7066     -5782.874      -55.033236      0.50194597     94626.743    
     21800   291.68743      3071.3894     -1185.6577     -500.27437      1587.361       8908.6006     -5684.2677     -54.372425      0.50500776     94053.036    
     21900   296.32329      3159.8225     -1214.2743     -485.5123       1674.4734      8880.0215     -5643.1609     -51.724858      0.50744901     93600.563    
     22000   298.41441      3230.7612     -1193.7259     -420.10778      1648.1178      8839.3289     -5590.0502     -52.801518      0.50972394     93182.817    
     22100   306.03967      3231.8276     -1198.9837     -307.80717      1616.4123      8847.3955     -5673.3645     -51.824979      0.51228484     92716.999    
     22200   299.18862      3194.8828     -1219.0565     -380.12828      1580.7714      8903.3212     -5635.8137     -54.211277      0.51515539     92200.361    
     22300   293.3267       3142.1481     -1189.5245     -431.23011      1573.4509      9020.1225     -5770.7011     -59.969461      0.51752956     91777.391    
     22400   295.11984      3080.2369     -1231.5298     -477.27997      1639.1363      8898.0532     -5696.8709     -51.271923      0.52013737     91317.248    
     22500   298.20969      3263.3273     -1215.8305     -364.44995      1631.0819      8938.8935     -5670.2817     -56.085906      0.52274262     90862.139    
     22600   303.9761       3320.2381     -1201.8233     -252.45596      1611.6855      9015.1354     -5800.5991     -51.704479      0.52492337     90484.66     
     22700   299.32431      3264.4726     -1259.8569     -335.40046      1704.0895      8910.3251     -5702.092      -52.592704      0.52660759     90195.268    
     22800   295.31072      3240.7599     -1227.225      -316.21563      1649.6978      8887.4316     -5700.4047     -52.524191      0.52836035     89896.058    
     22900   297.01127      3100.9283     -1199.2735     -422.82521      1616.7129      8930.8093     -5771.2232     -53.271896      0.53078583     89485.269    
     23000   298.78408      3165.6145     -1252.384      -394.82017      1653.079       8883.3905     -5671.753      -51.897836      0.53360753     89012.073    
     23100   305.8301       2974.0714     -1276.1693     -564.19614      1636.5975      8738.6075     -5506.846      -53.922152      0.53719071     88418.344    
     23200   300.43588      2844.6755     -1220.3981     -726.24584      1646.0718      8959.969      -5756.9398     -57.781561      0.541258       87753.922    
     23300   294.69871      2938.8746     -1274.2441     -565.95319      1532.5963      9013.1713     -5711.8824     -54.813181      0.5446395      87209.086    
     23400   294.66164      2991.8868     -1246.8537     -517.03173      1637.3716      8893.9261     -5724.5489     -50.976429      0.5479169      86687.439    
     23500   302.33407      2923.9937     -1262.1458     -530.61865      1585.1258      8914.2168     -5729.1288     -53.455637      0.55078264     86236.402    
     23600   300.86102      3101.4046     -1299.7731     -441.31746      1636.0125      8874.2645     -5615.4562     -52.325752      0.55284024     85915.44     
     23700   305.65093      2958.3885     -1279.8578     -559.89022      1620.0408      9005.6918     -5773.4166     -54.179533      0.55588478     85444.887    
     23800   304.0289       2972.9374     -1330.1718     -498.31878      1636.149       8857.9445     -5638.8558     -53.809751      0.55906102     84959.443    
     23900   302.60524      2828.2268     -1325.9715     -533.10768      1539.7332      8948.7886     -5748.5551     -52.660691      0.56357182     84279.431    
     24000   299.22683      3026.3595     -1287.5666     -387.62451      1592.5712      8859.985      -5697.1285     -53.877151      0.56816084     83598.709    
     24100   303.46293      2953.8796     -1307.0161     -450.86935      1557.9477      8911.1357     -5703.8425     -53.475915      0.57189413     83052.981    
     24200   304.70829      2923.7592     -1317.3609     -548.58922      1624.9722      8923.2919     -5704.9449     -53.609917      0.57474037     82641.685    
     24300   308.4977       2935.6259     -1311.4159     -492.31488      1651.7855      8860.9009     -5722.4864     -50.843353      0.57725575     82281.576    
     24400   297.23369      2890.5712     -1366.5731     -546.95253      1644.4614      8956.2438     -5740.4694     -56.139011      0.57900411     82033.118    
     24500   298.07145      2896.8207     -1333.1121     -489.77583      1585.74        8967.387      -5775.1772     -58.241149      0.58025374     81856.453    
     24600   294.71994      2976.9436     -1307.1083     -481.3801       1638.5353      8865.7465     -5686.0176     -52.832195      0.5824097      81553.436    
     24700   298.09709      2890.8609     -1327.1371     -619.90222      1631.2474      8896.7656     -5637.5761     -52.536721      0.5863993      80998.583    
     24800   305.95263      2971.4368     -1341.7362     -462.67008      1616.9558      8900.6543     -5689.5066     -52.260368      0.59189949     80245.909    
     24900   299.67227      3136.6577     -1356.7348     -331.7254       1677.6354      9008.1171     -5810.298      -50.336609      0.59666611     79604.845    
     25000   301.02546      2980.7409     -1362.183      -357.63478      1578.9717      8949.8836     -5772.5668     -55.729827      0.60029608     79123.477    
     25100   298.3019       2985.0134     -1386.0722     -394.27206      1604.1092      8861.5104     -5648.9388     -51.323249      0.60377978     78666.948    
     25200   294.01306      2832.8392     -1369.874      -616.12151      1657.7587      9055.0591     -5836.396      -57.586947      0.60799899     78121.038    
     25300   299.73665      2732.0207     -1412.9876     -634.31025      1637.1347      8910.161      -5715.9174     -52.059634      0.61223477     77580.554    
     25400   304.829        2859.167      -1392.4497     -421.44949      1580.9792      8951.1665     -5807.9998     -51.079734      0.61586522     77123.226    
     25500   302.64412      2821.4117     -1357.7252     -463.97498      1575.0483      8883.0885     -5763.9122     -51.112695      0.61904121     76727.546    
     25600   296.22848      2866.7867     -1434.92       -452.98431      1582.125       8945.9929     -5720.9431     -52.483706      0.62161373     76410.012    
     25700   295.48131      2785.5222     -1374.5794     -548.6381       1587.3123      8837.26       -5660.8806     -54.951966      0.62423488     76089.168    
     25800   302.49088      2816.6374     -1424.4309     -532.27409      1587.2868      8981.2471     -5739.5218     -55.669665      0.62552591     75932.126    
     25900   303.63772      2808.2475     -1413.8953     -555.21805      1600.2574      8920.02       -5690.8186     -52.097828      0.6281656      75613.043    
     26000   300.26203      2848.6771     -1421.6585     -524.13994      1622.6835      8967.9736     -5739.0903     -57.091387      0.631282       75239.77     
     26100   303.02325      2847.8863     -1431.6594     -414.74396      1587.8581      8857.8029     -5698.0231     -53.348247      0.63427962     74884.185    
     26200   295.4424       2841.8442     -1403.2452     -493.97152      1576.0577      8961.8652     -5747.9807     -50.881263      0.63688371     74577.999    
     26300   303.64355      2873.2759     -1440.0267     -371.04623      1588.248       8784.5126     -5635.1005     -53.311274      0.63874479     74360.704    
     26400   300.84972      2785.0765     -1415.3802     -499.73723      1607.7257      8873.8258     -5727.5863     -53.771189      0.64175879     74011.472    
     26500   294.45755      2825.8235     -1430.5355     -575.06217      1610.6719      8924.1254     -5651.1537     -52.222406      0.64525855     73610.048    
     26600   304.66519      2772.4615     -1436.8134     -573.06053      1637.5701      8853.5477     -5659.8462     -48.936213      0.64876564     73212.128    
     26700   308.77801      2670.2094     -1447.9216     -637.55572      1577.4614      8973.9079     -5740.5941     -55.088455      0.6528543      72753.619    
     26800   302.96077      2791.2231     -1422.1794     -503.89361      1594.9959      8921.4271     -5746.5284     -52.598482      0.65618583     72384.241    
     26900   302.7051       2535.9866     -1426.3968     -718.27211      1596.6016      8916.4465     -5782.0186     -50.373985      0.65767873     72219.931    
     27000   301.42381      2617.4759     -1434.1013     -603.62501      1560.2401      8947.3516     -5796.8062     -55.583308      0.65796357     72188.667    
     27100   301.3239       2667.0392     -1467.7367     -534.20772      1563.6647      8778.3818     -5621.7488     -51.314078      0.65829102     72152.758    
     27200   304.63164      2641.9431     -1451.9868     -575.85244      1598.1728      8841.3542     -5719.3225     -50.422135      0.66097797     71859.449    
     27300   304.12218      2808.5606     -1458.9012     -521.72626      1609.583       8943.6246     -5713.6542     -50.365273      0.66455658     71472.489    
     27400   299.10236      2815.3802     -1458.0023     -559.12814      1684.2579      8890.2781     -5691.2543     -50.771043      0.66902079     70995.571    
     27500   299.69369      2665.3595     -1467.2111     -583.14357      1601.6671      8925.0012     -5758.5581     -52.39603       0.67338304     70535.653    
     27600   297.23871      2711.8924     -1448.3953     -559.85243      1567.3301      8852.3983     -5649.2291     -50.359142      0.67703665     70155.01     
     27700   295.12741      2832.4075     -1469.1277     -504.41398      1656.5144      8842.2977     -5639.1143     -53.748618      0.68001503     69847.739    
     27800   303.7964       2784.2378     -1457.5844     -449.84886      1594.4703      8922.8538     -5773.96       -51.693072      0.68316453     69525.73     
     27900   297.55135      2781.2477     -1520.2825     -446.78029      1584.8066      8898.6138     -5682.9088     -52.201077      0.68588452     69250.014    
     28000   295.49328      2600.6389     -1499.9679     -561.3397       1550.6264      8934.3506     -5775.8452     -47.185269      0.68887357     68949.536    
     28100   297.34149      2634.6074     -1522.1509     -543.22179      1530.1775      8989.6457     -5768.401      -51.44204       0.69225611     68612.63     
     28200   298.64549      2638.8119     -1519.1828     -596.55666      1588.2766      8872.059      -5652.0978     -53.686504      0.69499755     68341.986    
     28300   302.66799      2481.5713     -1522.3283     -741.56825      1580.2472      8871.4283     -5652.886      -53.321726      0.69602179     68241.417    
     28400   302.11748      2604.4009     -1513.5462     -618.34278      1607.1543      8917.0687     -5740.824      -47.109237      0.6968202      68163.226    
     28500   300.10422      2632.0642     -1513.0443     -558.39362      1559.7541      8896.3673     -5701.3364     -51.282883      0.69915924     67935.186    
     28600   298.05017      2508.6266     -1536.7743     -588.76176      1581.1321      8866.8432     -5763.2445     -50.568107      0.70230214     67631.166    
     28700   293.92407      2526.0126     -1535.7781     -586.46814      1514.2112      8853.4354     -5665.5749     -53.812924      0.70548999     67325.566    
     28800   303.93034      2390.3449     -1543.8173     -690.67874      1504.8927      8924.2972     -5753.6594     -50.689443      0.70839693     67049.292    
     28900   301.99976      2469.2358     -1542.9445     -675.43965      1559.5034      9005.4274     -5828.0983     -49.212609      0.71004246     66893.905    
     29000   299.98814      2620.6002     -1532.2818     -568.0658       1518.8038      8998.3859     -5742.7655     -53.476424      0.7109592      66807.649    
     29100   297.83448      2795.9444     -1556.9583     -468.79505      1596.6792      8950.8196     -5672.6581     -53.142822      0.71253021     66660.35     
     29200   303.08212      2484.4926     -1538.4102     -726.99346      1596.5183      8923.8174     -5715.9499     -54.489601      0.71397895     66525.088    
     29300   298.766        2581.8127     -1540.3081     -628.54164      1575.1217      8901.1376     -5672.7902     -52.806787      0.71557971     66376.271    
     29400   297.0942       2529.8034     -1551.2534     -608.11159      1580.573       8989.4886     -5829.6958     -51.197445      0.71679813     66263.444    
     29500   294.28855      2551.0767     -1537.6362     -608.10793      1569.9654      8896.3202     -5719.0468     -50.417936      0.71784547     66166.765    
     29600   297.44478      2676.8718     -1550.842      -525.42309      1590.773       8906.9028     -5689.0931     -55.445852      0.71919944     66042.199    
     29700   299.52497      2677.5379     -1542.174      -545.70198      1573.1482      8981.5353     -5735.4192     -53.850406      0.72157055     65825.182    
     29800   298.52902      2712.9238     -1595.1908     -533.0713       1610.4373      8991.6176     -5709.6735     -51.195495      0.72431054     65576.172    
     29900   301.83254      2563.3155     -1590.8006     -574.87057      1593.7738      8849.0618     -5662.6486     -51.200383      0.7269071      65341.93     
     30000   298.35274      2513.3885     -1591.9012     -582.14836      1543.6741      8889.0225     -5692.5692     -52.689331      0.73134091     64945.789    
     30051   294.95232      2514.3733     -1580.2918     -607.66755      1565.3421      8984.8453     -5793.5605     -54.294192      0.73412227     64699.73     
Loop time of 68.5119 on 6 procs for 10000 steps with 5021 atoms

Performance: 12.611 ns/day, 1.903 hours/ns, 145.960 timesteps/s, 732.866 katom-step/s
99.1% CPU use with 6 MPI tasks x no OpenMP threads

MPI task timing breakdown:
Section |  min time  |  avg time  |  max time  |%varavg| %total
---------------------------------------------------------------
Pair    | 18.971     | 23.894     | 29.497     |  80.5 | 34.88
Bond    | 16.594     | 23.791     | 31.758     | 109.9 | 34.72
Neigh   | 2.5026     | 2.5068     | 2.5112     |   0.2 |  3.66
Comm    | 3.7953     | 17.327     | 26.264     | 193.6 | 25.29
Output  | 0.0036639  | 0.0074762  | 0.026406   |   9.8 |  0.01
Modify  | 0.63977    | 0.6703     | 0.71971    |   3.4 |  0.98
Other   |            | 0.3158     |            |       |  0.46

Nlocal:        836.833 ave         937 max         684 min
Histogram: 1 1 0 0 0 0 1 0 0 3
Nghost:         7196.5 ave        7296 max        7048 min
Histogram: 1 0 0 0 1 0 2 0 0 2
Neighs:         241046 ave      284525 max      197866 min
Histogram: 1 2 0 0 0 0 0 1 0 2

Total # of neighbors = 1446279
Ave neighs/atom = 288.04601
Ave special neighs/atom = 10.874726
Neighbor list builds = 388
Dangerous builds = 0
unfix relax


molecule 	pre cleaned_pre-mol
Read molecule template pre:
  1 molecules
  0 fragments
  42 atoms with max type 5
  41 bonds with max type 4
  76 angles with max type 11
  105 dihedrals with max type 12
  48 impropers with max type 11
molecule	post cleaned_post-mol
Read molecule template post:
  1 molecules
  0 fragments
  42 atoms with max type 5
  41 bonds with max type 4
  76 angles with max type 11
  105 dihedrals with max type 12
  48 impropers with max type 11

fix		fxrct all bond/react stabilization yes statted_grp .03 		 react rxn1 all 100 0.0 10.0 pre post semi.map stabilize_steps 1000 molecule inter
dynamic group bond_react_MASTER_group defined
dynamic group statted_grp_REACT defined
fix 		1 statted_grp_REACT npt temp 300.0 300.0 100 iso 1.0 1.0 1000

fix 		4 bond_react_MASTER_group temp/rescale 1 300.0 300.0 1 1



thermo_style custom step temp pe evdwl ecoul ebond eangle edihed eimp density vol f_fxrct[1]
thermo          100


compute 1 all property/local btype batom1 batom2

compute 2 all stress/atom NULL
fix 5 all ave/atom 1 500 1000 c_2[*]


dump DumpPos all custom 1000 dump.pos id type x y z mol  f_5[*]
dump DumpBond all local 1000 bonds.dump index c_1[*]


run 200000

CITE-CITE-CITE-CITE-CITE-CITE-CITE-CITE-CITE-CITE-CITE-CITE-CITE

Your simulation uses code contributions which should be cited:

- fix bond/react: reacter.org doi:10.1016/j.polymer.2017.09.038, doi:10.1021/acs.macromol.0c02012

@Article{Gissinger17,
 author = {J. R. Gissinger and B. D. Jensen and K. E. Wise},
 title = {Modeling Chemical Reactions in Classical Molecular Dynamics Simulations},
 journal = {Polymer},
 year =    2017,
 volume =  128,
 pages =   {211--217}
}

@Article{Gissinger20,
 author = {J. R. Gissinger, B. D. Jensen, K. E. Wise},
 title = {{REACTER}: A Heuristic Method for Reactive Molecular Dynamics},
 journal = {Macromolecules},
 year =    2020,
 volume =  53,
 number =  22,
 pages =   {9953--9961}
}

CITE-CITE-CITE-CITE-CITE-CITE-CITE-CITE-CITE-CITE-CITE-CITE-CITE

Generated 15 of 15 mixed pair_coeff terms from sixthpower/geometric mixing rule
Neighbor list info ...
  update: every = 1 steps, delay = 0 steps, check = yes
  max neighbors/atom: 2000, page size: 100000
  master list distance cutoff = 12
  ghost atom cutoff = 12
  binsize = 6, bins = 7 7 7
  2 neighbor lists, perpetual/occasional/extra = 1 1 0
  (1) pair lj/class2/coul/cut, perpetual
      attributes: half, newton on
      pair build: half/bin/newton
      stencil: half/bin/3d
      bin: standard
  (2) fix bond/react, occasional, copy from (1)
      attributes: half, newton on
      pair build: copy
      stencil: none
      bin: none
Per MPI rank memory allocation (min/avg/max) = 40.84 | 41.03 | 41.13 Mbytes
   Step          Temp          PotEng         E_vdwl         E_coul         E_bond        E_angle        E_dihed        E_impro        Density         Volume       f_fxrct[1]  
     30051   294.95232      2514.3733     -1580.2918     -607.66755      1565.3421      8984.8453     -5793.5605     -54.294192      0.73412227     64699.73       0            
     30100   289.40948      572638.35      8393.5038     -550.11847      561912.45      8535.4402     -5601.8279     -51.102126      0.73431522     64682.729      5            
     30200   309.70248      525334.54      10234.528     -377.50842      512090.6       8970.8784     -5539.689      -44.262662      0.80976733     58655.754      10           
     30300   328.43177      871629.76      2386.6586     -494.19851      866343.58      8896.8401     -5453.385      -49.742022      0.87380991     54356.802      12           
     30400   354.26807      3665.4274     -1143.4307     -437.45688      1435.1322      9263.6188     -5398.4987     -53.937199      0.97871788     48530.341      12           
     30500   340.97217      374478.64      3196.5018     -554.82433      368715.51      8305.3431     -5140.2748     -43.609657      0.96478025     49231.432      14           
     30600   344.85476      288991.8       8176.1603     -628.4162       278105.42      8756.4252     -5374.9712     -42.813632      1.0215305      46496.422      18           
     30700   334.11488      48395.149      1021.1319     -602.40357      44608.582      8656.5758     -5243.0734     -45.663234      1.0612633      44755.635      19           
     30800   321.40082      2277.5054     -1345.4514     -678.13773      1173.1188      8354.0389     -5176.4539     -49.609224      1.0560709      44975.686      19           
     30900   309.78897      57765.192      1147.6086     -522.4531       54045.633      8366.0001     -5227.5321     -44.065407      1.0373904      45785.574      20           
     31000   308.62111      456904.87      7152.2573     -587.1767       447470.51      7897.2049     -4988.4757     -39.452696      1.0440003      45495.691      24           
     31100   322.22835      147812.17      1651.7126     -612.76749      143500.18      8455.8451     -5138.8881     -43.911055      1.107754       42877.311      25           
     31200   308.71773      107055.93      4507.4007     -556.69147      99740.098      8532.3943     -5124.1213     -43.154224      1.1333267      41909.814      27           
     31300   301.13907      257967.02      6003.8737     -508.39262      249602.46      8053.9393     -5146.0488     -38.813765      1.1423192      41579.897      30           
     31400   305.83153      155070.46      1719.0062     -395.39743      150696.23      8085.8566     -4995.9189     -39.323082      1.1809205      40220.755      31           
     31500   301.25355      2763.4568     -890.80408     -444.38225      996.37847      8039.6386     -4898.0403     -39.333607      1.2034411      39468.083      31           
     31600   292.96959      41019.01       2928.0516     -351.60699      35422.751      7916.9535     -4858.8307     -38.308535      1.1716188      40540.073      33           
     31700   291.44768      1946.3443     -1300.9336     -631.61923      984.97683      7843.5816     -4913.113      -36.548354      1.1543624      41146.102      33           
     31800   300.12721      1890.2844     -1445.2177     -590.18542      1016.633       7736.7786     -4788.9556     -38.768527      1.1270226      42144.242      33           
     31900   303.55471      1772.3612     -1531.2123     -738.00925      1071.1902      7688.4882     -4679.8221     -38.273729      1.1037733      43031.944      33           
     32000   303.25021      203849.23      1015.5274     -589.17257      200557.47      7852.8711     -4951.2534     -36.206566      1.0836078      43832.753      34           
     32100   308.18219      210701.5       3569.662      -472.75228      204254.89      8159.7861     -4774.3371     -35.755307      1.1276722      42119.966      36           
     32200   305.61724      99967.976      2992.1287     -639.47401      94505.284      7908.7801     -4764.3497     -34.392919      1.1651941      40763.606      38           
     32300   298.59067      63085.11       1473.4714     -773.86531      59361.996      7946.1624     -4884.6185     -38.036059      1.1716536      40538.869      39           
     32400   292.13623      1741.0931     -1323.4009     -868.27659      1049.9443      7730.995      -4813.5713     -34.597424      1.1681572      40660.208      39           
     32500   291.64059      142096.5       1494.872      -674.27369      138440.89      7614.5621     -4745.854      -33.69642       1.141293       41617.282      40           
     32600   311.60387      2346.8464     -1317.3802     -444.01285      1082.787       7777.5914     -4713.6278     -38.511193      1.1710684      40559.128      40           
     32700   302.43449      1858.341      -1439.4671     -770.18991      1108.4524      7742.7744     -4744.6574     -38.5713        1.1480405      41372.682      40           
     32800   300.86725      74669.208      830.25446     -815.17098      71832.86       7653.7143     -4799.2013     -33.248082      1.1248115      42227.088      41           
     32900   298.95328      60650.081      1345.732      -794.7934       57173.716      7798.2349     -4837.1621     -35.645868      1.1345671      41863.997      42           
     33000   299.61392      1510.4762     -1498.0991     -909.85194      1084.1638      7800.4654     -4929.021      -37.180903      1.1376637      41750.048      42           
     33100   299.77799      152396.68      451.52038     -740.41783      150002.11      7400.5101     -4680.0125     -37.020894      1.1148322      42605.079      43           
     33200   302.16088      70794.349      187.46163     -675.42346      68399.17       7577.6621     -4660.5102     -34.011727      1.1511331      41261.531      44           
     33300   297.65699      1669.3546     -1424.019      -794.32907      1169.3161      7491.5567     -4737.6493     -35.520823      1.1551154      41119.278      44           
     33400   295.2515       54384.969      253.98439     -677.72355      52087.253      7407.7416     -4650.2581     -36.028108      1.1323441      41946.182      45           
     33500   297.80889      209204.87      2677.6941     -777.67939      204537.48      7495.8143     -4688.954      -39.482298      1.1334322      41905.914      47           
     33600   311.79197      1813.6012     -1347.5326     -687.96371      1153.6703      7501.6693     -4771.3834     -34.858602      1.1762083      40381.888      47           
     33700   301.86165      103156.59      732.26225     -671.73962      100503.74      7410.9195     -4785.3225     -33.271883      1.154441       41143.302      48           
     33800   302.91199      1563.1803     -1472.8979     -684.03607      1136.0243      7292.2704     -4674.9149     -33.26535       1.1707582      40569.876      48           
     33900   294.448        1270.3481     -1518.4744     -858.2702       1122.8159      7361.3684     -4803.9443     -33.147292      1.1473413      41397.893      48           
     34000   291.15046      1221.7657     -1630.6618     -894.23287      1184.5113      7442.5866     -4844.771      -35.66661       1.1254395      42203.524      48           
     34100   303.39285      1126.4637     -1684.8354     -866.80021      1169.7897      7253.1022     -4711.3729     -33.419633      1.1063987      42929.833      48           
     34200   298.6414       173776.29      307.5222      -827.16449      171722.39      7296.1404     -4688.9664     -33.633949      1.0888943      43619.949      49           
     34300   308.66767      1623.8407     -1628.8596     -648.93688      1278.2081      7427.0838     -4767.9594     -35.695325      1.1301991      42025.791      49           
     34400   300.88939      1566.816      -1674.0017     -576.5716       1278.2288      7317.5534     -4742.9756     -35.417251      1.1156419      42574.156      49           
     34500   301.15575      1068.8525     -1766.837      -858.50063      1259.9044      7146.0846     -4675.6428     -36.156156      1.1000903      43176.012      49           
     34600   285.74074      1394.2668     -1754.3165     -646.31042      1302.2065      7316.6429     -4788.4588     -35.49691       1.0849586      43778.179      49           
     34700   295.30334      107574.08      3530.4438     -628.44805      102128.95      7237.8339     -4656.8188     -37.874129      1.0715069      44327.771      51           
     34800   301.81632      1385.2113     -1788.2061     -740.08226      1245.8579      7218.1983     -4515.7095     -34.847029      1.0992784      43207.902      51           
     34900   305.77584      90232.871      1112.4582     -738.05535      87401.257      7027.2663     -4533.9297     -36.124796      1.0868787      43700.842      52           
     35000   300.71865      1376.1439     -1768.1835     -744.05409      1259.1803      7267.7678     -4604.1788     -34.387739      1.1087528      42838.687      52           
     35100   301.21721      331371.81      3533.8569     -769.79902      326013.13      7340.9069     -4708.0024     -38.280409      1.0953281      43363.729      54           
     35200   307.32851      1768.22       -1587.9315     -717.30568      1296.5707      7534.0187     -4716.8267     -40.305539      1.1505009      41284.202      54           
     35300   296.49652      1319.8174     -1655.1297     -795.63433      1294.8695      7158.6001     -4644.9433     -37.944953      1.1351729      41841.653      54           
     35400   292.49321      995.08075     -1752.9968     -969.53979      1264.9636      7041.4799     -4555.3507     -33.475407      1.1182188      42476.045      54           
     35500   294.56168      1042.4523     -1761.3275     -901.4095       1273.4016      7108.9072     -4641.9778     -35.141637      1.1025574      43079.401      54           
     35600   297.31163      1221.0359     -1737.7988     -755.97814      1291.2674      7054.8987     -4596.0249     -35.328396      1.0870671      43693.266      54           
     35700   304.55711      1028.6654     -1761.0847     -923.32311      1316.2321      7153.0588     -4721.3242     -34.893595      1.0734676      44246.805      54           
     35800   301.90357      982.45437     -1780.3949     -941.0755       1329.136       7050.6743     -4642.7899     -33.095658      1.0604112      44791.599      54           
     35900   302.31889      1116.2264     -1823.8354     -717.93803      1331.5612      7059.3246     -4694.9987     -37.887178      1.0489937      45279.121      54           
     36000   291.86858      1180.3387     -1821.1703     -735.37124      1386.6825      6998.9131     -4615.0979     -33.617432      1.0381666      45751.338      54           
     36100   294.57653      1041.7528     -1818.1282     -835.06909      1348.7198      6985.1902     -4602.9197     -36.040126      1.0288608      46165.152      54           
     36200   298.84607      1340.358      -1827.5354     -583.8164       1371.6099      7122.7998     -4706.2475     -36.452435      1.0208072      46529.365      54           
     36300   304.13074      101765.89      24.024056     -650.38588      100163.22      6903.5375     -4638.161      -36.351168      1.0138758      46847.466      55           
     36400   303.75031      133533.6       486.93695     -616.76239      131259.31      7123.0299     -4684.9315     -33.987324      1.0488348      45285.979      56           
     36500   307.81373      1249.3378     -1719.7686     -718.58942      1332.7248      7107.6593     -4719.7113     -32.977083      1.0808322      43945.316      56           
     36600   304.08803      1147.2494     -1800.316      -686.84146      1356.0802      7050.492      -4732.868      -39.297242      1.0720567      44305.037      56           
     36700   292.62175      1185.0937     -1803.7348     -716.23778      1417.7741      6981.6813     -4659.2079     -35.181198      1.0621179      44719.622      56           
     36800   297.51503      50487.855     -146.01672     -635.94052      48897.493      7035.3301     -4625.936      -37.074556      1.0522011      45141.096      57           
     36900   308.53334      25312.878      214.47332     -732.47253      23522.894      7082.9555     -4736.7214     -38.25159       1.0644033      44623.605      58           
     37000   299.66695      926.35462     -1784.4663     -969.10172      1378.4588      7023.5697     -4687.7763     -34.329492      1.064481       44620.347      58           
     37100   297.98504      1055.1061     -1800.2463     -764.24493      1374.916       7017.1214     -4736.0833     -36.356764      1.0533569      45091.567      58           
     37200   297.90173      1043.399      -1862.0455     -759.48538      1386.2286      6897.9847     -4588.4549     -30.82855       1.0424017      45565.461      58           
     37300   299.45448      1002.6888     -1799.1693     -837.41475      1417.6957      7025.5012     -4770.4249     -33.49909       1.0333055      45966.575      58           
     37400   304.35263      1223.7554     -1816.0825     -619.2363       1434.4304      6932.6121     -4672.2176     -35.750654      1.024149       46377.542      58           
     37500   303.75687      1118.9947     -1809.4102     -726.2466       1459.8341      7020.0343     -4790.4028     -34.814106      1.0164863      46727.153      58           
     37600   296.42759      927.93697     -1846.0232     -857.34416      1466.5561      6761.6901     -4564.3768     -32.565056      1.0089805      47074.756      58           
     37700   291.50352      82499.498      677.91114     -736.62052      80342.999      6825.8424     -4574.48       -36.154044      1.0029936      47355.75       59           
     37800   301.73537      1194.2031     -1834.4574     -612.91559      1370.7509      6988.402      -4683.3845     -34.192185      1.0331087      45975.33       59           
     37900   300.18407      1113.1058     -1805.5603     -603.9115       1377.4033      6794.0805     -4613.1014     -35.804871      1.0280631      46200.969      59           
     38000   290.94901      1028.2029     -1798.4901     -740.39379      1388.2921      6786.6227     -4570.0578     -37.770155      1.0215878      46493.815      59           
     38100   300.22079      1008.3006     -1827.8024     -701.55849      1447.4226      6769.1448     -4642.062      -36.843886      1.0148706      46801.546      59           
     38200   297.54394      1029.9179     -1817.0973     -770.73126      1450.9303      6808.1709     -4606.7006     -34.654157      1.0084087      47101.452      59           
     38300   299.76653      980.40756     -1824.1097     -812.20501      1378.9794      6882.1375     -4604.0224     -40.372382      1.0021319      47396.47       59           
     38400   305.28469      938.42456     -1850.0808     -815.62569      1377.4461      6892.5082     -4630.2538     -35.569451      0.99702756     47639.117      59           
     38500   304.43416      114878.98      335.86439     -931.60824      113276.61      6919.5386     -4684.2561     -37.166642      0.99245777     47858.472      60           
     38600   303.56108      1014.5339     -1827.141      -784.96082      1451.1377      6980.2308     -4770.6661     -34.066633      1.0285985      46176.924      60           
     38700   303.25759      245010.64     -371.37064     -519.30935      243977.51      6599.3012     -4640.9563     -34.534468      1.0248776      46344.572      61           
     38800   313.20107      1304.448      -1798.8293     -495.62282      1402.4167      6877.8556     -4644.8639     -36.508281      1.0781596      44054.249      61           
     38900   303.32738      860.87692     -1781.0254     -874.07514      1397.7644      6758.9508     -4606.1038     -34.633929      1.0702295      44380.681      61           
     39000   299.52207      800.30892     -1812.5218     -886.33199      1368.8046      6813.9908     -4647.8529     -35.779792      1.0600768      44805.727      61           
     39100   298.21171      782.55026     -1819.9544     -874.73387      1375.0833      6640.8438     -4504.8852     -33.803315      1.0510627      45189.991      61           
     39200   300.12497      926.9666      -1888.6885     -680.72361      1368.3328      6780.1187     -4616.0451     -36.027836      1.0419861      45583.633      61           
     39300   302.13216      1176.8355     -1869.2093     -521.27167      1426.5314      6776.3743     -4600.36       -35.229074      1.0334584      45959.772      61           
     39400   303.70033      915.72538     -1838.0585     -780.93081      1445.8998      6715.7987     -4592.6448     -34.339054      1.0252484      46327.808      61           
     39500   297.75497      1005.5878     -1823.7329     -737.33739      1477.0536      6853.5337     -4731.0678     -32.861405      1.0181835      46649.266      61           
     39600   294.39726      69358.501      406.82013     -962.91511      67871.067      6740.6598     -4660.5164     -36.614503      1.0117497      46945.912      62           
     39700   298.85287      942.66845     -1792.1567     -866.36883      1424.7994      6771.095      -4559.4039     -35.296571      1.0364822      45825.691      62           
     39800   299.92498      756.66754     -1761.8225     -902.84051      1425.9328      6697.3831     -4666.2319     -35.753327      1.0301019      46109.528      62           
     39900   297.43438      131446.41     -155.32269     -929.86801      130443.13      6746.0289     -4619.3203     -38.233535      1.0217022      46488.61       63           
     40000   306.26135      36980.679      115.25229     -875.22059      35537.377      6836.9767     -4600.2338     -33.471651      1.0596672      44823.048      64           
     40100   300.70523      1059.7862     -1782.2965     -657.28401      1402.4413      6786.4555     -4652.098      -37.432236      1.0623802      44708.584      64           
     40200   300.35873      955.72081     -1791.1374     -700.46165      1376.1192      6679.2214     -4571.9578     -36.062856      1.0531925      45098.606      64           
     40300   291.61931      185652.94      2984.2827     -905.7373       181583.01      6645.1942     -4622.303      -31.502483      1.0440048      45495.492      66           
     40400   306.07665      980.71705     -1781.3664     -828.13741      1381.2897      6843.8847     -4599.7525     -35.201095      1.0887384      43626.195      66           
     40500   305.69909      1125.2926     -1734.3247     -573.23728      1359.5805      6595.6125     -4489.3925     -32.946008      1.0795658      43996.869      66           
     40600   302.1767       613.86696     -1771.9437     -1018.1519      1364.3481      6639.978      -4565.1613     -35.202268      1.068395       44456.883      66           
     40700   301.42932      715.14165     -1812.9992     -869.21116      1364.056       6598.7801     -4534.1533     -31.330656      1.0576693      44907.715      66           
     40800   300.06202      817.44395     -1800.2441     -731.52928      1347.068       6708.985      -4671.7879     -35.047771      1.0471368      45359.414      66           
     40900   300.50874      642.40509     -1851.7298     -886.60259      1401.1032      6600.8437     -4588.4127     -32.796704      1.0382029      45749.741      66           
     41000   299.22682      83381.881     -423.64692     -990.88829      82724.531      6653.2028     -4548.5037     -32.814344      1.0306059      46086.978      67           
     41100   304.99152      95960.632      687.52483     -583.13643      93798.799      6604.3359     -4517.4612     -29.431069      1.0592045      44842.628      68           
     41200   310.28505      1095.3812     -1773.0407     -564.04481      1447.5561      6545.7023     -4529.5392     -31.252553      1.083914       43820.372      68           
     41300   303.17349      860.33516     -1767.9377     -805.78283      1387.6775      6491.7077     -4412.4972     -32.832336      1.0748482      44189.973      68           
     41400   295.81099      668.41084     -1825.3418     -952.34807      1445.557       6600.106      -4567.3912     -32.171068      1.0650825      44595.148      68           
     41500   297.71887      811.99689     -1797.3667     -734.53408      1381.1835      6512.3387     -4519.9863     -29.638166      1.0555831      44996.467      68           
     41600   297.64052      621335.68      541.11047     -781.95185      619560.12      6581.2331     -4531.7155     -33.124009      1.0462226      45399.049      69           
     41700   316.78744      1370.902      -1655.2803     -706.21427      1440.0468      6809.3081     -4480.0467     -36.911561      1.1360434      41809.594      69           
     41800   312.44153      774.70298     -1662.9742     -979.68619      1337.5481      6585.3228     -4463.9058     -41.601674      1.1240508      42255.662      69           
     41900   302.81942      903.6755      -1717.9266     -703.39033      1378.9423      6507.8764     -4529.6219     -32.204359      1.1103         42778.988      69           
     42000   294.83945      689.92851     -1760.1338     -864.59679      1346.4197      6566.6862     -4567.6992     -30.747538      1.0965192      43316.628      69           
     42100   294.5011       600.20566     -1829.342      -867.9243       1319.6714      6667.4175     -4657.9836     -31.633279      1.0840742      43813.896      69           
     42200   296.77905      841.86718     -1835.5824     -621.86198      1347.6808      6512.9705     -4525.7114     -35.628309      1.0719701      44308.618      69           
     42300   305.82288      618.33016     -1885.8876     -806.96038      1389.8737      6504.1595     -4546.7958     -36.05927       1.0607968      44775.318      69           
     42400   300.47657      766.2779      -1831.8583     -779.45704      1408.2622      6571.6954     -4567.0053     -35.358932      1.0504178      45217.735      69           
     42500   302.22282      168811.59     -577.69393     -942.90233      168318.18      6441.3167     -4392.83       -34.482908      1.0409772      45627.813      70           
     42600   307.1223       834.31508     -1770.8935     -886.73699      1424.6682      6554.2898     -4453.9777     -33.034836      1.0864171      43719.407      70           
     42700   300.98025      607.72677     -1828.2166     -925.00731      1367.3294      6515.1696     -4489.95       -31.598382      1.0797199      43990.588      70           
     42800   299.85929      708.81952     -1837.8787     -719.16146      1342.4201      6502.0709     -4549.945      -28.68639       1.0703007      44377.729      70           
     42900   299.90879      481.59813     -1883.7774     -910.1887       1380.166       6486.8453     -4559.0924     -32.354564      1.0606341      44782.187      70           
     43000   295.01072      566.2746      -1849.9565     -946.99383      1444.8844      6345.0092     -4395.6089     -31.059716      1.0522349      45139.646      70           
     43100   297.30393      625.8262      -1822.1351     -962.93557      1471.0375      6549.5608     -4574.79       -34.911467      1.0438283      45503.184      70           
     43200   298.73806      766.6036      -1895.007      -809.1631       1449.0892      6475.5482     -4422.2787     -31.585028      1.0363913      45829.709      70           
     43300   299.33845      522.98406     -1861.1882     -1007.0585      1410.8903      6517.4022     -4503.1749     -33.886831      1.0294875      46137.048      70           
     43400   302.0343       514.42656     -1888.1269     -934.39262      1453.2752      6414.253      -4498.6062     -31.975827      1.0232373      46418.862      70           
     43500   297.278        38298.935     -303.12289     -922.68069      37615.067      6458.2663     -4516.817      -31.777266      1.0176886      46671.949      71           
     43600   293.00227      637.33183     -1814.309      -835.10642      1409.707       6402.6286     -4493.961      -31.627427      1.0323222      46010.356      71           
     43700   298.28649      433.95973     -1813.7858     -1046.56        1413.0861      6544.3678     -4626.7314     -36.416844      1.0265279      46270.065      71           
     43800   297.48232      763.73945     -1758.9675     -774.43788      1439.8092      6355.751      -4465.995      -32.420454      1.0202771      46553.544      71           
     43900   300.57977      775.87391     -1788.7417     -799.30644      1465.4479      6455.4835     -4526.6172     -30.392192      1.012811       46896.72       71           
     44000   304.4095       638.78568     -1789.4834     -869.10354      1435.4461      6412.8331     -4517.011      -33.895542      1.0067477      47179.164      71           
     44100   293.85751      753.39881     -1796.941      -869.52214      1505.4878      6509.3723     -4558.9967     -36.001401      1.0013939      47431.399      71           
     44200   295.98175      556.34841     -1830.3435     -906.01252      1464.7228      6382.9994     -4519.0163     -36.001619      0.9963971      47669.26       71           
     44300   293.66026      734.20128     -1810.3269     -747.19279      1435.3581      6488.1726     -4601.0131     -30.796604      0.99285577     47839.287      71           
     44400   302.1905       692.45013     -1817.931      -791.46251      1424.1676      6397.4882     -4488.0803     -31.731905      0.98842128     48053.915      71           
     44500   298.46502      771.66998     -1755.6843     -843.80014      1461.2608      6437.1436     -4492.5611     -34.688978      0.98573637     48184.803      71           
     44600   303.20302      705.38549     -1775.0718     -813.68611      1491.751       6372.994      -4535.6954     -34.90619       0.98267038     48335.142      71           
     44700   294.23139      736.98884     -1819.6388     -888.00352      1510.1028      6418.4004     -4452.2223     -31.649689      0.97913584     48509.625      71           
     44800   300.1451       773.52167     -1775.4957     -819.26649      1503.215       6415.2799     -4519.9227     -30.288366      0.97517211     48706.8        71           
     44900   304.68972      667.99076     -1788.193      -927.36913      1528.661       6521.4655     -4631.4104     -35.163256      0.97202659     48864.417      71           
     45000   302.72206      922.66883     -1786.0289     -632.50021      1469.0813      6459.1006     -4551.809      -35.175053      0.96988652     48972.237      71           
     45100   298.8187       519.00518     -1793.6091     -1003.294       1503.2588      6390.56       -4546.2555     -31.655161      0.96819446     49057.823      71           
     45200   295.20571      516.96742     -1768.6392     -1028.8814      1533.6182      6372.4232     -4560.7904     -30.762859      0.96517758     49211.165      71           
     45300   296.0651       922.10514     -1763.341      -639.50793      1504.8841      6455.7074     -4602.483      -33.154404      0.9624405      49351.116      71           
     45400   292.907        883.33131     -1790.0768     -779.12469      1556.1699      6532.8796     -4605.3309     -31.18568       0.96131225     49409.037      71           
     45500   302.39217      619.91545     -1759.846      -919.07523      1491.0541      6371.5275     -4531.1512     -32.593754      0.96123372     49413.074      71           
     45600   299.66974      683.73072     -1768.8439     -874.38707      1507.6891      6430.4032     -4577.3842     -33.746279      0.95967669     49493.244      71           
     45700   301.61503      784.69764     -1816.2616     -719.21456      1512.5277      6367.2601     -4528.0701     -31.543846      0.95902071     49527.098      71           
     45800   302.1975       695.60677     -1800.4864     -779.99105      1497.3375      6400.5995     -4587.124      -34.728675      0.95929105     49513.141      71           
     45900   301.47687      674.48549     -1797.9996     -789.42211      1526.2714      6287.1606     -4517.0498     -34.474965      0.95914768     49520.542      71           
     46000   302.11443      504.11947     -1808.5954     -984.19903      1507.1722      6423.8812     -4601.5718     -32.567638      0.95810291     49574.542      71           
     46100   304.5436       166195.24      348.0224      -798.93188      164940.47      6270.4707     -4534.7314     -30.053682      0.95766984     49596.96       72           
     46200   309.11951      1061.1582     -1854.2494     -573.4339       1516.4098      6610.6371     -4608.1354     -30.070019      1.0035073      47331.508      72           
     46300   307.51369      484.74663     -1814.0598     -972.77929      1498.1486      6405.2016     -4595.2344     -36.530049      1.0011473      47443.079      72           
     46400   297.31975      754.56144     -1802.1186     -742.98327      1535.9672      6365.1381     -4566.3587     -35.083182      0.99863461     47562.454      72           
     46500   297.79259      602.42897     -1835.7968     -821.01122      1472.5834      6329.1625     -4510.6639     -31.845058      0.99514013     47729.472      72           
     46600   297.65863      635.65035     -1811.8492     -816.81133      1507.6039      6338.9197     -4550.0781     -32.134709      0.99209308     47876.065      72           
     46700   301.56883      627.2022      -1801.8519     -876.31803      1514.6835      6381.9609     -4556.0977     -35.174581      0.99014409     47970.304      72           
     46800   298.33298      130062.99      302.58073     -965.86454      128915.83      6506.9627     -4659.8851     -36.633184      0.98698293     48123.945      73           
     46900   306.95581      755.07077     -1825.5283     -949.04186      1595.7824      6582.0476     -4619.2953     -28.893825      1.0264162      46275.1        73           
     47000   305.18085      822.01955     -1770.6327     -802.50077      1557.0618      6483.9721     -4612.8067     -33.074186      1.0233784      46412.461      73           
     47100   303.41091      363957.33      383.44129     -794.53672      362592.51      6407.104      -4596.9966     -34.188255      1.018765       46622.639      74           
     47200   311.40133      1077.39       -1749.3308     -655.37057      1533.8606      6673.5881     -4693.0012     -32.35603       1.0810134      43937.95       74           
     47300   308.0264       715.66119     -1729.8409     -845.54708      1451.5323      6550.4494     -4674.9547     -35.977834      1.0737859      44233.691      74           
     47400   301.73007      707.14663     -1813.4348     -818.94198      1525.0225      6367.1145     -4521.5537     -31.059843      1.0653674      44583.223      74           
     47500   292.88774      614.96638     -1758.2835     -928.34653      1507.7147      6424.9924     -4602.2036     -28.907058      1.0568979      44940.493      74           
     47600   297.1961       592.83896     -1831.7227     -878.27872      1522.4911      6357.1321     -4541.8296     -34.95323       1.0488623      45284.795      74           
     47700   296.42471      932.84279     -1779.9942     -698.13567      1506.2603      6495.9613     -4556.716      -34.533031      1.0401245      45665.218      74           
     47800   298.4019       799.10823     -1822.4014     -862.78791      1511.0307      6622.5117     -4615.044      -34.200912      1.0326612      45995.252      74           
     47900   301.11151      764.2927      -1831.0589     -822.48528      1533.7836      6493.3051     -4578.1464     -31.105408      1.0262757      46281.435      74           
     48000   299.05228      767.5206      -1805.405      -801.12818      1514.7161      6472.5582     -4582.3804     -30.840053      1.019066       46608.87       74           
     48100   291.73433      725.32056     -1778.3665     -852.86017      1510.4701      6429.0286     -4545.453      -37.498565      1.0126891      46902.364      74           
     48200   296.83027      327.46717     -1776.8956     -1226.3681      1504.638       6453.4266     -4591.3923     -35.941453      1.0064584      47192.722      74           
     48300   298.61995      48307.234      339.25192     -768.58691      46925.197      6485.6421     -4640.7397     -33.530559      1.0015561      47423.718      75           
     48400   303.68616      675.51277     -1792.8229     -907.69257      1495.1604      6483.1137     -4571.8822     -30.363781      1.0210615      46517.778      75           
     48500   302.27797      591.71727     -1803.3431     -952.69661      1487.3572      6481.9179     -4589.7707     -31.747442      1.0180749      46654.243      75           
     48600   293.89113      572.98155     -1786.6756     -997.92038      1519.5124      6541.1664     -4671.6051     -31.496096      1.0137519      46853.191      75           
     48700   294.37367      514.33693     -1768.1605     -1079.6371      1492.7795      6381.7729     -4481.4466     -30.971223      1.0107548      46992.122      75           
     48800   299.84732      635.3635      -1793.8411     -938.62872      1539.7693      6442.5055     -4585.2967     -29.144789      1.0062198      47203.912      75           
     48900   306.67308      624.78492     -1800.5933     -969.43494      1514.2185      6411.7673     -4499.7278     -31.444795      1.001983       47403.513      75           
     49000   297.1101       828.61452     -1747.6969     -789.47245      1524.9941      6448.9391     -4573.9107     -34.238589      0.9981212      47586.919      75           
     49100   297.69549      620.74948     -1791.3324     -905.45548      1567.7626      6398.9888     -4615.9204     -33.293649      0.99408616     47780.076      75           
     49200   297.46122      771.24072     -1774.6861     -786.0401       1551.885       6419.8662     -4606.1028     -33.681518      0.9898896      47982.636      75           
     49300   307.3327       663.85743     -1787.0488     -937.21612      1503.9641      6535.0697     -4620.524      -30.387489      0.98737311     48104.928      75           
     49400   302.10046      561.96154     -1778.2941     -1066.0766      1569.6518      6453.1093     -4584.8085     -31.620332      0.98408789     48265.519      75           
     49500   299.04861      630.17249     -1804.8095     -901.19464      1532.4197      6417.875      -4580.2689     -33.849057      0.98030882     48451.582      75           
     49600   302.58222      390.10203     -1807.6473     -1023.5769      1524.7272      6216.279      -4486.8627     -32.81721       0.97785939     48572.947      75           
     49700   298.08511      603.78069     -1777.6342     -793.02092      1498.6693      6165.7498     -4457.092      -32.891203      0.97564365     48683.259      75           
     49800   295.94512      498.77704     -1785.7876     -944.10953      1511.8422      6273.3948     -4522.1498     -34.41304       0.97291957     48819.567      75           
     49900   302.93892      576.80652     -1802.0551     -890.19136      1499.9116      6341.0639     -4539.1552     -32.767383      0.97020664     48956.079      75           
     50000   300.29135      594.98791     -1807.4164     -955.27078      1555.7744      6275.3814     -4439.6353     -33.84534       0.9687894      49027.696      75           
     50100   295.61836      582.84888     -1804.6819     -1006.5168      1564.6578      6338.6028     -4476.8299     -32.38313       0.96703997     49116.391      75           
     50200   298.49456      799.57708     -1757.2007     -715.37763      1530.0921      6307.8165     -4530.5164     -35.236901      0.96553068     49193.168      75           
     50300   291.25088      616.20385     -1760.1736     -915.45506      1569.5182      6290.8741     -4535.5798     -32.98011       0.9643411      49253.851      75           
     50400   293.71723      449.74443     -1783.0045     -987.19075      1530.0881      6259.5825     -4535.0462     -34.684674      0.96295255     49324.874      75           
     50500   299.33505      727.90963     -1803.1283     -735.00707      1510.8149      6261.9621     -4473.9131     -32.818879      0.96173209     49387.468      75           
     50600   298.95085      721.15939     -1780.0981     -863.15525      1604.1175      6309.1913     -4516.5215     -32.374665      0.96061524     49444.888      75           
     50700   304.4902       634.15562     -1793.1094     -844.57424      1524.9471      6352.5519     -4571.927      -33.732752      0.96167714     49390.29       75           
     50800   303.10826      518.3965      -1801.0311     -915.56871      1532.8271      6312.0817     -4575.52       -34.39245       0.96024851     49463.771      75           
     50900   299.14688      733.3425      -1781.0931     -683.83795      1521.8325      6375.4632     -4660.3788     -38.643319      0.95964484     49494.887      75           
     51000   296.45946      786.35492     -1798.524      -752.49597      1604.3139      6319.4988     -4551.6791     -34.758751      0.95862157     49547.719      75           
     51100   304.83513      681.00605     -1755.1235     -869.431        1632.4554      6291.6134     -4582.3206     -36.187549      0.95934801     49510.201      75           
     51200   303.28985      719.15149     -1737.3412     -821.33803      1595.9493      6316.763      -4596.3241     -38.557413      0.95817229     49570.952      75           
     51300   299.51985      745.10215     -1743.0959     -782.41744      1613.1565      6377.3952     -4687.4312     -32.505156      0.95603742     49681.646      75           
     51400   296.55061      736.04193     -1753.4527     -765.48471      1570.8623      6274.5914     -4560.855      -29.619439      0.95375066     49800.765      75           
     51500   300.09398      749.43976     -1780.9317     -752.68662      1580.0856      6353.1326     -4616.5556     -33.604525      0.95262691     49859.512      75           
     51600   304.50967      682.00938     -1757.3199     -880.26144      1569.2782      6437.888      -4652.7167     -34.858756      0.95298056     49841.009      75           
     51700   302.21828      803.1859      -1780.967      -823.35078      1633.9095      6354.5336     -4547.2195     -33.719887      0.95402652     49786.365      75           
     51800   301.99468      720.36212     -1777.9901     -854.97261      1657.8819      6363.6141     -4635.4102     -32.760967      0.95618698     49673.875      75           
     51900   300.34865      700.55444     -1781.6612     -831.34708      1616.0495      6332.7261     -4601.4683     -33.744588      0.95836531     49560.968      75           
     52000   295.91276      785.70336     -1762.5874     -790.272        1617.2315      6420.1749     -4667.1323     -31.711244      0.95825712     49566.564      75           
     52100   298.603        660.03103     -1798.1002     -820.93743      1594.9334      6236.4035     -4519.5984     -32.66981       0.95855696     49551.059      75           
     52200   293.13983      638.72459     -1776.7127     -812.01619      1565.7418      6351.6085     -4658.3953     -31.501535      0.95893422     49531.565      75           
     52300   293.25747      620.68863     -1825.5906     -827.86276      1534.2611      6291.0698     -4517.1366     -34.052309      0.95845966     49556.089      75           
     52400   299.95542      668.48525     -1768.8018     -838.6926       1568.2681      6311.4688     -4573.2326     -30.524566      0.95890875     49532.881      75           
     52500   301.92813      680.487       -1783.456      -829.01561      1596.9522      6285.8964     -4556.024      -33.865858      0.95846889     49555.612      75           
     52600   300.85275      937.40383     -1793.7841     -592.62193      1593.9921      6322.0004     -4559.4177     -32.764916      0.95749873     49605.823      75           
     52700   300.0323       563.71702     -1798.4726     -938.03186      1592.353       6307.2098     -4566.6702     -32.671079      0.95602093     49682.503      75           
     52800   299.88883      569.6927      -1780.5019     -849.4799       1569.0645      6224.8324     -4559.5495     -34.672875      0.95519206     49725.615      75           
     52900   294.89803      834.06938     -1750.2236     -631.3602       1587.8997      6272.2984     -4610.3861     -34.158812      0.9541182      49781.581      75           
     53000   299.9663       786.21035     -1784.1207     -717.62133      1586.1234      6378.9599     -4644.9896     -32.141361      0.9536695      49805.003      75           
     53100   300.60864      915.43414     -1742.9125     -638.01753      1575.8281      6353.0958     -4600.1838     -32.375917      0.95450971     49761.162      75           
     53200   300.8012       738.0152      -1767.4504     -767.69291      1558.7959      6251.0455     -4503.5714     -33.111549      0.95461365     49755.744      75           
     53300   297.50561      797.16571     -1787.4581     -731.71771      1644.5247      6383.7811     -4680.5059     -31.458308      0.95356175     49810.631      75           
     53400   293.1344       946.66948     -1773.3934     -567.98328      1585.6028      6317.7827     -4583.5077     -31.831665      0.95266492     49857.523      75           
     53500   290.80858      725.74382     -1783.3538     -749.0715       1609.9876      6335.4061     -4653.7877     -33.436866      0.95242239     49870.219      75           
     53600   296.39104      803.78064     -1811.378      -632.32759      1584.586       6259.2176     -4564.3868     -31.930569      0.95220366     49881.674      75           
     53700   304.64155      666.65668     -1796.2123     -784.77428      1587.8486      6324.9718     -4629.9965     -35.180723      0.95354759     49811.371      75           
     53800   298.5866       651.34307     -1771.7847     -932.70251      1636.3728      6334.4321     -4578.6111     -36.363513      0.95475412     49748.424      75           
     53900   300.55411      739.27708     -1783.3345     -753.47617      1655.2158      6207.7576     -4552.0447     -34.840941      0.95392185     49791.828      75           
     54000   298.16365      606.84849     -1808.9742     -826.21363      1575.8566      6213.0246     -4515.5382     -31.306708      0.95267298     49857.101      75           
     54100   298.62938      614.16315     -1785.0505     -797.20374      1547.5364      6297.6885     -4615.7147     -33.092873      0.95253124     49864.52       75           
     54200   296.52078      740.05188     -1791.836      -803.35127      1660.2951      6326.7567     -4616.3962     -35.416381      0.95332242     49823.136      75           
     54300   303.28093      660.70929     -1822.8093     -887.72536      1682.2879      6305.1517     -4584.9522     -31.243535      0.95600333     49683.417      75           
     54400   299.54136      864.59082     -1743.2084     -703.44843      1659.4618      6328.1496     -4643.4097     -32.954162      0.95672659     49645.858      75           
     54500   299.61661      714.86269     -1755.0948     -765.941        1618.9555      6243.572      -4592.2278     -34.401222      0.95543466     49712.989      75           
     54600   297.72832      610.62647     -1780.4526     -863.23823      1605.0683      6303.3656     -4622.4767     -31.640001      0.95426226     49774.066      75           
     54700   298.14713      774.05971     -1769.7714     -712.87572      1627.3324      6272.8643     -4607.9032     -35.586723      0.95438228     49767.807      75           
     54800   306.87934      674.26265     -1778.2743     -836.65225      1633.6232      6339.4483     -4652.4839     -31.39831       0.95369809     49803.51       75           
     54900   302.40079      622.47312     -1757.5239     -962.59306      1629.8392      6400.0329     -4652.9793     -34.302756      0.95333123     49822.676      75           
     55000   301.67705      811.62181     -1806.1392     -693.17624      1633.8184      6286.8348     -4578.7011     -31.014915      0.95348795     49814.486      75           
     55100   299.08677      602.42186     -1821.2154     -853.74692      1591.0473      6326.137      -4606.2253     -33.574758      0.95513827     49728.415      75           
     55200   298.23307      711.85014     -1767.3342     -737.1119       1565.7891      6467.5826     -4781.4359     -35.639552      0.95681198     49641.428      75           
     55300   299.72885      590.83902     -1821.9918     -869.24556      1630.9501      6207.9536     -4523.9774     -32.849964      0.95725759     49618.319      75           
     55400   302.3635       910.01446     -1785.2609     -560.98639      1602.5399      6314.3454     -4628.6279     -31.995584      0.95841907     49558.188      75           
     55500   307.00162      343315.63      121.11928     -655.66561      342220.61      6293.0878     -4630.8552     -32.673253      0.95771779     49594.477      76           
     55600   312.94479      1189.7612     -1842.8528     -552.59022      1616.7414      6641.3279     -4640.2622     -32.602867      1.0227768      46439.766      76           
     55700   309.35502      797.93286     -1810.2074     -688.09997      1569.301       6235.2322     -4475.3597     -32.933243      1.0197911      46575.729      76           
     55800   301.40689      629.41377     -1846.9686     -783.90059      1531.3778      6431.2113     -4666.4415     -35.864511      1.0157714      46760.039      76           
     55900   301.02413      490.75399     -1843.7056     -783.49541      1508.4001      6226.9697     -4584.7206     -32.694157      1.0127102      46901.387      76           
     56000   297.89156      449.40579     -1804.6669     -805.89776      1482.8118      6187.6        -4580.2515     -30.189706      1.0081294      47114.499      76           
     56100   299.22736      614.93567     -1849.5652     -712.58642      1544.3854      6237.7863     -4571.645      -33.439458      1.0044341      47287.832      76           
     56200   305.38563      406.73363     -1789.7441     -937.8139       1528.6059      6275.5278     -4638.7258     -31.116316      1.0001283      47491.422      76           
     56300   307.96292      417.88338     -1851.545      -880.60475      1534.2578      6189.3046     -4540.77       -32.75926       0.99754615     47614.351      76           
     56400   299.28542      569.22926     -1861.8229     -818.69923      1550.6111      6308.1567     -4575.8639     -33.152389      0.99392476     47787.835      76           
     56500   295.65693      493.45652     -1847.6047     -907.26642      1575.6906      6279.1239     -4573.0161     -33.470798      0.9912554      47916.523      76           
     56600   297.66891      546.75495     -1843.5533     -811.78034      1599.4354      6222.338      -4590.7397     -28.945068      0.99050522     47952.814      76           
     56700   297.44503      643.95368     -1768.1727     -769.99659      1556.4573      6332.8748     -4672.6028     -34.606288      0.98861092     48044.698      76           
     56800   300.40816      646.70061     -1838.0452     -790.14378      1594.429       6249.7489     -4537.4524     -31.835942      0.98534339     48204.02       76           
     56900   305.60961      717.80641     -1819.1241     -700.85503      1571.2487      6351.6432     -4649.8916     -35.2148        0.98359942     48289.488      76           
     57000   303.02095      599.16295     -1862.4998     -785.29383      1625.3692      6216.4562     -4565.3235     -29.545371      0.98154978     48390.325      76           
     57100   297.49671      634.74634     -1821.3424     -758.52161      1577.3398      6253.11       -4583.6353     -32.204164      0.97938149     48497.458      76           
     57200   298.70011      590.60669     -1819.4149     -808.68619      1572.6428      6220.8945     -4544.932      -29.897551      0.97784879     48573.474      76           
     57300   295.85105      631.88348     -1827.6665     -835.72649      1565.8299      6246.3382     -4481.5906     -35.301102      0.97587363     48671.786      76           
     57400   302.15674      679.68916     -1822.7997     -782.89315      1627.3979      6205.7319     -4515.521      -32.226851      0.97275651     48827.751      76           
     57500   303.20148      217952.67      2959.9793     -925.78405      214215.75      6309.1531     -4577.8989     -28.536183      0.97155588     48888.091      78           
     57600   309.18534      679.76244     -1820.6476     -813.36354      1564.1944      6389.8605     -4612.8528     -27.428502      1.0194003      46593.585      78           
     57700   304.2279       461.89429     -1793.1575     -933.88914      1510.8323      6278.9458     -4566.3916     -34.445734      1.0169778      46704.572      78           
     57800   300.04402      517.23875     -1827.8964     -811.83066      1560.8208      6224.6384     -4596.9296     -31.563822      1.0140173      46840.931      78           
     57900   301.09072      498.29468     -1801.2272     -791.35293      1510.519       6057.1362     -4447.0416     -29.73882       1.0109214      46984.378      78           
     58000   294.6757       581.31348     -1832.8288     -757.24733      1497.9546      6148.3403     -4445.623      -29.282287      1.0069579      47169.311      78           
     58100   302.47958      457.44704     -1829.5934     -813.40074      1523.3291      6202.0129     -4590.0393     -34.861456      1.0021519      47395.52       78           
     58200   297.84407      674.59739     -1825.1087     -772.25987      1605.3782      6227.8865     -4529.6943     -31.604369      0.99890065     47549.786      78           
     58300   301.34822      547.09213     -1774.5678     -893.64669      1535.4094      6265.7045     -4552.6576     -33.149597      0.99503581     47734.476      78           
     58400   298.44375      523.99555     -1833.6094     -871.97688      1566.9856      6191.5508     -4496.3621     -32.592556      0.99140877     47909.111      78           
     58500   295.50956      534.17441     -1772.6121     -829.12101      1550.2265      6197.543      -4575.5603     -36.301694      0.98898702     48026.427      78           
     58600   295.49249      612.13954     -1845.0076     -783.82644      1583.2767      6152.3101     -4464.6931     -29.920068      0.98587698     48177.931      78           
     58700   299.61094      644.67868     -1814.5973     -731.91777      1543.7321      6197.5228     -4520.5257     -29.535434      0.98393004     48273.262      78           
     58800   300.02653      597.05881     -1804.0754     -791.98812      1557.7458      6174.423      -4509.1691     -29.877252      0.98101099     48416.902      78           
     58900   306.02747      572.25935     -1809.4714     -690.07472      1527.9875      6131.014      -4557.7008     -29.495227      0.97816599     48557.722      78           
     59000   297.83396      556.70417     -1826.0575     -697.38778      1513.6942      6114.756      -4518.5174     -29.783265      0.97476903     48726.941      78           
     59100   296.37013      741.88321     -1819.0957     -565.12067      1538.1126      6190.5558     -4569.9504     -32.618343      0.97231882     48849.731      78           
     59200   304.79295      539.18485     -1802.7712     -750.4568       1572.5234      6117.1008     -4562.3476     -34.863657      0.97099081     48916.542      78           
     59300   301.89464      757.90824     -1838.3874     -585.21822      1587.5568      6157.0847     -4529.4579     -33.669792      0.96915875     49009.012      78           
     59400   296.99747      668.30894     -1793.44       -740.76601      1571.3628      6128          -4465.325      -31.522832      0.96810849     49062.179      78           
     59500   305.50972      181032.46      839.89233     -813.63591      179380.24      6192.8079     -4538.3004     -28.54861       0.96614743     49161.765      79           
     59600   301.4865       963.69417     -1791.6421     -613.5203       1570.6428      6398.836      -4573.2241     -27.398016      1.0122539      46922.528      79           
     59700   303.67567      499.15339     -1797.9285     -810.50672      1528.8961      6153.9814     -4539.4767     -35.812206      1.0104349      47007.001      79           
     59800   296.89611      532.41145     -1796.779      -787.15658      1542.1036      6182.389      -4573.6738     -34.47173       1.0071616      47159.775      79           
     59900   300.33844      391.39888     -1781.9483     -851.76216      1469.5512      6121.5824     -4534.7658     -31.258455      1.0041237      47302.451      79           
     60000   301.24324      523.54458     -1849.8876     -730.48891      1505.1694      6172.4277     -4542.2413     -31.434721      0.99956432     47518.215      79           
     60100   308.65064      487.93715     -1837.441      -821.48071      1478.9149      6264.8023     -4562.6333     -34.225032      0.99650631     47664.036      79           
     60200   301.35907      585.7258      -1778.8791     -805.4028       1503.4258      6266.4523     -4567.8377     -32.032659      0.99271593     47846.026      79           
     60300   300.10583      418.93727     -1843.6281     -928.76846      1526.4019      6189.8163     -4492.8119     -32.072528      0.98940776     48006.004      79           
     60400   301.34803      608.40961     -1811.5944     -691.3543       1523.1909      6159.9044     -4539.925      -31.812067      0.98702373     48121.956      79           
     60500   300.10991      444.53798     -1816.4683     -868.56778      1521.0926      6168.7868     -4527.7047     -32.600702      0.98519042     48211.505      79           
     60600   301.11675      401.72592     -1816.6451     -902.13449      1523.5642      6129.4399     -4503.1406     -29.3581        0.98292291     48322.724      79           
     60700   301.76591      726.47797     -1814.7562     -565.03391      1561.4176      6183.0712     -4605.1969     -33.02382       0.98058547     48437.912      79           
     60800   300.06421      746.33982     -1810.9606     -608.69465      1525.6849      6248.1508     -4574.0604     -33.78017       0.97740066     48595.744      79           
     60900   302.35306      533.77553     -1770.4875     -816.5769       1544.6514      6095.369      -4486.8526     -32.327962      0.97465326     48732.729      79           
     61000   308.15383      382.17009     -1803.6574     -893.06802      1521.7646      6162.4089     -4572.0523     -33.225701      0.9719798      48866.77       79           
     61100   299.13995      569.90225     -1774.1245     -760.89288      1577.5682      6019.7083     -4460.7893     -31.567559      0.96948355     48992.593      79           
     61200   301.26803      617.08844     -1761.7971     -641.2115       1520.6903      6095.4067     -4562.192      -33.807954      0.96754126     49090.943      79           
     61300   294.34229      659.68829     -1756.1825     -791.82846      1594.7653      6266.3311     -4622.5495     -30.847679      0.96503108     49218.635      79           
     61400   301.90732      437.82108     -1778.4329     -1010.9876      1593.6588      6188.4032     -4525.4923     -29.328068      0.96416987     49262.598      79           
     61500   303.09711      612.07168     -1777.8267     -801.59381      1579.445       6151.9103     -4507.7689     -32.094231      0.96267181     49339.258      79           
     61600   299.57473      610.97477     -1787.7758     -803.44717      1618.513       6085.314      -4470.1739     -31.455435      0.9610496      49422.54       79           
     61700   298.27422      522.39905     -1828.7393     -844.6738       1611.8369      6081.3946     -4463.9858     -33.433495      0.96074443     49438.239      79           
     61800   293.22258      576.42786     -1761.7967     -808.2279       1592.737       6198.0044     -4612.88       -31.408941      0.96068601     49441.245      79           
     61900   300.54415      477.82723     -1781.1976     -803.77778      1601.9139      6097.7124     -4606.8594     -29.964231      0.96133512     49407.861      79           
     62000   299.63737      677.99772     -1790.3462     -757.12663      1625.6232      6261.8763     -4629.1616     -32.867368      0.95987655     49482.939      79           
     62100   303.20033      661.0595      -1814.5361     -750.34846      1617.3189      6177.9111     -4536.1578     -33.128155      0.9586696      49545.237      79           
     62200   304.57936      673.94096     -1777.5578     -701.17579      1611.8933      6120.4348     -4550.8131     -28.840471      0.95812923     49573.18       79           
     62300   297.7148       596.32335     -1811.2438     -765.96448      1633.9947      6132.3552     -4563.0361     -29.782282      0.9575047      49605.514      79           
     62400   295.52039      618.33922     -1781.3325     -751.39274      1605.4065      6093.3026     -4515.3997     -32.244857      0.95754739     49603.302      79           
     62500   301.73283      408.63415     -1795.8847     -908.06268      1614.5221      6100.4519     -4569.1907     -33.201786      0.95734183     49613.953      79           
     62600   299.64503      644.85503     -1817.6994     -732.20949      1625.1334      6242.4934     -4642.7025     -30.160424      0.95697197     49633.129      79           
     62700   300.74467      550.42902     -1783.7901     -795.66064      1577.7683      6188.1427     -4604.8879     -31.143422      0.95736252     49612.881      79           
     62800   297.15916      454.45083     -1781.7123     -869.094        1588.2854      6156.0519     -4606.189      -32.891044      0.95702801     49630.222      79           
     62900   294.99211      468.46722     -1810.8239     -774.1363       1562.5883      6098.3636     -4575.3163     -32.208226      0.95697717     49632.859      79           
     63000   292.15603      731.51779     -1835.4674     -589.63767      1600.1743      6116.228      -4529.5238     -30.255657      0.95767287     49596.803      79           
     63100   298.66873      836.83961     -1771.2083     -515.04596      1640.1231      6052.6538     -4538.7578     -30.925175      0.95889771     49533.451      79           
     63200   300.72875      818.49004     -1783.6613     -569.76937      1593.3955      6120.3576     -4509.7554     -32.07711       0.95865891     49545.79       79           
     63300   304.03013      767.57058     -1807.7125     -599.8684       1599.9541      6172.7596     -4564.2648     -33.297351      0.95708098     49627.475      79           
     63400   299.18525      631.68477     -1749.4922     -786.28025      1619.5694      6205.5187     -4625.8283     -31.802503      0.9566538      49649.636      79           
     63500   295.43343      766.56936     -1830.5626     -605.79858      1619.6683      6076.2649     -4462.9461     -30.056539      0.95578824     49694.598      79           
     63600   297.26067      716.4133      -1784.8729     -591.82505      1639.7714      6098.1186     -4614.7574     -30.021274      0.95641085     49662.248      79           
     63700   303.92698      466.51578     -1786.8331     -821.18973      1593.964       6098.3035     -4587.0491     -30.679857      0.95626287     49669.933      79           
     63800   302.25022      772.70211     -1774.6555     -638.10886      1654.5008      6207.0924     -4641.0578     -35.068942      0.95649244     49658.012      79           
     63900   305.77146      786.44263     -1777.4261     -546.33269      1562.9319      6115.1667     -4534.0821     -33.815004      0.95561318     49703.702      79           
     64000   299.3688       731.77372     -1789.0758     -647.38855      1650.4446      6167.7876     -4616.9593     -33.034787      0.95574641     49696.773      79           
     64100   302.70153      426.83085     -1782.3441     -839.0337       1597.5516      6053.5385     -4572.1025     -30.778966      0.95582639     49692.615      79           
     64200   294.9323       600.15122     -1802.1432     -714.0033       1601.0951      6126.9526     -4580.3648     -31.385138      0.95670595     49646.929      79           
     64300   292.03631      437.01282     -1816.6949     -799.24377      1596.1067      6038.8719     -4550.6536     -31.373419      0.95792664     49583.664      79           
     64400   292.57266      420.29493     -1810.8857     -852.05327      1552.41        6145.9073     -4581.7704     -33.312944      0.95918847     49518.436      79           
     64500   302.29019      464.98362     -1796.779      -804.91303      1596.4188      6050.4047     -4544.2851     -35.862738      0.9600545      49473.767      79           
     64600   300.39439      402.08352     -1751.1347     -954.93999      1613.8766      6110.9236     -4585.9085     -30.733415      0.96025273     49463.554      79           
     64700   302.8168       510.4551      -1808.4045     -841.18673      1619.6151      6178.3703     -4604.2435     -33.695596      0.95988081     49482.719      79           
     64800   300.93196      620.50947     -1812.8485     -715.54875      1563.0111      6147.7743     -4532.0715     -29.807109      0.95941862     49506.557      79           
     64900   296.60426      579.94233     -1827.0606     -769.54843      1582.6955      6109.978      -4484.2763     -31.84582       0.9584795      49555.064      79           
     65000   295.0211       696.94753     -1767.9425     -619.40977      1571.968       6120.7905     -4573.7897     -34.669098      0.95793484     49583.239      79           
     65100   297.66308      571.99331     -1799.0059     -715.22529      1600.7389      6105.274      -4585.3353     -34.453113      0.95832859     49562.867      79           
     65200   301.78032      690.6622      -1800.2511     -674.3026       1601.6291      6152.5858     -4557.0394     -31.95966       0.95859399     49549.145      79           
     65300   301.65084      754.81372     -1815.8597     -646.36754      1632.4243      6148.0978     -4532.4737     -31.007495      0.95933316     49510.967      79           
     65400   303.09198      645.64979     -1808.3972     -667.24011      1581.9224      6156.5744     -4586.399      -30.810652      0.95944271     49505.314      79           
     65500   297.05027      582.82186     -1782.0593     -749.40107      1594.2792      6170.6396     -4616.8409     -33.795693      0.95890107     49533.277      79           
     65600   298.33762      577.52378     -1771.7127     -745.19377      1575.8224      6173.8417     -4620.1133     -35.120502      0.95742128     49609.836      79           
     65700   299.98059      684.66749     -1811.2138     -648.54486      1571.6516      6063.8339     -4457.2607     -33.798652      0.95651148     49657.023      79           
     65800   303.06014      734.54499     -1778.1699     -578.9382       1601.4781      6077.8322     -4555.5693     -32.087927      0.95714213     49624.305      79           
     65900   299.59144      498.09173     -1784.5012     -869.82064      1599.3234      6079.4045     -4489.5724     -36.741899      0.95817867     49570.622      79           
     66000   303.54459      462.68754     -1785.2576     -860.94572      1554.4825      6188.0657     -4603.9523     -29.705117      0.95703494     49629.863      79           
     66100   303.83016      544.55216     -1820.1183     -872.44712      1652.4524      6161.2149     -4542.0936     -34.456143      0.95589138     49689.236      79           
     66200   303.87659      609.30698     -1768.6937     -873.39853      1660.1854      6256.9957     -4632.0388     -33.743078      0.95473469     49749.437      79           
     66300   302.97436      576.89125     -1776.1116     -817.86679      1601.1449      6221.2451     -4619.057      -32.463331      0.9522515      49879.168      79           
     66400   301.05202      648.80262     -1845.3733     -678.80963      1647.0853      6070.4333     -4515.1524     -29.380582      0.95121975     49933.27       79           
     66500   299.82144      699.17877     -1815.78       -665.34709      1583.7645      6200.9744     -4575.7334     -28.699655      0.95369589     49803.625      79           
     66600   302.61102      570.48733     -1786.6663     -781.2216       1597.8338      6208.075      -4637.2817     -30.251923      0.95665757     49649.44       79           
     66700   300.64835      671.67564     -1774.0166     -744.65368      1609.1263      6288.6147     -4673.3154     -34.079632      0.95834401     49562.07       79           
     66800   306.88633      542.24493     -1789.2395     -808.56453      1647.4204      6162.1146     -4637.7126     -31.773429      0.95836516     49560.976      79           
     66900   300.08961      641.04403     -1820.8158     -705.10954      1597.1634      6251.4094     -4647.1534     -34.449972      0.95710222     49626.374      79           
     67000   298.43986      361.05538     -1808.1555     -945.87569      1601.427       6128.3369     -4583.8772     -30.800141      0.95597614     49684.831      79           
     67100   297.92209      679.7663      -1781.0897     -681.86021      1592.6528      6196.3352     -4615.5277     -30.744035      0.95501815     49734.67       79           
     67200   303.21612      477.42552     -1813.7884     -880.68949      1658.177       6127.6429     -4583.2747     -30.641766      0.95370558     49803.119      79           
     67300   305.48076      526.09443     -1780.2043     -833.20583      1625.3951      6066.3881     -4518.5371     -33.741663      0.95312126     49833.651      79           
     67400   295.935        700.00052     -1787.0247     -769.67944      1676.4455      6224.93       -4609.5605     -35.110347      0.95272659     49854.295      79           
     67500   296.96657      661.05342     -1818.2882     -630.56693      1610.8218      6113.7109     -4579.9083     -34.715761      0.9532262      49828.165      79           
     67600   297.37442      608.53069     -1786.7198     -649.47646      1579.7036      6109.5946     -4612.2457     -32.325444      0.95458045     49757.475      79           
     67700   296.45277      697.78423     -1805.8923     -662.92207      1635.0817      6236.7664     -4668.7567     -36.492714      0.95499484     49735.884      79           
     67800   300.61587      609.14464     -1811.8352     -780.54229      1657.9278      6191.9426     -4619.6839     -28.664336      0.95489015     49741.337      79           
     67900   303.06025      623.27809     -1769.4944     -752.53945      1630.9746      6133.5808     -4588.2529     -30.990565      0.95625508     49670.338      79           
     68000   302.42845      464.68481     -1792.4626     -893.15231      1612.9413      6097.2957     -4531.4834     -28.454004      0.95671833     49646.287      79           
     68100   301.12737      612.68032     -1823.5111     -640.81441      1567.3265      6131.7984     -4591.3165     -30.802688      0.95673184     49645.586      79           
     68200   295.59255      564.21434     -1835.6493     -719.93608      1634.008       6143.5234     -4624.9275     -32.804201      0.9578602      49587.103      79           
     68300   296.50159      280.25135     -1800.3486     -1036.4513      1629.5664      6115.2368     -4598.8859     -28.865988      0.96046153     49452.801      79           
     68400   300.4913       698.02749     -1782.7871     -652.39681      1623.9854      6126.3638     -4586.3686     -30.76915       0.95941952     49506.511      79           
     68500   301.15143      461.34231     -1793.4586     -932.26541      1635.3689      6204.8949     -4619.9507     -33.246733      0.95747804     49606.895      79           
     68600   305.83602      535.74739     -1783.7099     -756.82166      1580.5618      6126.0836     -4599.0901     -31.276378      0.95656722     49654.13       79           
     68700   300.52283      436.96803     -1832.6858     -840.69232      1605.1561      6155.2032     -4616.193      -33.820133      0.9577995      49590.246      79           
     68800   299.25615      397.94776     -1829.2123     -873.63589      1615.4253      6025.041      -4508.4018     -31.26846       0.95943748     49505.584      79           
     68900   299.77038      434.45572     -1829.0783     -864.26743      1624.186       6128.7685     -4592.4722     -32.680785      0.9604546      49453.157      79           
     69000   297.7076       432.72553     -1813.299      -911.49169      1637.8866      6075.1246     -4523.6805     -31.814504      0.95999082     49477.049      79           
     69100   300.56897      625.30771     -1783.3139     -690.09468      1630.5382      6121.8314     -4620.1552     -33.498163      0.95880319     49538.334      79           
     69200   307.94796      582.06448     -1843.6905     -679.17385      1587.4627      6062.2555     -4511.9562     -32.833155      0.95835601     49561.449      79           
     69300   300.82344      604.3001      -1823.3212     -802.62107      1690.8333      6183.351      -4608.0526     -35.889291      0.95831793     49563.419      79           
     69400   303.73722      498.61551     -1825.2886     -809.83002      1645.687       6089.4075     -4568.1181     -33.242198      0.95980867     49486.438      79           
     69500   299.41776      512.44201     -1810.1089     -763.98212      1601.4503      6097.7769     -4580.0304     -32.663653      0.96112149     49418.844      79           
     69600   298.78151      488.04687     -1817.2496     -775.07154      1619.8876      6043.4888     -4550.6618     -32.34657       0.96382496     49280.227      79           
     69700   302.79425      347.03346     -1834.6208     -943.06837      1650.5734      6065.849      -4561.5934     -30.106423      0.96410687     49265.817      79           
     69800   304.16872      654.23643     -1782.3645     -680.7157       1642.7336      6152.3912     -4645.6584     -32.149792      0.96354346     49294.624      79           
     69900   298.64561      752.47114     -1831.315      -623.90438      1679.3401      6075.7368     -4512.5374     -34.84883       0.95987819     49482.854      79           
     70000   299.45048      531.44527     -1825.0617     -683.55597      1613.8568      6064.5612     -4602.3311     -36.023969      0.95917439     49519.163      79           
     70100   294.31689      521.58507     -1835.8193     -787.11019      1621.6454      6129.1274     -4574.2717     -31.986521      0.96069578     49440.742      79           
     70200   298.77132      677.30758     -1807.4104     -683.60429      1629.6944      6145.2882     -4574.2903     -32.369932      0.96181153     49383.389      79           
     70300   302.60871      465.09667     -1768.2529     -886.58546      1654.9134      6023.833      -4527.9984     -30.812965      0.961126       49418.612      79           
     70400   298.34592      449.43582     -1786.3271     -953.82045      1642.8851      6198.9758     -4615.6275     -36.649978      0.96019591     49466.481      79           
     70500   301.11458      558.43297     -1791.8129     -700.0721       1609.2396      6121.2357     -4646.6258     -33.531588      0.95911814     49522.067      79           
     70600   291.86444      573.94583     -1800.5276     -722.11772      1614.5019      6235.2094     -4719.3039     -33.816194      0.95861449     49548.086      79           
     70700   295.76179      430.99624     -1871.3377     -847.94705      1621.0295      6136.5611     -4574.041      -33.26855       0.95843196     49557.522      79           
     70800   300.66365      515.4719      -1798.5416     -756.71226      1640.2205      6190.2219     -4725.0161     -34.700564      0.95894054     49531.239      79           
     70900   300.28645      466.73656     -1820.5788     -876.76728      1646.8256      6135.6215     -4588.1104     -30.254192      0.95787478     49586.349      79           
     71000   298.64952      548.29363     -1817.3423     -843.84569      1685.632       6171.1707     -4612.9331     -34.387926      0.95746017     49607.821      79           
     71100   303.53527      553.73815     -1783.2824     -779.27706      1647.9331      6070.112      -4569.7002     -32.04735       0.95745348     49608.168      79           
     71200   303.56651      473.99447     -1800.5313     -824.95553      1603.3391      6203.3565     -4675.8457     -31.368589      0.95749107     49606.22       79           
     71300   295.12515      576.79984     -1802.1178     -753.96433      1647.3126      6145.5173     -4628.4273     -31.520654      0.9571271      49625.084      79           
     71400   302.40152      392.86267     -1816.2039     -805.02087      1670.6954      6022.1258     -4652.8823     -25.851589      0.95711282     49625.824      79           
     71500   299.38203      562.18764     -1828.0693     -779.12647      1649.4419      6153.4566     -4600.9161     -32.5991        0.95830668     49564          79           
     71600   303.31005      553.97918     -1821.283      -816.92642      1674.1612      6079.8198     -4529.5082     -32.284334      0.95930418     49512.463      79           
     71700   304.46105      460.85163     -1777.5015     -863.53799      1643.4904      6152.465      -4661.1412     -32.923139      0.96037693     49457.157      79           
     71800   297.37096      517.85559     -1815.0748     -845.24859      1691.3867      6130.188      -4610.5358     -32.85994       0.96096487     49426.898      79           
     71900   299.20526      613.82003     -1825.2813     -716.0597       1665.8103      6088.051      -4567.4648     -31.235502      0.95962387     49495.969      79           
     72000   296.68425      751.75132     -1828.1175     -624.51844      1715.1138      6129.8975     -4604.7419     -35.882141      0.95758438     49601.386      79           
     72100   297.15676      671.67512     -1821.7        -709.05122      1675.692       6165.8312     -4606.4467     -32.650112      0.95617241     49674.632      79           
     72200   296.11883      582.71395     -1807.8337     -850.18921      1678.968       6234.7253     -4640.4858     -32.470581      0.95458706     49757.13       79           
     72300   302.48875      458.32083     -1817.417      -872.52175      1629.5072      6149.314      -4600.1373     -30.424278      0.95409959     49782.552      79           
     72400   298.32982      674.07865     -1827.502      -630.64381      1643.7459      6122.8851     -4604.4482     -29.958433      0.95583244     49692.3        79           
     72500   297.49582      541.56644     -1817.3698     -702.42213      1565.5409      6146.8975     -4618.2428     -32.837244      0.95658067     49653.431      79           
     72600   300.40934      397.95397     -1841.3174     -850.97782      1609.8432      6116.5471     -4602.4964     -33.64461       0.95720502     49621.044      79           
     72700   299.41874      527.04105     -1800.1785     -822.53478      1634.9879      6146.9612     -4599.8112     -32.383525      0.95858162     49549.784      79           
     72800   298.42714      618.03068     -1791.5364     -804.46266      1691.9768      6132.6376     -4579.8009     -30.783808      0.95850023     49553.992      79           
     72900   297.99246      578.25888     -1791.6501     -845.34393      1678.7101      6164.791      -4597.0654     -31.182793      0.95888911     49533.895      79           
     73000   294.66594      477.13209     -1821.2039     -838.17104      1660.6289      6169.0244     -4663.215      -29.931277      0.96127938     49410.727      79           
     73100   294.08942      415.27103     -1854.2561     -862.02457      1609.4938      6107.1466     -4553.1974     -31.891277      0.96343687     49300.078      79           
     73200   303.42447      408.14688     -1861.1901     -790.26231      1632.678       6060.1886     -4600.9138     -32.353492      0.96363373     49290.006      79           
     73300   303.65527      637.70581     -1831.0283     -655.42208      1650.8893      6057.51       -4550.4591     -33.784001      0.96476547     49232.186      79           
     73400   305.25892      576.85362     -1823.0036     -698.94076      1606.948       6081.0326     -4556.2259     -32.956616      0.96604962     49166.742      79           
     73500   299.52259      521.00335     -1830.924      -791.42318      1631.5493      6141.5159     -4597.6586     -32.056039      0.96583242     49177.799      79           
     73600   301.27653      381.91574     -1833.8535     -895.69533      1611.6077      6134.544      -4602.5302     -32.156966      0.96440847     49250.41       79           
     73700   296.59082      568.59555     -1836.0003     -753.50829      1601.4421      6153.2996     -4562.8591     -33.778535      0.96218242     49364.353      79           
     73800   305.26472      588.77241     -1811.4509     -760.04429      1663.8318      6181.7108     -4653.5854     -31.689535      0.96194401     49376.588      79           
     73900   305.23392      558.64893     -1802.9876     -823.18986      1659.8526      6195.2689     -4637.8201     -32.475015      0.96089125     49430.685      79           
     74000   301.76091      599.33572     -1807.0938     -734.56023      1628.1234      6151.9797     -4602.4615     -36.651844      0.96195705     49375.918      79           
     74100   300.70453      533.50487     -1838.1427     -755.69464      1667.8798      5997.779      -4504.4711     -33.845555      0.9624737      49349.413      79           
     74200   297.88822      503.67008     -1836.2599     -777.79242      1659.2626      6075.9674     -4582.3411     -35.166487      0.96260755     49342.552      79           
     74300   299.44085      580.43794     -1835.3838     -692.55792      1653.7481      6127.3857     -4640.3994     -32.354753      0.9609388      49428.239      79           
     74400   301.79554      572.14379     -1827.2808     -743.34771      1628.8591      6063.4758     -4518.2797     -31.282889      0.95757        49602.131      79           
     74500   303.41969      649.53285     -1794.5142     -727.14369      1653.1911      6179.7174     -4628.3392     -33.378446      0.95591851     49687.826      79           
     74600   304.34434      579.46817     -1808.7042     -739.37801      1610.5009      6094.4205     -4547.3474     -30.023561      0.95529391     49720.314      79           
     74700   294.2664       602.44503     -1854.763      -768.49779      1695.9546      6196.2468     -4629.0137     -37.481876      0.95728109     49617.101      79           
     74800   300.31564      465.81846     -1867.3748     -752.00244      1619.0452      6124.511      -4621.4372     -36.923439      0.95982172     49485.766      79           
     74900   304.86912      407.74065     -1846.6735     -764.9525       1584.1982      6080.7997     -4614.0104     -31.620832      0.960939       49428.229      79           
     75000   299.76831      526.09296     -1839.9734     -755.563        1636.695       6043.7251     -4524.4767     -34.31414       0.96363482     49289.95       79           
     75100   302.03292      476.57168     -1845.1862     -789.58494      1616.0565      6013.4395     -4481.7957     -36.357539      0.96608516     49164.934      79           
     75200   302.50887      625.07139     -1839.4372     -701.30081      1624.3397      6150.9429     -4574.2253     -35.247763      0.96727915     49104.246      79           
     75300   301.48124      496.8511      -1811.7234     -945.365        1658.047       6242.03       -4610.6136     -35.523848      0.9682579      49054.609      79           
     75400   303.01301      467.81637     -1817.2885     -854.54782      1648.5647      6181.033      -4657.6674     -32.277642      0.96901221     49016.423      79           
     75500   298.29455      542.66775     -1868.6446     -743.1657       1638.6885      6125.0045     -4575.2361     -33.978867      0.96626932     49155.563      79           
     75600   299.85356      556.256       -1817.105      -712.54809      1634.0501      6171.2782     -4685.6607     -33.75847       0.96332061     49306.028      79           
     75700   302.18069      621.00909     -1832.2837     -630.86548      1596.3914      6130.6529     -4610.7276     -32.158467      0.9598935      49482.065      79           
     75800   302.36203      598.00854     -1820.2971     -731.27356      1612.0244      6192.7249     -4621.8007     -33.369507      0.95630256     49667.871      79           
     75900   306.48005      582.16718     -1809.9576     -763.96203      1653.7719      6073.2369     -4537.9673     -32.95478       0.9543427      49769.871      79           
     76000   304.79245      499.96038     -1845.4674     -813.85201      1662.5267      6120.9825     -4594.6832     -29.54624       0.95608335     49679.259      79           
     76100   296.8794       701.10873     -1854.4611     -600.45293      1702.1967      6067.7556     -4581.1063     -32.823159      0.96037494     49457.259      79           
     76200   297.66078      529.34336     -1829.9662     -723.61596      1627.5804      6117.8788     -4630.288      -32.24568       0.96412573     49264.853      79           
     76300   298.66968      423.06932     -1836.9816     -846.3366       1665.8379      6126.2016     -4653.8894     -31.762515      0.96646946     49145.384      79           
     76400   300.26678      655.37854     -1823.859      -699.33188      1676.4862      6153.3874     -4615.078      -36.226248      0.96685652     49125.71       79           
     76500   305.46221      488.47407     -1815.9655     -840.77661      1597.5626      6160.4758     -4579.3558     -33.466354      0.96637351     49150.264      79           
     76600   300.34772      269.08364     -1850.0433     -1035.9733      1636.0478      6061.4231     -4513.1072     -29.263563      0.96460601     49240.324      79           
     76700   298.29215      325.18059     -1844.3702     -893.16869      1601.8474      6121.1724     -4628.5068     -31.79351       0.96260379     49342.744      79           
     76800   298.55378      348.50618     -1816.8889     -909.35489      1649.5892      6113.8425     -4658.0819     -30.599989      0.96027767     49462.269      79           
     76900   299.89279      285.97779     -1798.8695     -1054.0149      1645.8405      6146.9726     -4620.6677     -33.283129      0.95885916     49535.442      79           
     77000   300.81183      512.68727     -1835.8122     -856.55771      1672.7853      6140.6694     -4576.0776     -32.31995       0.95724646     49618.896      79           
     77100   299.15165      615.05973     -1784.398      -703.35255      1646.8278      6185.2332     -4698.3208     -30.929887      0.95832716     49562.941      79           
     77200   293.95039      558.67115     -1869.8217     -743.40492      1670.3354      6141.8829     -4606.3769     -33.943545      0.95877335     49539.876      79           
     77300   296.89561      538.51365     -1829.426      -743.2487       1692.7439      6043.2236     -4589.8086     -34.970529      0.96145765     49401.565      79           
     77400   298.80731      594.76953     -1871.5096     -693.68482      1650.5461      6079.499      -4535.6346     -34.44661       0.96317684     49313.388      79           
     77500   296.5561       700.62014     -1796.5604     -670.41874      1686.7632      6131.1437     -4616.6358     -33.671822      0.96367639     49287.824      79           
     77600   303.24215      566.94555     -1827.4795     -718.09067      1628.2744      6129.0156     -4613.8237     -30.950564      0.9602728      49462.52       79           
     77700   292.10737      732.59044     -1802.7663     -601.69538      1675.963       6121.3381     -4628.3011     -31.947819      0.95679812     49642.147      79           
     77800   294.06035      605.17339     -1809.8273     -655.18801      1616.3912      6146.7163     -4661.3733     -31.545507      0.95312599     49833.404      79           
     77900   296.72198      615.81407     -1800.7271     -701.01811      1675.1423      6009.3277     -4534.5947     -32.316033      0.95103263     49943.094      79           
     78000   308.05075      226.87809     -1792.1654     -980.7714       1579.8747      6159.1565     -4707.0647     -32.151627      0.95070903     49960.094      79           
     78100   300.85621      536.36001     -1809.1643     -761.93176      1671.6445      6138.3487     -4669.964      -32.573087      0.95108638     49940.272      79           
     78200   296.2586       685.53616     -1764.5695     -690.76896      1639.3184      6104.4501     -4572.4254     -30.468529      0.95317014     49831.096      79           
     78300   305.16672      591.77172     -1833.2266     -707.57306      1668.426       6074.6562     -4577.0381     -33.472716      0.9559828      49684.484      79           
     78400   308.39483      466.36133     -1813.0968     -855.63386      1662.1636      6126.6258     -4621.6232     -32.07428       0.95945111     49504.881      79           
     78500   300.09897      677.76905     -1877.573      -666.59708      1641.9001      6201.4514     -4585.5866     -35.8259        0.96247279     49349.46       79           
     78600   302.48695      418.38846     -1829.1437     -792.88121      1595.2073      6179.0058     -4701.476      -32.323781      0.966144       49161.939      79           
     78700   292.46486      223732.96      1723.7849     -718.47854      221354.64      5943.8531     -4540.1357     -30.702812      0.96998944     48967.041      80           
     78800   306.28937      552.54184     -1868.5467     -850.54462      1547.8314      6453.9751     -4695.3438     -34.829653      1.0256786      46308.38       80           
     78900   306.95992      221.54105     -1846.2265     -983.53295      1558.1998      6034.6609     -4507.3218     -34.238449      1.0225902      46448.237      80           
     79000   301.22436      366.10549     -1851.8599     -809.23353      1587.0235      6093.581      -4619.6144     -33.791179      1.0190918      46607.686      80           
     79100   299.03538      238.11711     -1828.6686     -914.20037      1590.3092      6022.5149     -4604.2099     -27.628232      1.0151305      46789.563      80           
     79200   295.14617      184.20975     -1851.9626     -1029.6746      1519.5571      6082.1625     -4503.8042     -32.068416      1.0097931      47036.874      80           
     79300   298.17313      344.20662     -1856.4863     -909.12766      1596.564       6102.057      -4555.0915     -33.708938      1.0056405      47231.104      80           
     79400   302.27418      476.097       -1869.218      -802.35093      1617.5553      6188.8826     -4622.6771     -36.09493       1.0017169      47416.104      80           
     79500   302.11814      362.70947     -1859.5489     -889.78428      1586.507       6109.2758     -4552.354      -31.386191      0.99744596     47619.134      80           
     79600   296.44984      83.288823     -1839.4007     -1098.3994      1546.944       6005.0114     -4499.9911     -30.875401      0.99401866     47783.321      80           
     79700   296.89376      442.90856     -1805.9299     -750.50819      1575.5358      6026.12       -4568.6037     -33.705374      0.99040841     47957.501      80           
     79800   300.60945      249.88517     -1856.6292     -971.17666      1577.8037      6149.4775     -4614.0083     -35.581955      0.98771106     48088.469      80           
     79900   301.86482      457.19275     -1831.2762     -821.6578       1647.9969      6064.5603     -4571.1314     -31.299093      0.98442436     48249.022      80           
     80000   301.55657      482.42074     -1844.5348     -785.33698      1608.7238      6026.4903     -4494.5026     -28.418906      0.98188712     48373.7        80           
     80100   295.58921      521.81122     -1789.2299     -816.88825      1639.231       6046.2459     -4527.0581     -30.48948       0.97921829     48505.541      80           
     80200   296.22219      480.37951     -1833.0134     -868.44884      1662.3199      6080.3853     -4530.2298     -30.633724      0.97528389     48701.217      80           
     80300   301.8681       582.42031     -1820.6811     -691.45545      1593.3361      6131.8509     -4599.6804     -30.949722      0.97318892     48806.056      80           
     80400   300.49251      452.47754     -1815.123      -768.75793      1570.8385      6166.2063     -4669.0703     -31.616016      0.97100704     48915.724      80           
     80500   294.61707      583.28965     -1823.6579     -682.41547      1605.5684      6123.8889     -4608.7462     -31.348155      0.96932317     49000.699      80           
     80600   299.67997      430.65107     -1845.2499     -783.87612      1597.8117      5969.3928     -4476.6759     -30.7515        0.9684261      49046.089      80           
     80700   299.72143      519.17897     -1825.4404     -837.83183      1650.7065      6144.4443     -4580.7603     -31.939272      0.96764269     49085.797      80           
     80800   305.19531      579.23832     -1778.5378     -726.50929      1621.4886      6039.3416     -4545.802      -30.742865      0.96608622     49164.88       80           
     80900   297.92668      721.61513     -1812.9109     -647.83812      1644.4394      6107.8054     -4539.6328     -30.247895      0.96396911     49272.857      80           
     81000   303.23366      659.35359     -1786.9261     -541.56922      1607.1491      5954.0332     -4539.9506     -33.382718      0.96363969     49289.701      80           
     81100   299.98997      403.05738     -1840.7727     -787.381        1558.0175      6024.6545     -4520.6008     -30.860091      0.96226115     49360.314      80           
     81200   296.55468      572.05511     -1757.6675     -689.11673      1610.6538      6039.9422     -4600.5204     -31.236284      0.96299339     49322.782      80           
     81300   299.05108      412.55965     -1839.2571     -881.12827      1642.1352      6057.2959     -4533.7144     -32.77171       0.96252634     49346.715      80           
     81400   300.68736      643.45261     -1803.5302     -680.63927      1590.621       6144.0766     -4571.5607     -35.514799      0.96337416     49303.287      80           
     81500   297.72115      793.46888     -1815.763      -550.70137      1557.5609      6156.2851     -4520.9504     -32.962337      0.96344195     49299.818      80           
     81600   298.46286      566.99411     -1832.4594     -647.58479      1619.5251      5951.1368     -4492.1541     -31.469548      0.96269357     49338.143      80           
     81700   294.19197      502.06624     -1798.2119     -728.71355      1594.3215      6132.0585     -4664.6346     -32.753685      0.96176005     49386.032      80           
     81800   295.08825      424.42228     -1817.4852     -889.95796      1639.8218      6095.1253     -4567.8138     -35.267854      0.96088462     49431.026      80           
     81900   297.99076      581.85018     -1780.9958     -748.00614      1613.4655      6118.7308     -4586.637      -34.707141      0.96117626     49416.028      80           
     82000   300.40307      435.41932     -1845.4823     -879.23717      1640.1022      6102.9093     -4550.4096     -32.463125      0.96182172     49382.866      80           
     82100   300.15913      644.18515     -1815.6551     -645.8493       1630.8769      6095.2484     -4591.612      -28.82372       0.96261313     49342.266      80           
     82200   295.88143      513.78416     -1822.7332     -752.87269      1623.7366      6117.7906     -4619.3489     -32.788305      0.96213904     49366.579      80           
     82300   295.68444      437.54096     -1826.3196     -759.71068      1564.4989      6021.6357     -4529.8207     -32.742614      0.96201033     49373.184      80           
     82400   301.20752      472.74156     -1861.5657     -680.99668      1629.0117      6076.7214     -4658.9817     -31.447405      0.96302576     49321.124      80           
     82500   301.76032      727.97667     -1839.8306     -524.20067      1617.722       6066.706      -4560.1411     -32.278932      0.96387207     49277.818      80           
     82600   302.99615      467.223       -1836.5096     -777.89429      1634.0415      6093.1948     -4613.5756     -32.033823      0.96277753     49333.84       80           
     82700   301.79638      501.72526     -1830.556      -751.01528      1593.1836      6089.6466     -4566.7333     -32.800364      0.96354391     49294.601      80           
     82800   299.22107      629.66943     -1805.8803     -641.61464      1602.3639      6120.0185     -4613.7502     -31.467824      0.96479669     49230.592      80           
     82900   297.51609      639.36394     -1830.3969     -587.17195      1590.1873      6105.6512     -4605.0696     -33.836049      0.96499225     49220.616      80           
     83000   290.31072      574.88573     -1845.4408     -693.8211       1611.0134      6099.9279     -4562.6179     -34.175709      0.96349035     49297.341      80           
     83100   293.24661      504.65301     -1811.2253     -781.27326      1606.248       6102.222      -4578.8416     -32.47674       0.9627         49337.813      80           
     83200   301.7793       556.09477     -1848.9756     -736.72713      1600.3123      6160.2968     -4586.6672     -32.144372      0.9611406      49417.861      80           
     83300   301.78536      661.96246     -1815.4535     -622.99332      1610.6821      6141.5853     -4620.6982     -31.159883      0.96215537     49365.741      80           
     83400   299.2593       418.24565     -1825.1639     -848.92046      1619.6853      6169.8523     -4667.047      -30.160464      0.9621461      49366.216      80           
     83500   300.40995      273.5088      -1824.8452     -891.14499      1544.1431      6080.4282     -4601.9421     -33.130227      0.96290676     49327.219      80           
     83600   293.47462      396.06782     -1829.1354     -839.40907      1616.1209      6060.9451     -4584.171      -28.282745      0.96270662     49337.474      80           
     83700   296.95374      419.85899     -1811.3313     -841.8138       1619.1797      6031.3445     -4543.7096     -33.810388      0.96408868     49266.746      80           
     83800   300.72576      562.49409     -1805.8414     -738.8308       1563.869       6072.3473     -4497.5508     -31.499238      0.96635269     49151.322      80           
     83900   300.79139      551.76252     -1832.1524     -773.42522      1609.0938      6163.6671     -4584.3876     -31.033204      0.96794471     49070.481      80           
     84000   301.91631      416.06206     -1861.5173     -842.071        1671.3512      6061.3506     -4580.2558     -32.795581      0.96707198     49114.765      80           
     84100   293.42033      474.77349     -1810.5647     -795.86759      1653.6233      6092.8068     -4635.5198     -29.704647      0.96734077     49101.117      80           
     84200   298.75244      474.5477      -1824.8661     -700.35651      1588.322       6054.6845     -4607.3911     -35.845051      0.96602258     49168.119      80           
     84300   299.25177      422.00362     -1820.9913     -812.88361      1645.9365      6076.7581     -4634.5773     -32.23879       0.96536576     49201.572      80           
     84400   299.62144      450.40895     -1837.4086     -781.41735      1597.34        6052.6338     -4548.597      -32.141861      0.96551324     49194.056      80           
     84500   302.60834      557.25671     -1851.9925     -681.90054      1613.4654      6070.2714     -4563.7775     -28.809603      0.96485433     49227.651      80           
     84600   299.97323      582.63648     -1833.8635     -691.11652      1602.5688      6052.9947     -4516.4386     -31.508401      0.96329203     49307.491      80           
     84700   298.85607      706.28732     -1815.1434     -621.36073      1655.6791      6083.006      -4562.7077     -33.185927      0.96178359     49384.824      80           
     84800   297.39877      607.79327     -1848.8269     -703.06342      1613.6945      6144.7794     -4565.601      -33.189394      0.96016977     49467.828      80           
     84900   297.96194      488.24588     -1841.8683     -783.31699      1634.747       6158.7456     -4646.6108     -33.450657      0.95891142     49532.743      80           
     85000   295.66441      584.09914     -1835.105      -683.19375      1616.7777      6056.6972     -4537.6347     -33.442273      0.95739459     49611.219      80           
     85100   295.76851      497.82335     -1790.95       -796.14794      1616.7058      6136.0952     -4637.5815     -30.298056      0.95668986     49647.764      80           
     85200   305.77846      407.74657     -1823.2101     -857.78127      1622.9794      6190.6698     -4691.0668     -33.844394      0.95692535     49635.546      80           
     85300   303.90519      345.28856     -1834.0874     -919.10147      1626.9919      6040.4587     -4534.8076     -34.165544      0.95839732     49559.313      80           
     85400   303.56695      572.95614     -1786.8982     -624.53302      1612.2451      6088.1296     -4682.5692     -33.418112      0.959407       49507.157      80           
     85500   298.24482      486.41401     -1816.2792     -752.49501      1590.4807      6107.727      -4611.9991     -31.020341      0.96030712     49460.752      80           
     85600   303.46952      519.19194     -1829.655      -677.32847      1609.1703      6018.3728     -4567.7842     -33.583595      0.96129925     49409.705      80           
     85700   300.38789      581.32356     -1829.8172     -703.01025      1602.3647      6127.1664     -4581.487      -33.893123      0.9626234      49341.739      80           
     85800   302.9403       591.58739     -1776.155      -711.60362      1604.5416      6038.5898     -4531.7551     -32.030368      0.96455815     49242.767      80           
     85900   305.58274      640.78966     -1834.6816     -707.78598      1627.4788      6177.2836     -4589.5057     -31.999485      0.96173564     49387.285      80           
     86000   302.82375      614.70335     -1800.8318     -728.32509      1647.9973      6168.0929     -4638.78       -33.44993       0.95912174     49521.881      80           
     86100   302.43389      456.35703     -1799.4298     -751.58246      1606.069       6103.1587     -4671.2949     -30.563569      0.95746647     49607.495      80           
     86200   303.29374      382.48894     -1823.3316     -803.62226      1598.5258      6115.6046     -4672.8509     -31.836684      0.95561169     49703.779      80           
     86300   297.22733      426.46357     -1805.9876     -849.64863      1601.7578      6112.7851     -4599.7648     -32.678322      0.95629366     49668.334      80           
     86400   299.033        611.84832     -1874.3769     -712.03858      1680.0721      6059.3033     -4508.2664     -32.845204      0.95702585     49630.334      80           
     86500   302.57332      696.52666     -1810.3998     -690.27777      1670.5423      6174.1175     -4612.4141     -35.041447      0.95913634     49521.127      80           
     86600   302.49391      646.1923      -1833.9703     -729.50252      1708.5406      6033.7245     -4501.3865     -31.213408      0.95941925     49506.525      80           
     86700   302.2736       512.43578     -1815.2434     -723.9055       1617.7357      6100.9494     -4637.6344     -29.466133      0.9601841      49467.089      80           
     86800   302.31607      469.48072     -1815.9279     -718.03438      1615.6323      5993.6176     -4574.4035     -31.403472      0.96088493     49431.01       80           
     86900   300.75331      570.0472      -1834.1792     -654.32376      1601.2961      6111.0901     -4621.4762     -32.359905      0.96191349     49378.154      80           
     87000   301.13552      518.35358     -1835.1675     -759.65684      1643.5562      6024.2653     -4523.3487     -31.294898      0.96173793     49387.168      80           
     87100   306.06612      508.2675      -1870.1631     -756.48432      1697.1469      6017.8685     -4546.97       -33.130509      0.96380497     49281.249      80           
     87200   302.28099      621.26794     -1834.2916     -660.61698      1635.57        6097.6245     -4580.6074     -36.410593      0.96656904     49140.321      80           
     87300   298.31873      364.82248     -1884.7385     -854.77053      1622.9304      6020.2434     -4503.2103     -35.631897      0.96819879     49057.604      80           
     87400   295.41437      338.73068     -1831.4165     -922.75279      1657.7559      6088.2986     -4619.5205     -33.634037      0.96896892     49018.613      80           
     87500   300.84827      240.11372     -1866.616      -982.26712      1612.3261      6108.2574     -4600.2346     -31.352072      0.96875429     49029.473      80           
     87600   302.66495      615.0027      -1811.7302     -667.42444      1633.193       6125.254      -4632.6301     -31.65945       0.97026638     48953.065      80           
     87700   303.41819      534.54605     -1856.5605     -735.33756      1618.5818      6090.9673     -4549.8739     -33.231074      0.96825205     49054.906      80           
     87800   306.07166      444.36319     -1859.6647     -742.91476      1616.3828      5987.8555     -4524.4583     -32.837477      0.96619281     49159.456      80           
     87900   299.51201      324.57941     -1902.9893     -936.69084      1608.6065      6216.5034     -4627.345      -33.505417      0.96504832     49217.756      80           
     88000   296.20594      580.92092     -1825.776      -681.58228      1596.5982      6115.755      -4591.6633     -32.410748      0.96629486     49154.264      80           
     88100   302.89978      278.56763     -1843.5977     -875.46548      1588.3162      6045.251      -4601.4557     -34.480708      0.9658667      49176.054      80           
     88200   296.17695      472.1038      -1829.9707     -845.80414      1615.3734      6198.156      -4633.2903     -32.360399      0.96557618     49190.85       80           
     88300   302.25822      358.46019     -1856.7081     -969.35071      1655.961       6197.5021     -4639.9844     -28.959658      0.96398406     49272.094      80           
     88400   301.58827      382.59845     -1810.435      -943.84669      1651.9139      6122.3659     -4609.5079     -27.891696      0.96449763     49245.857      80           
     88500   296.99714      604.72379     -1827.16       -679.27216      1636.8209      6064.3976     -4555.4519     -34.61071       0.9625475      49345.63       80           
     88600   296.98118      416.95893     -1821.7993     -809.03765      1602.9316      6161.5125     -4683.7105     -32.937663      0.96111994     49418.923      80           
     88700   299.9288       236.84862     -1837.0036     -966.95916      1651.6087      5989.017      -4568.168      -31.646271      0.95884793     49536.023      80           
     88800   302.32449      270.29272     -1855.2836     -932.97166      1604.2863      6088.818      -4603.6936     -30.862732      0.96007102     49472.915      80           
     88900   298.58508      629.60242     -1821.5557     -624.91743      1693.7931      6092.4421     -4679.0418     -31.117784      0.96193543     49377.028      80           
     89000   303.50174      523.97212     -1851.9974     -657.34819      1611.4429      6063.6468     -4609.0491     -32.722908      0.96112993     49418.41       80           
     89100   304.24417      409.17666     -1834.4987     -767.59334      1587.5836      5998.3542     -4541.6326     -33.036457      0.96223197     49361.811      80           
     89200   299.06475      439.53328     -1864.0346     -866.27772      1685.7755      6060.9396     -4544.9136     -31.956026      0.96237231     49354.613      80           
     89300   303.2419       336.85333     -1852.7247     -909.6884       1608.4894      6120.9113     -4596.4233     -33.71093       0.96287772     49328.707      80           
     89400   294.93563      514.53518     -1838.0789     -799.80951      1674.7896      6022.5616     -4516.3171     -28.610467      0.96380037     49281.484      80           
     89500   296.71213      485.11516     -1828.6416     -712.97614      1577.123       6124.6862     -4642.807      -32.269165      0.96437478     49252.131      80           
     89600   300.13019      483.45384     -1808.3151     -729.36787      1627.248       6015.9578     -4590.8419     -31.227112      0.96251027     49347.539      80           
     89700   302.33847      731.28418     -1794.8296     -595.00098      1624.1         6170.6581     -4643.5075     -30.135856      0.96105019     49422.51       80           
     89800   305.30082      591.02754     -1796.3524     -682.29006      1602.6439      6123.0579     -4621.9118     -34.12          0.95857274     49550.243      80           
     89900   301.23014      575.85423     -1834.6203     -739.8822       1618.6258      6159.5383     -4594.9986     -32.808758      0.9564925      49658.009      80           
     90000   298.71806      464.62949     -1813.6219     -810.86053      1677.3479      6075.8325     -4631.2705     -32.797957      0.95657068     49653.95       80           
     90100   293.4599       326.79895     -1858.2193     -909.83433      1647.7188      6062.605      -4589.5635     -25.907681      0.95736668     49612.665      80           
     90200   298.78956      323.31987     -1804.5333     -875.32829      1607.5462      6064.3412     -4634.7086     -33.997345      0.95969276     49492.415      80           
     90300   303.81776      394.3227      -1841.0268     -796.14178      1611.3445      6089.6063     -4637.3039     -32.155637      0.96078397     49436.204      80           
     90400   298.27973      648.954       -1800.6658     -665.98156      1658.9168      6163.4292     -4672.9412     -33.80346       0.96170266     49388.979      80           
     90500   297.10465      681.52902     -1847.5719     -618.93547      1663.5483      6084.6198     -4566.3859     -33.745874      0.96208219     49369.496      80           
     90600   298.09081      418.31535     -1861.2496     -739.89463      1567.5109      6008.6466     -4522.7721     -33.925822      0.96359098     49292.193      80           
     90700   290.51791      416.2024      -1841.609      -802.08285      1601.5864      6079.4285     -4591.6804     -29.440223      0.9646348      49238.854      80           
     90800   299.84307      357.61377     -1843.6383     -825.76025      1638.7582      6043.2429     -4621.9857     -33.003059      0.96598041     49170.265      80           
     90900   301.33367      460.31277     -1856.2755     -761.83634      1592.7775      6119.2837     -4602.068      -31.568553      0.9657707      49180.942      80           
     91000   301.46433      417.08694     -1863.043      -846.30456      1642.1271      6081.8942     -4564.7804     -32.806366      0.96464442     49238.364      80           
     91100   298.5088       646.35443     -1857.6232     -723.85422      1708.3382      6114.871      -4559.4986     -35.878883      0.96449215     49246.137      80           
     91200   307.7238       620.09466     -1839.4885     -694.65391      1689.5625      6105.6971     -4610.2546     -30.767883      0.96392678     49275.022      80           
     91300   306.17946      666.71148     -1857.456      -660.40003      1689.8645      6104.6439     -4578.3945     -31.546458      0.96198423     49374.523      80           
     91400   301.1631       548.65965     -1847.947      -707.79101      1667.5055      6004.5084     -4535.5192     -32.097168      0.96147454     49400.697      80           
     91500   298.05401      489.24938     -1811.4894     -774.30788      1658.8492      6101.9209     -4654.0452     -31.678341      0.96248935     49348.611      80           
     91600   302.73185      615.04004     -1847.0411     -584.07091      1621.3938      6094.541      -4637.0061     -32.776599      0.96302598     49321.112      80           
     91700   301.74315      610.57421     -1827.4776     -662.87521      1634.9064      6018.6717     -4519.648      -33.003066      0.96261481     49342.179      80           
     91800   304.95444      707.56241     -1803.0123     -583.09316      1629.6616      6252.9238     -4754.3654     -34.552144      0.96179219     49384.382      80           
     91900   301.83717      964.23551     -1833.8745     -408.34855      1668.5617      6160.7404     -4590.2783     -32.565195      0.95978084     49487.873      80           
     92000   301.07515      423.42992     -1846.6213     -806.81794      1631.382       6002.9665     -4524.6727     -32.806593      0.95762881     49599.085      80           
     92100   298.56631      449.1047      -1834.0991     -773.72255      1640.1788      6010.7692     -4559.2489     -34.77277       0.95688531     49637.624      80           
     92200   297.74285      516.92227     -1812.93       -757.26297      1631.6955      6102.0661     -4617.0802     -29.566133      0.95839052     49559.665      80           
     92300   303.66344      430.1306      -1824.7473     -848.75264      1640.4501      6112.6005     -4617.1087     -32.311336      0.96147724     49400.559      80           
     92400   300.72539      752.02192     -1826.3598     -611.27036      1715.1994      6163.467      -4655.2107     -33.803553      0.96409608     49266.369      80           
     92500   301.53094      527.8725      -1878.8671     -768.9572       1699.7681      6054.2765     -4545.8367     -32.511078      0.96538248     49200.72       80           
     92600   305.59263      321.4207      -1913.9824     -844.073        1634.4672      6136.6629     -4660.679      -30.974874      0.96673652     49131.808      80           
     92700   300.00471      361.94396     -1870.6609     -841.39439      1635.3161      6073.084      -4601.71       -32.690815      0.96834912     49049.988      80           
     92800   300.15801      425.14658     -1851.9229     -745.32088      1597.331       6126.7603     -4668.0955     -33.60542       0.96915246     49009.33       80           
     92900   295.69858      438.41303     -1878.2305     -851.6002       1683.0035      6110.1702     -4589.455      -35.474932      0.96834103     49050.398      80           
     93000   306.59021      201.35892     -1861.8549     -1019.6626      1691.4394      6037.3528     -4614.6141     -31.301649      0.96736951     49099.659      80           
     93100   304.08277      617.26224     -1832.9557     -680.59232      1675.2805      6008.3726     -4519.5673     -33.275509      0.96592018     49173.331      80           
     93200   299.6969       564.61452     -1891.6077     -733.88027      1700.1943      6139.8039     -4614.4707     -35.425015      0.96362346     49290.532      80           
     93300   299.01104      470.39226     -1816.5276     -728.33466      1678.7264      5987.8626     -4618.3093     -33.025234      0.96290221     49327.452      80           
     93400   299.44252      508.53478     -1888.7208     -684.55275      1638.6419      6028.5123     -4553.6546     -31.691242      0.96022863     49464.796      80           
     93500   291.70136      707.41229     -1817.23       -627.90159      1691.9247      6107.6368     -4615.1437     -31.873878      0.9599412      49479.606      80           
     93600   298.95948      502.01561     -1855.2845     -783.17234      1628.5423      6139.9114     -4597.3806     -30.60054       0.96130973     49409.167      80           
     93700   301.73055      595.58724     -1856.1891     -664.60147      1662.166       6123.7964     -4637.0526     -32.531874      0.96268735     49338.461      80           
     93800   300.79553      346.45167     -1861.6565     -915.73951      1692.6304      6001.4687     -4535.4257     -34.825647      0.96409933     49266.202      80           
     93900   306.18321      409.38419     -1870.6642     -732.9464       1622.861       5972.438      -4549.5718     -32.732511      0.96281503     49331.919      80           
     94000   297.85024      273.11901     -1845.9755     -895.34773      1614.2901      6057.0425     -4621.2909     -35.599443      0.96156067     49396.272      80           
     94100   292.69451      421.00873     -1835.8383     -825.86925      1713.5714      6055.693      -4654.5492     -31.998961      0.96308663     49318.006      80           
     94200   299.66882      434.36354     -1855.5609     -814.04437      1653.086       6086.1574     -4603.1844     -32.090182      0.96544952     49197.303      80           
     94300   299.01051      718.06266     -1833.8595     -589.11201      1669.1049      6169.1382     -4663.823      -33.385983      0.96639383     49149.23       80           
     94400   303.18264      434.18761     -1833.0934     -794.30405      1621.0158      6072.3224     -4598.4077     -33.345518      0.96445026     49248.276      80           
     94500   299.47281      435.18712     -1846.7728     -829.13331      1655.6864      6108.1514     -4621.8184     -30.926163      0.96230555     49358.036      80           
     94600   298.23964      292.91203     -1847.3726     -908.83691      1678.587       5985.9122     -4581.4596     -33.918164      0.96102157     49423.982      80           
     94700   295.9216       450.98062     -1867.6451     -731.19104      1625.5462      6080.1886     -4623.8496     -32.068467      0.96054519     49448.493      80           
     94800   300.34236      576.40001     -1868.8972     -659.11006      1661.7817      6010.7299     -4535.7816     -32.322806      0.9612355      49412.982      80           
     94900   300.78581      550.36956     -1793.9782     -777.74957      1655.8264      6208.1617     -4711.978      -29.912791      0.96432905     49254.466      80           
     95000   301.48791      503.19348     -1838.8032     -797.07578      1634.2741      6119.6828     -4579.742      -35.142426      0.96708641     49114.032      80           
     95100   300.59141      456.86988     -1814.8002     -788.73798      1684.2862      6032.6736     -4621.8038     -34.748063      0.96886636     49023.802      80           
     95200   298.42968      304.08        -1835.5691     -920.96384      1626.2876      6115.3293     -4646.0574     -34.946576      0.96779926     49077.856      80           
     95300   300.5132       277.71534     -1817.0749     -941.31191      1598.6082      6184.873      -4712.8365     -34.542536      0.96746877     49094.621      80           
     95400   305.22864      385.62009     -1863.4218     -938.14656      1644.7934      6119.6305     -4547.2407     -29.994688      0.96557709     49190.803      80           
     95500   305.06941      450.00043     -1818.2302     -851.62995      1708.8586      6068.1541     -4623.707      -33.44505       0.96343851     49299.994      80           
     95600   302.13261      628.69338     -1876.6761     -602.98225      1646.3033      6014.405      -4519.564      -32.792505      0.96021936     49465.273      80           
     95700   297.4766       459.17939     -1822.2011     -798.59001      1660.922       6008.7184     -4557.5505     -32.119381      0.96073166     49438.896      80           
     95800   298.06637      435.57637     -1840.7465     -791.35152      1638.3527      6054.0238     -4594.1268     -30.575351      0.96223365     49361.725      80           
     95900   302.40264      554.55028     -1837.6467     -722.65471      1650.7326      6111.5351     -4614.6861     -32.729949      0.96398625     49271.982      80           
     96000   304.03855      854.91499     -1852.7066     -481.91929      1715.2123      6097.8718     -4588.2503     -35.293052      0.963905       49276.135      80           
     96100   300.88236      790.82592     -1870.9993     -533.40865      1649.8573      6094.9436     -4516.9775     -32.589533      0.96377702     49282.678      80           
     96200   302.72069      466.26621     -1869.145      -771.81418      1599.4779      6143.9135     -4603.5647     -32.601267      0.96413445     49264.408      80           
     96300   303.90385      587.19597     -1849.863      -575.53048      1640.1457      6021.2995     -4618.4216     -30.434201      0.96510455     49214.888      80           
     96400   298.77864      592.12058     -1852.4088     -631.97357      1652.0684      6101.0302     -4640.6407     -35.954968      0.96386299     49278.282      80           
     96500   299.70457      572.31463     -1816.5168     -659.13722      1609.3531      6061.9522     -4589.488      -33.848581      0.9634916      49297.277      80           
     96600   302.80325      660.33553     -1815.1587     -665.90393      1686.6655      6091.756      -4602.5175     -34.505874      0.96320584     49311.903      80           
     96700   302.0533       806.16887     -1800.7471     -558.48667      1678.719       6168.3367     -4647.1892     -34.46383       0.96260399     49342.734      80           
     96800   303.13854      788.06724     -1847.1484     -471.48926      1635.3691      6102.9793     -4600.6672     -30.97636       0.9593484      49510.181      80           
     96900   303.15996      669.24805     -1827.7761     -526.86174      1553.3548      6037.332      -4537.5032     -29.297689      0.95673248     49645.552      80           
     97000   296.2662       617.12668     -1828.3544     -690.33355      1657.448       6156.9125     -4643.2401     -35.305758      0.95447211     49763.123      80           
     97100   301.55991      427.87467     -1805.5254     -844.19621      1683.4898      6012.3838     -4585.2124     -33.064894      0.95325844     49826.48       80           
     97200   302.71925      481.43438     -1810.9883     -788.33278      1664.6899      6009.2917     -4560.5351     -32.691024      0.95263007     49859.346      80           
     97300   302.56469      451.92406     -1791.2244     -880.6645       1710.9487      6107.7203     -4661.3588     -33.497204      0.95231329     49875.932      80           
     97400   298.19783      625.45789     -1789.2044     -749.0077       1652.8242      6177.1986     -4633.8954     -32.457494      0.9544754      49762.951      80           
     97500   300.01882      574.39448     -1823.4152     -667.12056      1639.9421      6051.362      -4594.417      -31.956914      0.95817724     49570.696      80           
     97600   295.64014      638.85163     -1823.3462     -610.41768      1673.0813      6006.0272     -4574.7646     -31.728358      0.96109504     49420.204      80           
     97700   298.8085       547.25179     -1865.8475     -683.47936      1688.4524      6065.317      -4626.032      -31.158776      0.96236128     49355.178      80           
     97800   306.57392      527.76347     -1806.8312     -740.98456      1686.9323      6105.1033     -4681.4051     -35.051262      0.96302736     49321.042      80           
     97900   298.208        793.07606     -1837.189      -624.09367      1747.481       6112.0791     -4572.287      -32.914383      0.96383973     49279.471      80           
     98000   302.7894       640.98751     -1852.6763     -627.3032       1682.9885      6048.0773     -4575.0173     -35.081469      0.96133329     49407.956      80           
     98100   298.94656      672.23387     -1822.0451     -574.04733      1659.7265      6029.1383     -4585.1494     -35.389209      0.95898644     49528.868      80           
     98200   297.75784      437.37108     -1815.2104     -807.70159      1646.007       6015.7091     -4566.1739     -35.259174      0.95732101     49615.032      80           
     98300   304.28128      400.56052     -1835.4355     -800.36177      1630.1602      6057.0259     -4623.3455     -27.482777      0.95618228     49674.12       80           
     98400   303.14143      495.78608     -1805.4054     -877.71899      1689.6254      6159.639      -4636.5667     -33.787203      0.9570007      49631.638      80           
     98500   307.43786      401.90836     -1840.264      -898.46208      1666.99        6074.3063     -4570.5999     -30.06191       0.95880151     49538.421      80           
     98600   300.06583      483.68389     -1849.5498     -840.47497      1668.7757      6091.3819     -4555.5478     -30.901134      0.9624093      49352.716      80           
     98700   302.15892      442.74874     -1837.3005     -778.04943      1673.9796      6090.7702     -4674.9079     -31.743257      0.96592165     49173.256      80           
     98800   299.93501      514.71544     -1857.7947     -703.48444      1648.9455      6074.981      -4617.5236     -30.408345      0.96718141     49109.208      80           
     98900   297.17124      452.69762     -1838.3357     -783.5142       1656.3151      6008.7711     -4558.7217     -31.816945      0.96822531     49056.26       80           
     99000   298.11902      645.34885     -1830.6284     -642.24943      1717.4864      6075.5565     -4642.3558     -32.460483      0.96728998     49103.696      80           
     99100   306.08174      641.95495     -1839.353      -660.26003      1667.3004      6145.2078     -4642.0462     -28.893965      0.9643034      49255.777      80           
     99200   299.81345      532.62501     -1830.1114     -802.5713       1700.453       6088.5741     -4592.6264     -31.092997      0.95920894     49517.379      80           
     99300   299.51276      412.65326     -1814.51       -847.63493      1666.7735      6097.4937     -4658.4987     -30.97027       0.95412087     49781.442      80           
     99400   301.84451      579.98299     -1837.2447     -645.48545      1661.4881      6061.6495     -4629.5192     -30.905205      0.95131264     49928.394      80           
     99500   300.71617      485.24918     -1833.9822     -789.20218      1648.1929      6144.1098     -4649.8054     -34.063709      0.95063484     49963.993      80           
     99600   299.75484      535.25845     -1828.2055     -800.24736      1638.6098      6118.4733     -4561.027      -32.344795      0.95162228     49912.148      80           
     99700   301.35564      581.59637     -1821.7364     -826.50444      1706.1681      6104.457      -4550.3326     -30.455253      0.95320734     49829.151      80           
     99800   303.94827      589.44896     -1797.4382     -781.99565      1733.7619      6160.6097     -4696.0224     -29.466491      0.95613378     49676.639      80           
     99900   297.69846      682.08291     -1825.2601     -631.75267      1685.6611      6056.5471     -4571.5633     -31.549072      0.95829079     49564.822      80           
    100000   298.443        537.17238     -1838.9661     -726.00774      1662.9668      6175.24       -4705.3557     -30.704873      0.95891755     49532.426      80           
    100100   295.03015      695.08818     -1823.8296     -624.5824       1662.0139      6194.2975     -4679.1721     -33.639155      0.95823359     49567.781      80           
    100200   297.43186      594.93441     -1851.0186     -694.55783      1692.4726      6093.9858     -4615.5401     -30.407483      0.95707596     49627.736      80           
    100300   298.18586      567.24283     -1811.3202     -747.4972       1704.7574      6017.0586     -4562.771      -32.984729      0.95782928     49588.704      80           
    100400   302.47901      637.20117     -1846.7898     -621.78185      1664.0023      6138.1449     -4668.0568     -28.317518      0.96050327     49450.652      80           
    100500   300.05543      633.64429     -1808.6049     -691.66204      1702.1452      6036.8776     -4575.8485     -29.263093      0.96331887     49306.117      80           
    100600   308.61892      417.43198     -1865.9357     -773.93388      1635.9821      6132.3635     -4677.833      -33.211021      0.96295083     49324.962      80           
    100700   298.44484      278.41922     -1844.6376     -966.5975       1685.1007      6124.297      -4689.4153     -30.328066      0.96130703     49409.306      80           
    100800   298.46674      177.55503     -1840.4048     -1009.4759      1648.9289      5999.5098     -4591.4698     -29.533105      0.96041927     49454.977      80           
    100900   300.0248       396.99568     -1835.322      -802.15456      1631.9951      6062.3538     -4629.7555     -30.121205      0.95981493     49486.116      80           
    101000   302.55301      441.6381      -1833.1458     -805.45447      1643.7703      6088.016      -4618.2023     -33.345635      0.9585093      49553.523      80           
    101100   306.32799      383.86916     -1834.1453     -830.75754      1664.0053      6109.6644     -4693.3053     -31.59249       0.95748227     49606.676      80           
    101200   299.89759      386.49441     -1828.7615     -893.87792      1651.8844      6105.5563     -4615.5358     -32.771044      0.95608916     49678.957      80           
    101300   301.25941      505.17587     -1809.3056     -691.22546      1653.3357      6056.0418     -4672.6024     -31.068101      0.95631804     49667.068      80           
    101400   295.54668      499.92052     -1830.2291     -749.46795      1663.7228      6015.3692     -4568.4317     -31.042632      0.95603641     49681.699      80           
    101500   301.03406      390.99729     -1852.0958     -822.58452      1647.3971      6137.5211     -4689.1584     -30.082197      0.95413019     49780.955      80           
    101600   301.62628      733.21705     -1832.2934     -570.5568       1659.2316      6192.7504     -4684.341      -31.573787      0.95081188     49954.69       80           
    101700   306.21889      477.0039      -1826.6053     -782.11684      1622.864       6108.8484     -4613.586      -32.400415      0.94869335     50066.244      80           
    101800   298.68534      545.33861     -1828.2245     -728.97853      1674.2489      6036.8515     -4575.9021     -32.656713      0.94875053     50063.227      80           
    101900   295.52054      555.54483     -1846.9931     -706.94304      1623.6761      6148.996      -4629.3851     -33.806016      0.9487963      50060.811      80           
    102000   299.64909      483.26571     -1791.9384     -741.16929      1668.5096      6072.663      -4694.0023     -30.79688       0.94878987     50061.151      80           
    102100   296.72478      605.23631     -1823.7267     -699.73393      1684.6031      6111.0309     -4632.4684     -34.468688      0.9484483      50079.18       80           
    102200   300.47849      611.31558     -1835.269      -673.24347      1671.5964      6105.1168     -4623.26       -33.625164      0.95028265     49982.511      80           
    102300   303.63426      522.24395     -1829.1286     -749.16872      1643.432       6072.934      -4585.8208     -30.003933      0.95571232     49698.546      80           
    102400   302.61829      469.36499     -1838.5443     -766.36458      1668.2222      6077.8539     -4640.2352     -31.567073      0.96069632     49440.715      80           
    102500   297.49661      391.01233     -1851.3342     -812.52048      1623.9746      6099.4734     -4637.5304     -31.050614      0.96477729     49231.583      80           
    102600   298.94999      312.30489     -1862.5426     -863.20262      1647.5418      6112.7655     -4689.5254     -32.73176       0.96791314     49072.081      80           
    102700   300.22062      328.75213     -1879.2758     -888.53825      1635.277       6056.3013     -4560.6042     -34.407916      0.96909755     49012.107      80           
    102800   301.08512      429.18218     -1845.6859     -897.40696      1723.3745      6105.7183     -4625.4421     -31.37567       0.96878785     49027.775      80           
    102900   303.22766      242.14066     -1868.5503     -1036.4856      1673.9932      6140.5206     -4635.7918     -31.545391      0.96748746     49093.673      80           
    103000   298.33459      388.12095     -1878.5278     -900.83084      1690.6579      6070.3196     -4561.1024     -32.395483      0.96695213     49120.852      80           
    103100   301.46897      328.29002     -1864.1023     -883.78342      1637.5479      6121.9971     -4649.6812     -33.688172      0.96635909     49150.997      80           
    103200   301.19336      563.74595     -1850.18       -624.70306      1630.0422      6056.9434     -4615.8804     -32.476226      0.96413511     49264.374      80           
    103300   295.37617      457.52789     -1849.1901     -798.41646      1592.5506      6247.9704     -4702.1893     -33.197246      0.96190752     49378.461      80           
    103400   297.52933      535.00772     -1842.2233     -679.05321      1635.4217      6063.661      -4612.8181     -29.980417      0.96112752     49418.534      80           
    103500   299.35128      461.33951     -1842.9353     -796.45421      1629.7448      6173.783      -4669.1403     -33.658432      0.96179191     49384.396      80           
    103600   301.92722      559.04088     -1816.4949     -750.98259      1685.8534      6094.5831     -4620.0653     -33.852858      0.96177118     49385.46       80           
    103700   299.18806      563.31371     -1856.5111     -781.9758       1712.5773      6122.9208     -4599.0646     -34.632933      0.96141443     49403.786      80           
    103800   297.75648      507.95138     -1848.3729     -748.87991      1638.9936      6152.6906     -4651.811      -34.66912       0.96258086     49343.919      80           
    103900   291.12845      481.61814     -1854.3943     -783.98095      1642.0095      6186.2165     -4674.5121     -33.720498      0.96205509     49370.886      80           
    104000   298.18742      429.92607     -1862.6278     -773.18387      1649.5717      6077.2181     -4629.1759     -31.876093      0.9616659      49390.867      80           
    104100   300.33995      597.99394     -1819.2498     -647.53679      1672.1149      6062.0198     -4635.8742     -33.480007      0.96074501     49438.209      80           
    104200   300.66685      565.5764      -1850.2726     -732.8119       1738.0556      6040.1781     -4596.8007     -32.772112      0.95920581     49517.541      80           
    104300   300.51995      616.36933     -1829.6348     -681.55185      1712.3002      6097.2915     -4649.6615     -32.374247      0.95956953     49498.771      80           
    104400   297.80571      451.89187     -1836.894      -811.93163      1690.1313      6034.3131     -4591.6304     -32.096506      0.9591943      49518.135      80           
    104500   295.91552      424.78589     -1814.0913     -732.20636      1623.0406      6134.8435     -4752.1275     -34.673087      0.95842314     49557.978      80           
    104600   294.41961      573.6731      -1822.7102     -630.03687      1657.1093      6063.0498     -4663.8124     -29.926529      0.95754515     49603.418      80           
    104700   300.20195      640.39107     -1835.8011     -562.74986      1650.9106      6052.604      -4631.9225     -32.65011       0.95869273     49544.042      80           
    104800   302.95578      433.36192     -1866.3684     -773.00764      1634.6607      6157.5837     -4688.3796     -31.126849      0.9602712      49462.603      80           
    104900   299.95985      550.89827     -1837.0008     -707.42027      1616.7733      6061.9265     -4554.666      -28.71441       0.96150318     49399.226      80           
    105000   301.36086      552.58789     -1826.13       -765.49207      1674.9924      6124.0496     -4621.2628     -33.569159      0.96222401     49362.219      80           
    105100   304.42517      674.49624     -1865.534      -680.99519      1669.7129      6118.8749     -4533.8414     -33.721116      0.96206212     49370.526      80           
    105200   301.90094      582.84807     -1817.076      -698.76272      1645.6024      6224.2531     -4737.7738     -33.394934      0.96188037     49379.854      80           
    105300   299.46764      425.41824     -1834.4472     -819.87159      1617.8806      6023.3129     -4529.8081     -31.648349      0.95885485     49535.665      80           
    105400   301.25361      420.83073     -1811.4256     -792.9572       1602.082       6124.263      -4665.9862     -35.145254      0.95618363     49674.049      80           
    105500   301.37826      439.41658     -1807.0935     -811.32151      1641.616       6120.2676     -4675.3317     -28.720362      0.95224485     49879.516      80           
    105600   297.53338      583.77087     -1830.6723     -741.88608      1638.2902      6146.128      -4595.7165     -32.37246       0.94935639     50031.277      80           
    105700   302.23585      369.29937     -1848.6658     -922.3611       1657.451       6030.6446     -4516.9115     -30.857871      0.94885722     50057.597      80           
    105800   297.4687       634.55079     -1785.3304     -780.43078      1706.0181      6162.1183     -4634.1816     -33.642859      0.95069894     49960.624      80           
    105900   297.66402      637.50575     -1811.7269     -779.34403      1712.5058      6213.0779     -4664.8431     -32.164009      0.95301441     49839.239      80           
    106000   299.84588      395.22838     -1844.9039     -885.6472       1654.9679      6040.6958     -4537.6959     -32.188256      0.95634094     49665.878      80           
    106100   298.7637       460.47221     -1827.8647     -756.57154      1647.0091      6065.6326     -4637.1713     -30.561882      0.96143026     49402.972      80           
    106200   297.54933      380.08918     -1814.9285     -851.89891      1646.362       6090.9707     -4660.7983     -29.617774      0.9640319      49269.648      80           
    106300   300.79593      497.16421     -1836.2019     -715.53092      1630.7507      6105.5584     -4653.4678     -33.944196      0.96597413     49170.585      80           
    106400   304.2583       393.14577     -1809.5715     -900.19934      1657.2014      6113.0214     -4636.7458     -30.560382      0.96589882     49174.418      80           
    106500   305.11001      492.40931     -1804.3792     -806.31488      1657.2105      6157.3149     -4677.7494     -33.672587      0.9651466      49212.744      80           
    106600   298.73191      423.07466     -1807.8319     -895.26545      1665.7535      6189.8024     -4697.7863     -31.597634      0.96371603     49285.797      80           
    106700   300.88084      233.69137     -1834.205      -1004.5842      1673.4445      5993.4112     -4563.3733     -31.001856      0.96123291     49413.115      80           
    106800   294.01159      351.79011     -1821.1744     -981.24314      1668.0398      6076.1147     -4554.7048     -35.242026      0.95975757     49489.073      80           
    106900   301.87981      513.8018      -1868.1518     -693.96987      1609.8178      6108.5796     -4610.7922     -31.681738      0.95900495     49527.912      80           
    107000   298.94908      523.10706     -1847.7017     -754.0275       1630.4162      6092.401      -4564.3437     -33.637245      0.95975448     49489.233      80           
    107100   301.69348      530.37078     -1793.8475     -767.88696      1641.7496      6160.5119     -4677.2057     -32.950569      0.96156527     49396.036      80           
    107200   304.8219       545.57412     -1857.8356     -740.11828      1674.6698      6172.1149     -4670.9899     -32.266781      0.96094129     49428.111      80           
    107300   302.17699      268.22812     -1832.4821     -961.76254      1679.207       6067.4138     -4656.4227     -27.725357      0.95859953     49548.859      80           
    107400   295.00428      416.29833     -1796.2649     -819.99111      1605.515       6036.1182     -4575.6189     -33.459984      0.9560791      49679.48       80           
    107500   297.53944      441.09002     -1823.3976     -810.34007      1631.2635      6188.1454     -4714.1171     -30.464095      0.95397658     49788.971      80           
    107600   301.99481      515.3115      -1816.6315     -710.42565      1645.1681      5974.2682     -4547.171      -29.896634      0.95302607     49838.629      80           
    107700   298.76352      765.56261     -1789.7992     -616.81968      1721.2269      6217.3017     -4733.7239     -32.623282      0.95095768     49947.031      80           
    107800   305.22949      650.87802     -1840.7122     -742.30545      1693.5756      6153.93       -4578.8229     -34.787041      0.95087937     49951.144      80           
    107900   313.38091      316.41742     -1816.9225     -886.16522      1634.5723      6106.2452     -4688.6063     -32.705989      0.95316988     49831.11       80           
    108000   303.95854      393.21603     -1846.6358     -847.07504      1642.2418      6003.6783     -4527.5947     -31.398611      0.9559675      49685.28       80           
    108100   299.14437      329.50763     -1849.3979     -918.60195      1615.5655      6117.7722     -4601.772      -34.058207      0.95699332     49632.021      80           
    108200   300.18187      189.74839     -1816.6068     -995.19807      1603.632       6024.1349     -4594.2112     -32.002481      0.95827123     49565.834      80           
    108300   300.18672      325.07755     -1858.4332     -855.42736      1665.6428      5996.0233     -4587.3401     -35.387829      0.95971183     49491.432      80           
    108400   300.76456      476.45027     -1844.6366     -761.00179      1650.805       6094.4088     -4632.1928     -30.932339      0.96168873     49389.695      80           
    108500   305.28477      481.77044     -1834.1695     -773.95638      1623.7995      6089.5109     -4589.8349     -33.579236      0.96486292     49227.213      80           
    108600   299.9439       629.42475     -1832.9152     -683.03038      1661.3124      6151.919      -4636.8364     -31.024618      0.96706923     49114.904      80           
    108700   297.69898      533.12031     -1862.4223     -695.55343      1686.3733      6096.464      -4660.4857     -31.255553      0.96592073     49173.303      80           
    108800   296.5141       455.7923      -1844.8076     -760.78248      1634.9308      6118.4788     -4661.3795     -30.64771       0.96322263     49311.043      80           
    108900   302.83349      410.44952     -1811.0215     -754.33253      1600.7069      6048.6842     -4645.0598     -28.5277        0.95901528     49527.378      80           
    109000   298.78338      314.2237      -1808.4646     -995.55326      1675.3256      6153.7464     -4678.5159     -32.314525      0.9546129      49755.783      80           
    109100   300.03936      447.77645     -1796.1628     -898.70988      1707.5205      6094.9933     -4626.7831     -33.081581      0.95295754     49842.213      80           
    109200   305.5          415.16139     -1846.9162     -816.7514       1648.6196      6093.7405     -4628.2899     -35.241261      0.95251685     49865.273      80           
    109300   293.61761      295.3549      -1826.4528     -945.73565      1668.076       6031.8899     -4603.5338     -28.88882       0.95250969     49865.648      80           
    109400   293.90086      591.69586     -1791.9067     -656.4613       1652.8324      6138.066      -4715.9297     -34.90491       0.95345924     49815.987      80           
    109500   304.64374      482.06777     -1870.3062     -683.62775      1634.0827      6018.3093     -4584.8229     -31.567333      0.95530905     49719.525      80           
    109600   304.69158      600.75205     -1839.0588     -609.75036      1641.1446      6120.6653     -4679.0709     -33.177829      0.95677532     49643.33       80           
    109700   297.38898      701.60611     -1829.7284     -601.39096      1665.4343      6189.7994     -4685.3477     -37.160542      0.95724663     49618.887      80           
    109800   294.04244      544.47417     -1806.8935     -697.39019      1585.5356      6143.034      -4646.0767     -33.735081      0.95548548     49710.345      80           
    109900   294.52513      541.89569     -1821.0021     -633.78153      1605.7674      6015.5669     -4590.0892     -34.56573       0.95382472     49796.899      80           
    110000   300.02968      400.28792     -1857.7318     -781.94331      1629.607       6067.6439     -4624.4433     -32.844701      0.95263827     49858.917      80           
    110100   300.31189      291.65902     -1820.7887     -937.28014      1618.392       6073.1963     -4608.4659     -33.394528      0.95518511     49725.977      80           
    110200   299.33809      179.97036     -1820.2669     -1090.681       1701.1472      6128.1851     -4708.3447     -30.069369      0.95935279     49509.954      80           
    110300   297.39848      200.60804     -1808.2909     -1075.8943      1671.0823      6069.3818     -4624.5672     -31.10365       0.96260424     49342.721      80           
    110400   294.44664      341.49423     -1843.3385     -931.73618      1673.6335      6119.7869     -4645.699      -31.152536      0.96551741     49193.844      80           
    110500   296.93589      275.11001     -1886.4328     -903.86801      1597.6317      6151.6489     -4653.7761     -30.093775      0.96646646     49145.536      80           
    110600   295.87083      363.63607     -1859.6015     -800.33447      1615.2494      6134.4379     -4697.0495     -29.065804      0.96703646     49116.569      80           
    110700   298.69659      389.15652     -1852.2969     -835.2099       1647.1726      6032.0606     -4571.2109     -31.358957      0.96777862     49078.903      80           
    110800   301.30838      376.45048     -1862.1004     -886.56731      1689.069       6093.6207     -4623.2201     -34.351364      0.96749841     49093.117      80           
    110900   302.20294      452.85192     -1836.7498     -791.22545      1660.0717      6129.1807     -4676.092      -32.333186      0.96765317     49085.266      80           
    111000   299.84819      382.09638     -1884.916      -785.65174      1620.8111      6103.4023     -4638.1911     -33.358098      0.96762039     49086.928      80           
    111100   301.15717      240.65342     -1874.9531     -884.24603      1590.6765      6119.0453     -4679.3339     -30.535255      0.96602581     49167.954      80           
    111200   299.63395      468.32593     -1867.7046     -691.78153      1627.0201      6111.575      -4678.9114     -31.871657      0.96597694     49170.441      80           
    111300   301.43514      423.87359     -1860.9367     -738.21742      1621.4985      6114.468      -4680.3678     -32.57109       0.96601117     49168.699      80           
    111400   302.64435      405.09066     -1877.5166     -794.05311      1632.0917      6151.573      -4675.1292     -31.875182      0.96582802     49178.023      80           
    111500   298.92239      322.58176     -1859.4045     -969.0047       1690.4916      6165.2995     -4669.2113     -35.588788      0.96529288     49205.287      80           
    111600   300.87498      388.03934     -1839.2483     -878.89063      1654.627       6115.8392     -4632.0929     -32.195004      0.96358577     49292.46       80           
    111700   297.16607      395.60295     -1843.8242     -869.7725       1659.774       6139.2409     -4652.7995     -37.015747      0.96272865     49336.345      80           
    111800   292.1366       474.43368     -1838.7279     -795.86631      1650.6747      6180.1841     -4687.3988     -34.432194      0.96484752     49227.999      80           
    111900   295.68992      273.77859     -1892.7745     -932.40725      1660.1213      6088.9631     -4616.8615     -33.262537      0.96735036     49100.63       80           
    112000   301.88323      446.98857     -1858.583      -749.81179      1647.6738      6096.5449     -4656.1481     -32.687159      0.97059172     48936.656      80           
    112100   303.3789       478.00442     -1888.3893     -787.39122      1658.7111      6109.6726     -4581.6372     -32.961484      0.97254237     48838.502      80           
    112200   304.36892      358.4098      -1884.285      -853.46889      1625.7717      6140.0422     -4637.7974     -31.852751      0.97360493     48785.201      80           
    112300   296.37127      318.94875     -1897.6122     -949.98739      1708.4907      6138.7327     -4649.8579     -30.817236      0.97203877     48863.805      80           
    112400   296.73095      436.76847     -1868.7633     -790.4668       1663.7581      6030.9133     -4564.8832     -33.789602      0.96904186     49014.924      80           
    112500   299.45212      331.97317     -1865.1083     -871.05985      1614.0399      6134.0466     -4648.4482     -31.496979      0.96596358     49171.121      80           
    112600   302.44443      308.16638     -1865.6327     -897.83061      1686.5478      6132.4055     -4713.3361     -33.987467      0.96398775     49271.905      80           
    112700   302.39197      362.82912     -1878.5582     -845.5018       1675.1153      6110.3814     -4665.5259     -33.081712      0.96423609     49259.215      80           
    112800   302.10331      334.31525     -1874.011      -908.078        1667.058       6022.4329     -4539.3132     -33.773473      0.96519545     49210.253      80           
    112900   301.86505      582.79395     -1877.4874     -720.16898      1690.1433      6139.4632     -4616.858      -32.298214      0.96691325     49122.827      80           
    113000   302.95722      446.27738     -1862.2084     -814.37861      1683.9052      6179.9075     -4703.608      -37.34037       0.96880106     49027.106      80           
    113100   298.59131      313.13832     -1869.0575     -900.24719      1658.3833      6060.7338     -4606.0825     -30.591548      0.9709645      48917.867      80           
    113200   300.7357       190.91444     -1891.0041     -967.44808      1637.1836      6067.6845     -4622.7771     -32.72434       0.97294732     48818.175      80           
    113300   299.48152      317.7747      -1829.4723     -858.79483      1632.7445      6029.674      -4626.0816     -30.29508       0.97385276     48772.786      80           
    113400   300.87321      338.04266     -1846.2971     -796.22686      1613.4894      6108.836      -4707.0713     -34.687374      0.9721138      48860.033      80           
    113500   296.61711      279.97484     -1893.7456     -914.61327      1633.0089      6110.2624     -4621.7908     -33.146839      0.96743767     49096.2        80           
    113600   294.99193      301.84659     -1870.2774     -994.31272      1676.7614      6110.5666     -4589.5398     -31.351509      0.96359903     49291.781      80           
    113700   304.0506       451.19929     -1862.8511     -785.23752      1742.9426      6069.5618     -4680.7582     -32.458219      0.95963045     49495.629      80           
    113800   305.28764      414.66837     -1842.6251     -785.24543      1644.6555      6022.6869     -4592.3348     -32.468646      0.95583584     49692.123      80           
    113900   295.09696      385.79327     -1862.928      -839.32902      1615.3835      6135.7928     -4629.781      -33.345049      0.95253157     49864.502      80           
    114000   296.07321      428.00788     -1871.0936     -735.12028      1669.108       6024.8907     -4626.3425     -33.434434      0.9524735      49867.542      80           
    114100   292.76648      450.7046      -1849.1081     -797.37716      1672.5872      6069.4795     -4608.5911     -36.285795      0.95883292     49536.798      80           
    114200   297.69639      587.75833     -1865.8234     -653.16265      1691.4468      6114.3406     -4665.7168     -33.326298      0.96596732     49170.931      80           
    114300   300.47254      491.07361     -1866.8847     -723.09389      1624.763       6154.5662     -4667.0225     -31.25442       0.97141891     48894.985      80           
    114400   301.41755      432.45012     -1892.9672     -779.21973      1633.1414      6147.3179     -4643.8142     -32.008049      0.97283802     48823.66       80           
    114500   300.46169      171.81723     -1867.9791     -933.06919      1581.322       6034.9012     -4612.1079     -31.249678      0.9728436      48823.38       80           
    114600   296.58426      155.85758     -1896.3627     -950.26761      1607.9888      6065.7329     -4638.2162     -33.017629      0.96819006     49058.046      80           
    114700   299.54245      255.13713     -1859.4132     -866.72154      1596.4732      6105.3352     -4687.5271     -33.009337      0.96416625     49262.783      80           
    114800   299.11651      280.78429     -1855.1247     -918.83813      1634.8267      6122.6281     -4669.8544     -32.853271      0.96032577     49459.792      80           
    114900   297.30634      622.2567      -1865.1141     -641.39745      1644.0969      6229.2803     -4712.9619     -31.647046      0.96023638     49464.396      80           
    115000   302.51553      356.78277     -1878.0588     -838.49068      1632.9754      6159.6094     -4688.328      -30.924599      0.96107692     49421.136      80           
    115100   299.74691      338.99335     -1863.6567     -885.68603      1610.0294      6151.3833     -4639.7489     -33.327772      0.96331271     49306.432      80           
    115200   291.25007      378.0255      -1838.1023     -896.99562      1691.3456      6102.4312     -4647.5145     -33.138972      0.96630519     49153.738      80           
    115300   296.79444      405.34308     -1890.1083     -680.49783      1581.1458      6013.4239     -4587.39       -31.230505      0.96883471     49025.404      80           
    115400   298.03963      395.47313     -1873.9065     -717.38478      1627.1091      6010.3766     -4617.9233     -32.79803       0.96976154     48978.549      80           
    115500   301.11388      295.0358      -1847.9804     -887.16715      1639.8373      6032.3533     -4609.7058     -32.301408      0.97028207     48952.273      80           
    115600   307.06894      196.66504     -1864.7435     -914.2941       1647.3961      6017.8321     -4658.2751     -31.250457      0.96703129     49116.831      80           
    115700   301.44423      370.58818     -1822.6129     -826.6268       1630.3297      6106.321      -4680.2417     -36.581088      0.96486871     49226.918      80           
    115800   305.01148      313.80175     -1882.4322     -843.50711      1659.6033      6090.4609     -4677.8559     -32.467238      0.96348712     49297.507      80           
    115900   300.37634      519.67451     -1830.407      -713.76764      1696.8019      6106.0876     -4706.1406     -32.899713      0.96207288     49369.973      80           
    116000   298.31115      517.83172     -1868.1436     -705.43583      1664.4595      6091.8795     -4635.2989     -29.628824      0.96033734     49459.196      80           
    116100   295.19864      430.54684     -1863.3924     -779.78897      1671.954       6078.1226     -4645.6663     -30.682173      0.96041604     49455.143      80           
    116200   294.034        379.52332     -1860.2334     -817.20298      1572.7366      6205.3233     -4687.4309     -33.66925       0.96107973     49420.991      80           
    116300   302.34066      411.31586     -1847.8941     -744.44692      1604.7852      6076.7491     -4645.3057     -32.571707      0.96202826     49372.263      80           
    116400   300.99936      522.25862     -1831.4964     -767.26326      1679.7006      6222.3382     -4748.139      -32.881502      0.96281912     49331.709      80           
    116500   305.87296      350.19969     -1865.8313     -820.17474      1676.9202      6018.1088     -4625.8107     -33.012521      0.9626457      49340.596      80           
    116600   296.36763      526.77778     -1842.2815     -726.45976      1662.2676      6077.4917     -4614.6063     -29.63404       0.96065734     49442.721      80           
    116700   296.93203      290.45335     -1833.9495     -914.63399      1615.4061      6083.465      -4624.1338     -35.700476      0.95768267     49596.296      80           
    116800   300.97785      326.19685     -1850.4339     -838.86815      1642.657       6043.732      -4637.8355     -33.054651      0.95560235     49704.265      80           
    116900   300.30849      316.3862      -1800.8046     -882.98069      1624.2565      6078.4104     -4668.5871     -33.908383      0.95544297     49712.557      80           
    117000   296.11037      493.53048     -1790.1584     -807.97698      1663.7379      6120.3896     -4659.6043     -32.857431      0.9547371      49749.311      80           
    117100   298.0331       385.62653     -1819.9079     -960.06573      1739.5014      6150.6767     -4691.109      -33.469048      0.95505112     49732.953      80           
    117200   304.19866      371.97522     -1802.1702     -894.01368      1629.1955      6183.2453     -4713.2543     -31.027433      0.9560129      49682.92       80           
    117300   301.06091      272.80857     -1834.179      -878.23586      1663.7086      6066.444      -4715.1062     -29.822921      0.95702995     49630.122      80           
    117400   295.05941      375.20868     -1838.2805     -810.66663      1622.6338      6022.1846     -4588.1595     -32.503005      0.9588049      49538.246      80           
    117500   299.50209      166.54505     -1832.3961     -1010.1183      1659.9194      6065.7223     -4684.93       -31.652183      0.96115916     49416.907      80           
    117600   303.34247      372.27518     -1827.5875     -839.29077      1651.5754      6042.2962     -4618.9647     -35.753422      0.96295848     49324.57       80           
    117700   299.6969       526.11547     -1818.8744     -754.85895      1687.3615      6111.2893     -4666.5521     -32.249953      0.9628352      49330.885      80           
    117800   302.35747      464.69971     -1839.2582     -685.79215      1626.3765      5980.6149     -4586.4593     -30.782123      0.96158877     49394.829      80           
    117900   297.08048      435.82703     -1862.0098     -687.11906      1627.8643      6025.0096     -4634.5998     -33.318251      0.95956621     49498.942      80           
    118000   298.15636      410.00936     -1859.3023     -745.19734      1634.2083      6031.198      -4617.3055     -33.591825      0.95700534     49631.398      80           
    118100   301.48771      361.01106     -1840.431      -842.85176      1652.8779      6038.7492     -4617.1704     -30.162873      0.95394665     49790.533      80           
    118200   298.46324      481.27169     -1857.8154     -824.37619      1698.786       6069.4358     -4569.5708     -35.187825      0.95243269     49869.679      80           
    118300   302.12585      294.65358     -1848.6104     -899.31809      1649.7974      6081.0778     -4655.1198     -33.173322      0.95353483     49812.038      80           
    118400   301.39249      329.00825     -1794.2754     -828.40275      1637.6542      6032.1222     -4686.5143     -31.575723      0.95591618     49687.947      80           
    118500   292.35842      405.78482     -1847.5935     -806.17565      1658.8073      6084.6466     -4649.8629     -34.037001      0.95754465     49603.444      80           
    118600   295.0178       324.68372     -1873.1262     -830.09896      1687.4038      6025.6239     -4651.7492     -33.369541      0.96067562     49441.78       80           
    118700   301.24372      539.12706     -1832.552      -681.08042      1675.5849      6090.7499     -4677.5279     -36.047541      0.96580465     49179.213      80           
    118800   298.41037      363.44123     -1857.1047     -919.03847      1707.2562      6051.7514     -4587.2527     -32.170502      0.97022671     48955.066      80           
    118900   299.24315      442.07465     -1863.6207     -797.6855       1647.0894      6146.8758     -4658.7435     -31.840896      0.97136775     48897.56       80           
    119000   296.224        364.53658     -1874.3755     -838.17738      1635.3872      6099.713      -4623.2769     -34.73387       0.96999004     48967.011      80           
    119100   297.19936      180.41821     -1866.1552     -987.81512      1649.995       6051.2901     -4630.538      -36.358595      0.97055476     48938.519      80           
    119200   304.50458      111.9865      -1884.0037     -1067.1087      1613.956       6107.5862     -4625.992      -32.451293      0.97061371     48935.547      80           
    119300   299.81067      402.93696     -1867.2541     -893.40962      1696.7692      6151.2969     -4652.3054     -32.160029      0.97207869     48861.798      80           
    119400   298.59179      332.85637     -1864.411      -942.46021      1680.089       6170.975      -4677.5564     -33.780036      0.97327857     48801.56       80           
    119500   294.61562      397.19261     -1857.3515     -847.34691      1652.7369      6064.6282     -4583.6028     -31.871188      0.97212811     48859.314      80           
    119600   297.00364      468.39828     -1860.8959     -720.63532      1604.539       6147.4902     -4669.2928     -32.806827      0.96829885     49052.534      80           
    119700   300.84528      454.84731     -1825.347      -780.16498      1606.31        6146.4648     -4660.2389     -32.176571      0.96462159     49239.529      80           
    119800   307.6261       378.06651     -1848.687      -863.2625       1693.0873      6073.1959     -4642.9031     -33.364203      0.9607866      49436.069      80           
    119900   300.11719      366.40127     -1839.375      -932.22128      1650.9186      6181.638      -4659.8045     -34.75457       0.95951362     49501.655      80           
    120000   298.81429      427.93223     -1864.1686     -772.17512      1632.6891      6108.4487     -4643.8502     -33.011705      0.95960493     49496.945      80           
    120100   299.03505      350.70561     -1844.5778     -807.7824       1618.7783      6065.4762     -4646.3421     -34.846559      0.96217313     49364.83       80           
    120200   301.74136      298.36516     -1859.9959     -864.26505      1574.1224      6149.5105     -4668.6308     -32.376042      0.96440073     49250.805      80           
    120300   303.20058      490.98593     -1840.1403     -752.34644      1637.8126      6148.0489     -4668.3528     -34.036031      0.96659274     49139.116      80           
    120400   306.76438      448.15403     -1849.069      -772.35241      1624.6016      6091.2702     -4612.9588     -33.337476      0.96994311     48969.38       80           
    120500   300.07773      194.62324     -1862.3824     -1071.4475      1672.7831      6110.4612     -4620.865      -33.926094      0.97053045     48939.745      80           
    120600   301.89995      374.49608     -1833.2495     -828.12705      1618.2204      6114.1633     -4661.325      -35.185941      0.97114564     48908.743      80           
    120700   298.24442      362.44149     -1872.7964     -850.50268      1642.0331      6115.8435     -4640.2219     -31.914193      0.96931847     49000.936      80           
    120800   299.62574      307.9715      -1858.0023     -855.27369      1613.914       6048.6967     -4609.9713     -31.391929      0.96583718     49177.557      80           
    120900   300.3716       237.55426     -1828.8091     -890.46532      1654.1522      5980.2308     -4646.4834     -31.0709        0.9644061      49250.531      80           
    121000   296.81426      354.33177     -1871.0559     -840.16054      1661.43        6063.7581     -4628.3277     -31.312234      0.96401271     49270.629      80           
    121100   303.11188      508.27687     -1859.3235     -709.5796       1597.9035      6104.0795     -4591.2095     -33.593534      0.96585995     49176.397      80           
    121200   304.03335      504.33239     -1855.1989     -750.66413      1613.5639      6182.4903     -4652.1862     -33.672507      0.96701369     49117.725      80           
    121300   300.3941       680.48594     -1836.8679     -561.5263       1604.8198      6168.5421     -4662.2602     -32.22156       0.96637814     49150.028      80           
    121400   299.79938      484.85974     -1860.8184     -690.18493      1603.0473      6084.0596     -4618.7619     -32.481893      0.9668895      49124.034      80           
    121500   297.11192      622.16007     -1827.7161     -585.93829      1622.9778      6092.3265     -4643.6613     -35.828498      0.96753524     49091.248      80           
    121600   298.99036      464.948       -1845.8607     -729.96078      1604.899       6107.0054     -4637.0005     -34.13434       0.96521835     49209.086      80           
    121700   300.78853      461.42661     -1844.4168     -753.976        1592.186       6160.9517     -4657.9631     -35.355171      0.96328967     49307.612      80           
    121800   304.8055       376.13851     -1795.7341     -864.9714       1670.3925      6118.7749     -4721.3851     -30.938301      0.96153707     49397.485      80           
    121900   306.1493       319.84939     -1845.7245     -956.48633      1718.4173      6078.8736     -4638.7899     -36.440789      0.9587678      49540.163      80           
    122000   304.12724      422.12068     -1812.1639     -849.10317      1623.2551      6085.7281     -4594.1619     -31.433563      0.95802561     49578.542      80           
    122100   298.66264      407.99929     -1847.1251     -825.85553      1684.7418      6034.5314     -4607.338      -30.955325      0.9579728      49581.275      80           
    122200   298.33514      497.21077     -1830.7025     -699.21685      1639.389       6076.0558     -4657.9565     -30.358121      0.95901696     49527.292      80           
    122300   302.1836       477.37869     -1819.34       -697.3147       1683.4123      6057.0192     -4717.2571     -29.141057      0.95867815     49544.795      80           
    122400   297.48722      628.57297     -1809.8159     -701.02087      1657.6253      6153.9832     -4637.9366     -34.26212       0.9561883      49673.807      80           
    122500   308.09519      417.66081     -1861.1621     -838.51379      1656.4918      6126.1507     -4630.0913     -35.214509      0.9549925      49736.006      80           
    122600   300.83954      607.45867     -1870.6072     -718.04263      1724.2179      6116.6132     -4614.0846     -30.637943      0.95624949     49670.628      80           
    122700   301.15962      299.73502     -1850.8078     -874.48569      1669.5312      6007.0379     -4621.6358     -29.904808      0.95908968     49523.537      80           
    122800   300.39886      387.95226     -1850.0971     -783.51677      1614.4014      6118.7071     -4678.1194     -33.423011      0.96393337     49274.684      80           
    122900   296.49081      504.12926     -1861.4628     -774.44139      1686.1851      6145.3821     -4657.858      -33.675825      0.96990381     48971.364      80           
    123000   302.69423      459.62841     -1888.4488     -736.55506      1642.2515      6085.4581     -4607.2676     -35.80975       0.9746349      48733.646      80           
    123100   299.46387      383.53369     -1857.7046     -801.88771      1669.438       6121.9737     -4715.1273     -33.158327      0.97692615     48619.348      80           
    123200   293.22998      343.93332     -1835.4884     -847.89272      1660.632       6094.3669     -4697.2892     -30.395305      0.97512984     48708.911      80           
    123300   295.10708      299.16982     -1886.9502     -860.20451      1616.031       6084.5192     -4620.4055     -33.820109      0.97143939     48893.954      80           
    123400   295.06691      537.98646     -1831          -765.4015       1714.2008      6083.5353     -4626.2064     -37.141789      0.96662909     49137.268      80           
    123500   304.85889      261.83385     -1837.9775     -917.89403      1636.2395      6078.0513     -4659.5997     -36.985834      0.96121231     49414.174      80           
    123600   299.65292      321.34395     -1823.3342     -940.60918      1715.8275      6044.607      -4642.183      -32.96417       0.95692991     49635.31       80           
    123700   301.87775      183.12822     -1835.6186     -990.42944      1650.7997      6074.79       -4686.8694     -29.544108      0.95422571     49775.972      80           
    123800   296.05746      349.18666     -1863.889      -814.90336      1669.3981      6035.7031     -4644.8012     -32.320988      0.95576        49696.067      80           
    123900   294.58389      307.6177      -1840.6073     -838.6877       1646.1525      6051.1907     -4679.8582     -30.572262      0.95807826     49575.817      80           
    124000   307.29208      390.5473      -1854.8353     -733.47823      1582.3237      6002.4683     -4574.9978     -30.93342       0.95971705     49491.163      80           
    124100   301.58812      365.60058     -1839.4163     -890.30463      1682.3925      6016.3288     -4568.4048     -34.994914      0.96076901     49436.974      80           
    124200   303.29527      296.42488     -1852.4297     -913.74924      1628.7492      6076.3905     -4609.6325     -32.903322      0.96311694     49316.454      80           
    124300   297.46368      459.04658     -1859.4579     -737.54945      1656.6367      6079.4591     -4650.0792     -29.962645      0.96421745     49260.167      80           
    124400   294.91228      450.20417     -1856.7939     -753.3657       1670.3071      6116.2003     -4693.0999     -33.043775      0.96524925     49207.511      80           
    124500   300.11245      337.44776     -1879.6426     -823.48632      1645.7284      5982.0514     -4555.8014     -31.401715      0.96585171     49176.817      80           
    124600   301.52521      347.66201     -1847.7807     -945.70836      1697.5238      6111.6343     -4635.2689     -32.73808       0.96664836     49136.288      80           
    124700   306.25861      444.83097     -1882.7324     -754.81321      1587.1035      6108.0045     -4577.3528     -35.378605      0.96723091     49106.694      80           
    124800   303.7151       325.7521      -1848.1849     -879.36198      1656.098       6123.3059     -4689.5003     -36.604604      0.96751805     49092.12       80           
    124900   302.07143      54921.773      377.87056     -908.72547      54056.482      6126.6116     -4699.5349     -30.931459      0.96655973     49140.794      81           
    125000   297.91706      410.86189     -1859.228      -860.8279       1619.3882      6216.1519     -4675.9245     -28.697842      1.0014836      47427.151      81           
    125100   304.96978      424.51448     -1856.2955     -690.81175      1640.0411      5986.0759     -4623.3613     -31.133882      1.0010646      47447.001      81           
    125200   296.01692      296.4819      -1882.0199     -928.92576      1619.4297      6058.7188     -4537.7213     -32.999689      0.99733679     47624.346      81           
    125300   302.20741      393.76799     -1906.7695     -686.79445      1588.1144      6025.7963     -4594.527      -32.051826      0.99364627     47801.229      81           
    125400   298.25232      158.9936      -1892.2112     -996.09346      1631.4023      6047.6477     -4598.8679     -32.883831      0.99110558     47923.767      81           
    125500   299.82394      321.95138     -1874.4131     -790.99487      1614.8259      6070.7446     -4664.4795     -33.731673      0.98873086     48038.87       81           
    125600   301.97453      361.91803     -1863.0619     -801.00083      1634.196       5983.6415     -4560.8308     -31.025936      0.98611445     48166.328      81           
    125700   301.59637      306.64783     -1847.1314     -917.27884      1609.5027      6167.2387     -4671.0983     -34.58494       0.98343606     48297.51       81           
    125800   296.67357      552.3995      -1866.701      -737.13056      1684.7535      6134.0792     -4631.3123     -31.289345      0.98050144     48442.063      81           
    125900   293.06671      577.32657     -1845.5185     -700.48356      1610.9711      6066.5042     -4523.7624     -30.384254      0.9783896      48546.625      81           
    126000   297.58092      497.72746     -1830.7101     -640.33616      1623.3844      6062.3649     -4684.6998     -32.275921      0.97655345     48637.904      81           
    126100   295.94574      518.23536     -1866.4523     -650.80654      1622.8839      6068.8738     -4622.2866     -33.976809      0.97326895     48802.042      81           
    126200   303.28085      376.12232     -1861.0505     -860.94053      1612.534       6126.7086     -4608.1917     -32.937486      0.97172162     48879.753      81           
    126300   303.75908      438.41125     -1830.898      -771.39061      1595.5639      6044.4147     -4566.9266     -32.352178      0.97061745     48935.358      81           
    126400   295.7717       521.77015     -1843.2555     -709.97785      1632.3248      6049.2176     -4573.325      -33.213896      0.96935758     48998.959      81           
    126500   297.60587      355.85488     -1833.3335     -800.73784      1632.0704      6003.9207     -4612.993      -33.071827      0.96740851     49097.679      81           
    126600   301.66588      209.96185     -1822.9358     -929.78106      1608.513       5965.9961     -4579.9138     -31.916557      0.96520229     49209.905      81           
    126700   305.70656      341.06249     -1816.3487     -872.44956      1641.0148      6096.6693     -4675.1127     -32.710743      0.96388565     49277.124      81           
    126800   304.65359      501.67085     -1826.3409     -759.20163      1618.9208      6104.9476     -4604.1062     -32.548791      0.96280095     49332.64       81           
    126900   301.79303      488.28802     -1800.1476     -774.7656       1645.9254      6055.0449     -4602.4918     -35.277306      0.96301728     49321.558      81           
    127000   299.92476      448.70232     -1842.0248     -759.24453      1649.0427      6090.9253     -4655.6279     -34.368495      0.962674       49339.146      81           
    127100   301.10593      254.08353     -1846.6297     -894.64799      1599.6799      5983.1125     -4556.049      -31.382131      0.96267495     49339.097      81           
    127200   298.13012      208.45327     -1836.129      -969.97579      1629.3193      6042.3435     -4626.9383     -30.166378      0.96426059     49257.963      81           
    127300   297.67182      337.18192     -1839.2667     -910.48648      1648.9334      6067.4798     -4598.8322     -30.645866      0.96414269     49263.987      81           
    127400   302.97363      472.7558      -1833.7745     -800.76291      1710.681       6043.4012     -4615.4267     -31.362325      0.96499943     49220.249      81           
    127500   306.97375      318.11349     -1818.0141     -865.79727      1595.39        6039.1523     -4599.8334     -32.784014      0.96440757     49250.456      81           
    127600   299.40494      229.80456     -1848.6562     -960.51093      1665.1076      6011.7335     -4608.0461     -29.823229      0.96328821     49307.686      81           
    127700   298.21263      286.0411      -1858.352      -866.48027      1616.575       6050.761      -4624.2616     -32.201031      0.96280493     49332.436      81           
    127800   301.1777       360.98782     -1812.3042     -795.79399      1631.5743      6075.5109     -4705.8148     -32.184371      0.96312828     49315.874      81           
    127900   297.11638      422.62808     -1831.5575     -827.9279       1666.2162      6122.2603     -4673.4335     -32.929473      0.96214568     49366.238      81           
    128000   297.68255      504.36388     -1822.555      -748.4812       1654.0239      6030.1143     -4575.8314     -32.906783      0.9612011      49414.751      81           
    128100   301.22378      414.36445     -1854.3475     -828.67682      1653.3777      6106.1891     -4631.2627     -30.915365      0.96160212     49394.143      81           
    128200   298.94484      767.50081     -1832.8002     -592.46362      1734.1271      6040.0618     -4551.113      -30.311229      0.96292105     49326.487      81           
    128300   304.31725      562.51592     -1872.004      -701.03326      1633.0199      6105.3595     -4570.4464     -32.379893      0.96379923     49281.542      81           
    128400   300.89087      359.81947     -1849.175      -839.44298      1643.5436      6060.5355     -4620.838      -34.80364       0.96374362     49284.386      81           
    128500   299.47411      317.45095     -1875.1818     -860.94494      1646.6153      5980.3006     -4543.1135     -30.224777      0.96466068     49237.534      81           
    128600   303.0335       361.82864     -1881.6885     -756.32129      1594.3321      5988.9227     -4549.6714     -33.745005      0.96559652     49189.813      81           
    128700   299.80643      520.30519     -1856.4169     -645.10929      1650.0974      5960.4209     -4557.143      -31.543906      0.96728082     49104.161      81           
    128800   303.72086      563.53523     -1851.9684     -651.53451      1660.2502      6066.3641     -4626.2657     -33.310393      0.96781779     49076.916      81           
    128900   306.82721      565.97186     -1846.8734     -660.45448      1700.0309      5978.7178     -4573.2176     -32.231276      0.96651591     49143.022      81           
    129000   304.90699      326.20459     -1849.801      -852.5453       1665.2692      6023.8398     -4628.2917     -32.266412      0.96664125     49136.65       81           
    129100   292.27         322.30183     -1844.7993     -934.04506      1631.2891      6073.379      -4568.6946     -34.827305      0.96650089     49143.786      81           
    129200   299.07955      359.66306     -1844.2165     -819.01911      1694.1756      5988.1014     -4627.7292     -31.649038      0.96606893     49165.76       81           
    129300   297.28609      471.92697     -1826.6016     -805.18053      1668.0552      6040.3557     -4574.4478     -30.253969      0.96482696     49229.048      81           
    129400   305.13136      288.10547     -1815.5843     -939.48251      1665.0422      6087.7243     -4678.0292     -31.565103      0.96346669     49298.552      81           
    129500   302.33955      325.73623     -1839.4901     -919.1763       1665.4195      5983.582      -4534.1844     -30.41434       0.96182661     49382.614      81           
    129600   298.36932      429.86781     -1850.4226     -707.90435      1640.8862      5993.8707     -4616.873      -29.689243      0.96185953     49380.924      81           
    129700   296.96373      429.24905     -1853.879      -722.62258      1589.8574      5978.8011     -4530.1037     -32.80421       0.96326441     49308.904      81           
    129800   302.80552      409.45386     -1857.6968     -773.955        1643.8614      6027.3647     -4598.9674     -31.153071      0.96643757     49147.005      81           
    129900   301.98445      443.58074     -1853.2395     -798.56109      1673.9672      6000.4863     -4549.4336     -29.638495      0.96656686     49140.431      81           
    130000   298.38839      454.5864      -1808.2279     -834.72685      1636.5743      6091.0014     -4598.3629     -31.671631      0.96441411     49250.122      81           
    130100   297.9883       403.78771     -1824.7611     -793.55433      1614.1654      6082.6594     -4641.8449     -32.876798      0.96317753     49313.352      81           
    130200   293.29025      274.24887     -1839.9296     -874.16147      1661.7116      6011.9927     -4653.5056     -31.858755      0.96238562     49353.93       81           
    130300   293.4871       343.66877     -1863.1021     -813.09693      1628.9401      6043.0636     -4620.6998     -31.436037      0.96321197     49311.589      81           
    130400   298.25525      669.49916     -1822.9931     -551.09542      1640.132       6075.4937     -4639.3051     -32.732914      0.96451492     49244.974      81           
    130500   300.10132      454.90861     -1852.6434     -775.41584      1634.2124      6107.9902     -4623.4231     -35.811716      0.96528635     49205.62       81           
    130600   298.59589      673.91148     -1821.8631     -617.01327      1650.7359      6096.81       -4603.615      -31.142894      0.96614713     49161.78       81           
    130700   303.23802      405.33739     -1833.8118     -823.07364      1657.2009      6102.2404     -4666.2741     -30.944345      0.96514895     49212.624      81           
    130800   298.22172      394.07597     -1830.0028     -828.01256      1664.7313      6063.7881     -4648.1571     -28.271014      0.96554495     49192.441      81           
    130900   296.49101      177.58236     -1854.3179     -1001.2027      1638.6115      6016.2474     -4590.4627     -31.293116      0.9661755      49160.336      81           
    131000   298.26015      309.85328     -1859.4894     -882.83001      1649.7892      6066.0762     -4630.1914     -33.501242      0.96823045     49055.999      81           
    131100   305.32441      477.29337     -1833.4443     -751.55614      1587.2715      6072.4283     -4564.9096     -32.496348      0.96895306     49019.415      81           
    131200   304.34279      549.68432     -1830.7011     -728.97128      1689.8432      6038.3402     -4586.096      -32.730795      0.96840764     49047.024      81           
    131300   299.1016       558.42359     -1858.3556     -692.47096      1643.8925      6098.9824     -4603.8195     -29.805185      0.9667362      49131.824      81           
    131400   298.28665      397.57005     -1882.9882     -784.83479      1644.6599      6036.9499     -4584.3826     -31.834059      0.96631584     49153.197      81           
    131500   298.45273      234.652       -1894.2217     -948.07895      1646.2353      6068.2339     -4601.6882     -35.828224      0.96599731     49169.404      81           
    131600   303.85578      283.44119     -1866.9122     -871.41586      1615.6734      6060.7515     -4620.3657     -34.289893      0.96566453     49186.349      81           
    131700   303.94643      554.89376     -1855.6534     -748.23567      1649.3468      5989.2001     -4444.8051     -34.958962      0.96586689     49176.044      81           
    131800   303.49852      478.9205      -1859.4577     -821.23158      1721.4411      6154.0993     -4684.8523     -31.078379      0.96775681     49080.009      81           
    131900   299.02395      501.82769     -1860.715      -774.99065      1687.3559      6007.9357     -4525.7737     -31.984586      0.96803342     49065.985      81           
    132000   298.73283      331.64016     -1846.9156     -912.42238      1645.0222      6138.2478     -4659.7313     -32.56065       0.9672501      49105.72       81           
    132100   301.37792      387.7352      -1872.8668     -777.0067       1607.7754      6045.6659     -4585.0647     -30.76789       0.96599309     49169.62       81           
    132200   297.90926      315.76985     -1863.2786     -840.10603      1641.7746      6027.098      -4615.1812     -34.536942      0.96505444     49217.444      81           
    132300   292.19828      487.20883     -1855.0167     -666.80338      1643.8212      6016.4029     -4620.6828     -30.512479      0.9634387      49299.984      81           
    132400   295.58995      460.62084     -1852.2237     -698.8771       1589.281       6047.5338     -4592.3164     -32.776778      0.96226849     49359.938      81           
    132500   301.66415      352.84621     -1848.5611     -852.02859      1671.7799      6035.0357     -4619.7257     -33.653977      0.96207842     49369.69       81           
    132600   301.87175      538.0533      -1835.3745     -712.40442      1656.349       6068.0216     -4604.055      -34.483481      0.962345       49356.013      81           
    132700   304.1995       355.19892     -1860.8501     -853.26937      1634.4103      6082.9411     -4615.4462     -32.586927      0.9635871      49292.392      81           
    132800   301.50101      354.91519     -1871.7271     -857.23837      1672.9171      5993.9334     -4549.0069     -33.962925      0.9644261      49249.51       81           
    132900   297.59177      140.49075     -1842.7765     -1037.7318      1640.2868      6004.3208     -4587.9096     -35.699039      0.96578018     49180.459      81           
    133000   297.30581      311.23856     -1856.5909     -831.41063      1616.9868      6033.7498     -4618.3938     -33.102641      0.96547305     49196.104      81           
    133100   297.32927      492.96331     -1869.1653     -747.44785      1713.8039      6048.5554     -4619.0504     -33.732445      0.9662649      49155.788      81           
    133200   298.55692      495.30071     -1907.0938     -832.07997      1760.8481      6143.2972     -4635.0567     -34.61411       0.96556363     49191.489      81           
    133300   300.97153      270.88783     -1881.2801     -985.18587      1692.3632      6010.6191     -4532.5217     -33.106841      0.96559392     49189.946      81           
    133400   295.86482      325.72668     -1849.3612     -928.76884      1650.0253      6129.0897     -4641.076      -34.182287      0.96527621     49206.136      81           
    133500   300.2171       345.88272     -1850.8813     -823.52637      1643.2366      5979.0848     -4570.2822     -31.748773      0.96452911     49244.25       81           
    133600   299.43289      254.41469     -1858.6013     -962.90224      1698.1609      6031.8908     -4621.1025     -33.030954      0.9650573      49217.298      81           
    133700   304.93237      509.38671     -1852.6797     -811.95991      1741.6332      6145.3756     -4681.4651     -31.517431      0.96680541     49128.307      81           
    133800   304.04297      515.37531     -1853.4662     -762.6908       1713.8075      6104.0435     -4653.3403     -32.978354      0.96737008     49099.63       81           
    133900   301.08773      421.72946     -1839.1605     -784.3857       1652.8669      6072.3504     -4647.0633     -32.878326      0.96882518     49025.886      81           
    134000   302.35154      290.16517     -1846.6827     -846.40193      1622.084       5955.2101     -4565.5124     -28.531901      0.96969795     48981.76       81           
    134100   297.19893      386.33206     -1868.4756     -825.16155      1716.2619      6074.0376     -4678.9018     -31.428628      0.9680773      49063.76       81           
    134200   302.12963      410.29741     -1865.4507     -792.47174      1669.3067      6014.4267     -4585.1829     -30.330515      0.96812957     49061.111      81           
    134300   303.79131      459.23214     -1833.6361     -827.05397      1695.3584      6086.8461     -4629.0589     -33.223344      0.96887902     49023.161      81           
    134400   303.36543      561.86435     -1858.5407     -710.15539      1647.0915      6105.0406     -4588.9794     -32.592194      0.96821259     49056.905      81           
    134500   300.27211      575.29664     -1867.8045     -656.68596      1675.8413      6130.9079     -4675.6433     -31.318798      0.96829668     49052.644      81           
    134600   297.9349       530.43371     -1898.7755     -713.78183      1716.3051      5954.648      -4495.031      -32.931135      0.96791137     49072.171      81           
    134700   300.52694      497.34989     -1866.2828     -708.24034      1661.7503      6099.3579     -4657.9234     -31.311886      0.9698145      48975.874      81           
    134800   299.87632      438.00383     -1875.782      -752.57111      1575.3275      6187.5054     -4662.0937     -34.382376      0.97110483     48910.798      81           
    134900   297.87618      417.48083     -1849.8681     -810.23926      1629.4662      6081.0893     -4599.9011     -33.066229      0.97158314     48886.72       81           
    135000   300.12544      518.00927     -1848.3676     -703.46189      1619.2736      5974.0096     -4493.8732     -29.571204      0.9708816      48922.044      81           
    135100   301.48029      351.84244     -1861.4621     -876.452        1657.9369      6062.3185     -4599.1489     -31.350045      0.97031767     48950.477      81           
    135200   301.31639      425.42504     -1880.6276     -808.07159      1641.825       6110.7343     -4607.0552     -31.379832      0.97035154     48948.768      81           
    135300   297.62922      436.49347     -1866.0021     -788.5535       1663.2145      6058.7535     -4599.5607     -31.358198      0.96918497     49007.686      81           
    135400   295.09483      423.34358     -1855.3471     -770.50996      1586.9094      6077.4685     -4582.6787     -32.498506      0.96823904     49055.565      81           
    135500   297.51391      429.34607     -1890.7252     -725.83772      1616.4967      6117.1865     -4653.3057     -34.468486      0.96734705     49100.799      81           
    135600   301.88654      519.20224     -1864.3061     -698.37903      1666.1853      6041.7292     -4594.323      -31.704084      0.96851302     49041.687      81           
    135700   296.92188      863.45979     -1878.9315     -493.56933      1708.5851      6134.1664     -4572.3334     -34.457568      0.968397       49047.563      81           
    135800   301.54054      505.93865     -1858.316      -754.21021      1649.6625      6081.6036     -4580.2139     -32.587268      0.967939       49070.77       81           
    135900   297.29867      440.36584     -1874.1024     -781.35046      1675.6673      6093.8232     -4643.4318     -30.240039      0.96465221     49237.966      81           
    136000   292.31938      483.42162     -1854.3253     -789.23875      1702.991       6071.3139     -4616.1006     -31.218583      0.96187423     49380.17       81           
    136100   298.2315       207.88343     -1869.7908     -1015.6721      1681.4136      6049.897      -4604.5923     -33.371996      0.9612513      49412.17       81           
    136200   303.82879      394.16252     -1842.1497     -764.93909      1664.0675      5987.4013     -4616.94       -33.277515      0.96248973     49348.592      81           
    136300   302.87329      452.05249     -1843.944      -735.53246      1636.7687      6016.62       -4590.1763     -31.68338       0.96414566     49263.835      81           
    136400   296.93114      408.07397     -1842.2007     -841.90598      1673.4243      6085.6428     -4636.2002     -30.686312      0.96611772     49163.277      81           
    136500   297.99434      393.34738     -1837.8996     -752.00461      1616.9217      6075.5545     -4673.151      -36.073615      0.96537867     49200.914      81           
    136600   294.57031      175.69938     -1837.8258     -983.26401      1651.2611      5915.5807     -4537.9905     -32.0622        0.96426924     49257.521      81           
    136700   299.73723      33.085626     -1867.1042     -1135.3143      1689.253       6036.2283     -4658.1028     -31.874359      0.96371985     49285.602      81           
    136800   305.90411      263.36259     -1888.9427     -904.52655      1641.6994      6016.8788     -4569.903      -31.843358      0.96267994     49338.841      81           
    136900   302.81529      535.3703      -1830.5534     -695.10786      1659.9429      6060.538      -4628.4596     -30.989701      0.96455638     49242.858      81           
    137000   304.23456      441.28941     -1863.0015     -726.46312      1624.8084      6056.7627     -4620.8439     -29.973123      0.9645584      49242.755      81           
    137100   298.68678      440.81718     -1876.9919     -713.58593      1628.3849      6017.9461     -4580.7006     -34.235331      0.96613267     49162.516      81           
    137200   296.78519      263.64155     -1875.9929     -861.19145      1633.4277      6020.3193     -4621.17       -31.751159      0.9685543      49039.597      81           
    137300   300.25775      442.64087     -1866.0434     -756.89522      1667.074       5997.3133     -4566.6003     -32.207439      0.97135        48898.453      81           
    137400   307.15087      370.02603     -1873.834      -800.05722      1653.4004      6058.1809     -4635.7131     -31.950977      0.97257385     48836.922      81           
    137500   301.01791      209.15269     -1866.8749     -981.85325      1692.7231      6053.5364     -4659.7849     -28.59381       0.97020137     48956.345      81           
    137600   297.26206      351.30053     -1880.8627     -821.61718      1656.2586      6051.5847     -4622.836      -31.226931      0.96839353     49047.738      81           
    137700   297.53582      401.07198     -1866.4524     -753.06457      1630.9879      5970.9396     -4548.036      -33.302516      0.965864       49176.191      81           
    137800   304.20256      306.75268     -1819.383      -879.98472      1661.5104      6028.8319     -4653.458      -30.763931      0.96277731     49333.851      81           
    137900   302.5183       542.99228     -1880.6373     -742.88298      1680.1485      6127.9435     -4608.9397     -32.639646      0.96075577     49437.655      81           
    138000   297.40965      620.45068     -1825.5166     -709.86011      1689.1183      6163.5683     -4662.5228     -34.336447      0.96269002     49338.324      81           
    138100   300.77911      593.17411     -1855.8448     -596.10665      1691.2622      5960.2681     -4574.0367     -32.367926      0.96395418     49273.621      81           
    138200   297.60519      458.42695     -1844.4989     -732.89084      1655.532       6033.5954     -4618.3463     -34.964461      0.96442402     49249.616      81           
    138300   302.69467      509.89816     -1848.2595     -642.44556      1613.8341      6055.8217     -4639.4531     -29.599537      0.96567964     49185.579      81           
    138400   297.23945      503.09645     -1832.5381     -777.5111       1658.0979      6087.817      -4598.9007     -33.868559      0.96643926     49146.92       81           
    138500   303.25483      559.1134      -1821.7032     -738.45096      1671.4541      6114.1851     -4633.3922     -32.979502      0.96567465     49185.834      81           
    138600   307.9115       572.34853     -1871.0597     -761.85994      1698.0877      6092.7439     -4556.654      -28.909367      0.96514326     49212.914      81           
    138700   307.41574      475.292       -1869.6696     -757.55155      1671.8192      6091.4383     -4628.8164     -31.927913      0.96561182     49189.034      81           
    138800   297.63116      582.40345     -1863.3512     -695.15599      1677.9265      6086.3269     -4591.2258     -32.117006      0.96682288     49127.419      81           
    138900   299.98848      403.18355     -1851.0503     -779.63483      1650.5658      6137.9913     -4720.0168     -34.671702      0.9674067      49097.771      81           
    139000   299.90606      510.83152     -1879.3908     -669.41339      1664.549       6084.836      -4657.7519     -31.997377      0.96795801     49069.807      81           
    139100   300.18142      431.99113     -1868.5529     -773.73794      1675.0879      6104.8686     -4671.1803     -34.494248      0.96920678     49006.583      81           
    139200   298.51851      404.26061     -1905.7228     -898.81808      1681.937       6167.4298     -4608.1017     -32.463569      0.96991427     48970.836      81           
    139300   300.48324      480.84814     -1840.1157     -853.49264      1739.4162      6130.026      -4661.1738     -33.811839      0.97352595     48789.16       81           
    139400   301.05127      461.25312     -1851.0633     -772.32368      1697.9707      5987.1989     -4567.2321     -33.29728       0.9733846      48796.244      81           
    139500   300.8848       197.61075     -1845.2158     -940.86904      1650.1973      6003.7217     -4637.4713     -32.752148      0.97568105     48681.393      81           
    139600   293.577        474.14596     -1882.5933     -748.70148      1716.6661      6005.1093     -4585.9987     -30.33588       0.97712826     48609.292      81           
    139700   299.59581      530.78789     -1880.077      -665.41365      1665.2097      6020.9776     -4577.3388     -32.56997       0.97641441     48644.83       81           
    139800   297.68381      374.22457     -1841.7307     -904.5334       1702.1554      6013.3802     -4558.8869     -36.159966      0.9728578      48822.667      81           
    139900   309.64889      538.84025     -1889.3474     -634.54762      1698.5423      6056.5353     -4660.3551     -31.987159      0.96970143     48981.585      81           
    140000   305.11749      525.28725     -1840.957      -728.2112       1663.0442      6001.1333     -4539.5138     -30.208224      0.96791789     49071.841      81           
    140100   297.68037      506.7008      -1859.9137     -755.05949      1728.1487      6097.8348     -4673.4983     -30.811299      0.96580331     49179.281      81           
    140200   297.12594      567.98349     -1885.1981     -617.38805      1656.3193      6011.3122     -4563.0831     -33.978742      0.96518244     49210.917      81           
    140300   298.1678       550.10418     -1871.7427     -654.33197      1676.7373      6062.3502     -4629.1456     -33.763012      0.96433617     49254.103      81           
    140400   297.36706      573.77014     -1874.853      -699.15901      1715.7782      6049.7257     -4586.1979     -31.523833      0.96400659     49270.942      81           
    140500   306.77967      542.34484     -1877.8948     -732.67763      1693.111       6064.6847     -4572.2917     -32.586679      0.9655467      49192.351      81           
    140600   306.38578      548.12233     -1864.4521     -714.5667       1646.8098      6075.7238     -4565.1393     -30.253212      0.96926833     49003.471      81           
    140700   301.90762      467.14932     -1897.8641     -776.08502      1645.4258      6158.016      -4631.3411     -31.002197      0.97452266     48739.259      81           
    140800   303.25866      420.33529     -1882.0176     -726.94396      1599.5642      6038.8456     -4574.7239     -34.389159      0.97959194     48487.039      81           
    140900   300.3767       244.00685     -1877.6967     -877.83547      1600.7754      6039.4021     -4605.6635     -34.975011      0.9817917      48378.401      81           
    141000   300.00015      203.4076      -1922.3201     -896.59693      1643.9115      6000.623      -4589.5431     -32.666871      0.98100688     48417.105      81           
    141100   298.74975      381.85892     -1887.7119     -764.01461      1643.3495      6047.9777     -4626.4071     -31.334657      0.97817569     48557.241      81           
    141200   302.25676      467.25289     -1874.6945     -770.03137      1629.8825      6150.5383     -4635.2529     -33.189145      0.97737065     48597.236      81           
    141300   302.61278      400.36193     -1875.149      -854.25859      1619.4841      6137.8726     -4593.8351     -33.752132      0.97752185     48589.72       81           
    141400   298.69975      335.96199     -1918.7734     -903.00652      1661.2072      6147.7573     -4619.432      -31.790643      0.97843256     48544.493      81           
    141500   296.8026       621.99594     -1879.7055     -568.37865      1639.4809      6164.3198     -4701.5336     -32.186991      0.98041283     48446.441      81           
    141600   297.05894      443.98749     -1911.7753     -737.59889      1649.9335      5984.5616     -4510.9935     -30.139973      0.98040339     48446.908      81           
    141700   299.75329      307.92764     -1904.8027     -861.43119      1632.8953      6005.4811     -4533.1904     -31.024473      0.97901728     48515.5        81           
    141800   300.61543      532.39699     -1865.7299     -651.67529      1692.2068      6107.2012     -4717.1258     -32.480045      0.97959731     48486.773      81           
    141900   303.27272      297.22793     -1891.0183     -840.17593      1639.6576      6029.1784     -4605.8731     -34.540855      0.97683983     48623.645      81           
    142000   298.18434      618.89943     -1884.8893     -588.37345      1697.5671      5990.475      -4562.2757     -33.604284      0.97443536     48743.626      81           
    142100   302.74145      457.49425     -1913.1024     -758.3797       1643.4333      6154.9512     -4636.728      -32.680241      0.97417253     48756.777      81           
    142200   304.6722       612.26594     -1919.2843     -707.34781      1685.9635      6194.9371     -4608.4232     -33.57943       0.97327915     48801.531      81           
    142300   299.09125      519.70784     -1833.539      -810.54357      1660.4536      6041.7402     -4506.9281     -31.475241      0.9739677      48767.031      81           
    142400   305.19331      238.47647     -1887.1898     -915.98123      1601.9926      6022.5995     -4549.5466     -33.398025      0.97425714     48752.542      81           
    142500   297.33883      424.25504     -1888.0506     -789.74733      1626.0476      6119.6315     -4609.4566     -34.169514      0.97560562     48685.157      81           
    142600   301.2305       357.70795     -1874.8258     -775.22129      1583.2282      6098.0438     -4639.6748     -33.842152      0.97680525     48625.366      81           
    142700   304.3211       284.89008     -1873.4305     -800.292        1610.8336      6114.9957     -4730.6415     -36.575334      0.97921744     48505.583      81           
    142800   303.28209      370.60665     -1851.9658     -807.47489      1683.1456      6117.9999     -4740.2269     -30.871247      0.97731462     48600.023      81           
    142900   305.71484      363.45964     -1867.4253     -860.35404      1677.491       6083.2541     -4631.3037     -38.202535      0.97358223     48786.339      81           
    143000   298.44049      386.33633     -1855.6022     -903.24673      1642.7093      6159.8941     -4625.2201     -32.198082      0.97110179     48910.951      81           
    143100   297.18926      251.16004     -1875.3526     -945.10319      1673.7226      6075.0083     -4644.1912     -32.92392       0.96943259     48995.168      81           
    143200   301.56005      313.08234     -1870.905      -818.62297      1626.1759      6031.2478     -4626.007      -28.806428      0.96927482     49003.143      81           
    143300   299.33922      459.37192     -1856.5622     -727.86038      1701.4506      6040.8572     -4666.2457     -32.267611      0.97044828     48943.889      81           
    143400   305.39911      389.81874     -1854.4422     -746.04944      1586.5906      6067.1973     -4631.5979     -31.87964       0.9728389      48823.616      81           
    143500   303.3044       550.51558     -1857.9077     -667.97563      1657.4402      6034.5333     -4582.1405     -33.434059      0.97408834     48760.991      81           
    143600   310.4175       368.82885     -1881.9783     -848.14947      1720.5556      6047.7671     -4637.6868     -31.679208      0.97370143     48780.367      81           
    143700   306.72799      399.53086     -1855.4814     -828.07903      1661.1498      6070.99       -4617.2877     -31.760747      0.97386415     48772.216      81           
    143800   303.50112      498.74908     -1846.7956     -663.03822      1617.9169      6037.6886     -4617.8524     -29.170142      0.97371368     48779.753      81           
    143900   301.83272      554.57135     -1891.7149     -591.45014      1628.4755      6010.082      -4569.6638     -31.15735       0.97392172     48769.333      81           
    144000   300.62642      263.31215     -1904.2705     -854.83186      1622.4253      6000.0682     -4568.6402     -31.438899      0.97443127     48743.83       81           
    144100   300.65765      259.38052     -1887.4183     -879.3474       1670.3077      6012.6026     -4621.2852     -35.478781      0.97554984     48687.941      81           
    144200   299.66477      475.82176     -1865.471      -771.77007      1660.0709      6030.5169     -4548.0707     -29.454345      0.97609134     48660.93       81           
    144300   304.34948      632.89113     -1866.1511     -603.03807      1660.0406      6060.7528     -4586.9303     -31.78275       0.97591225     48669.86       81           
    144400   300.49774      441.04343     -1866.208      -745.82257      1686.8246      6048.8987     -4649.5572     -33.092197      0.97462327     48734.228      81           
    144500   293.24022      371.23931     -1856.7787     -863.41419      1677.3509      6035.776      -4592.3849     -29.30968       0.9719447      48868.534      81           
    144600   297.29419      555.68114     -1847.9785     -605.38441      1656.7528      6074.8482     -4691.8004     -30.756612      0.96848292     49043.212      81           
    144700   294.07331      622.44114     -1848.5481     -618.20297      1658.7916      6087.3781     -4622.8362     -34.141269      0.96629983     49154.011      81           
    144800   304.358        534.76373     -1857.2431     -657.33049      1677.2014      6102.989      -4695.3129     -35.540141      0.96675279     49130.981      81           
    144900   305.05524      365.40837     -1854.9105     -873.53226      1645.9793      6147.2499     -4666.3871     -32.991029      0.96716253     49110.166      81           
    145000   294.35744      824.46268     -1848.2161     -458.31187      1658.5667      6040.3534     -4533.0863     -34.843043      0.96866656     49033.914      81           
    145100   295.57282      463.36338     -1865.4888     -725.21472      1659.7917      6172.191      -4743.0129     -34.902852      0.96915944     49008.977      81           
    145200   293.56798      446.82817     -1872.3269     -781.58832      1681.6223      5996.468      -4547.0895     -30.257443      0.97272665     48829.25       81           
    145300   302.43778      436.23829     -1899.2082     -740.25281      1642.8367      6040.2626     -4574.8373     -32.562665      0.97499389     48715.703      81           
    145400   308.21322      496.85447     -1870.2072     -625.36131      1595.0669      6128.0386     -4698.667      -32.015585      0.97761268     48585.205      81           
    145500   302.29596      476.49213     -1878.9395     -720.16238      1665.5712      6024.509      -4579.3654     -35.120817      0.97884222     48524.176      81           
    145600   295.6366       392.99841     -1896.2527     -754.16804      1659.7125      5979.4562     -4561.16       -34.589503      0.97861867     48535.261      81           
    145700   294.19716      245.24488     -1838.213      -916.38939      1591.9492      6098.1407     -4656.8098     -33.432895      0.97711247     48610.077      81           
    145800   298.76185      471.33796     -1840.4613     -720.88471      1631.3834      6049.2259     -4614.5569     -33.368431      0.97477637     48726.574      81           
    145900   297.67285      502.41671     -1868.087      -750.7736       1657.9347      6090.8522     -4598.3978     -29.111782      0.97143516     48894.167      81           
    146000   300.18066      602.96196     -1852.8896     -616.35031      1656.1715      6103.0317     -4653.0572     -33.944017      0.96924469     49004.666      81           
    146100   299.70096      415.28862     -1829.7844     -742.29993      1608.6305      6040.3952     -4627.8611     -33.79165       0.96956378     48988.538      81           
    146200   290.89278      198.48452     -1867.3604     -955.22319      1624.1758      6047.4226     -4616.4979     -34.032354      0.96866798     49033.842      81           
    146300   295.00975      347.47939     -1856.0595     -766.79217      1632.3496      6040.0666     -4670.0056     -32.079489      0.9669646      49120.219      81           
    146400   295.87194      353.15736     -1857.9756     -808.41324      1634.0177      6098.0447     -4679.4882     -33.027971      0.96845628     49044.561      81           
    146500   296.02038      538.22948     -1861.8519     -694.71458      1638.16        6123.1573     -4634.5738     -31.947561      0.97066357     48933.033      81           
    146600   308.0803       369.39825     -1889.4181     -744.52925      1592.3847      6097.4917     -4655.1612     -31.369528      0.97128209     48901.872      81           
    146700   301.80698      510.04736     -1848.8423     -690.87819      1651.8882      6071.4326     -4641.3386     -32.214379      0.97087528     48922.363      81           
    146800   298.15867      327.31713     -1833.8165     -868.60966      1645.6227      6078.9407     -4663.747      -31.073147      0.97000157     48966.429      81           
    146900   292.23337      358.88978     -1899.6385     -786.27396      1658.7097      6103.4137     -4684.3979     -32.923401      0.96903712     49015.164      81           
    147000   300.69559      212.04282     -1846.38       -856.76048      1616.9587      5978.7633     -4651.4039     -29.13486       0.97211505     48859.97       81           
    147100   306.67082      363.19657     -1847.5276     -698.46441      1602.1743      5942.0179     -4603.9175     -31.086082      0.9745334      48738.722      81           
    147200   304.74064      347.24654     -1872.4163     -808.98365      1631.7081      6126.0516     -4695.5344     -33.578854      0.97439298     48745.746      81           
    147300   299.22937      548.04079     -1835.8121     -679.77232      1692.4322      5988.73       -4587.1435     -30.393479      0.97256776     48837.227      81           
    147400   297.62175      420.03394     -1881.9728     -803.23471      1649.7498      6138.065      -4647.4059     -35.167382      0.9696197      48985.713      81           
    147500   294.64553      287.30878     -1876.5982     -864.77397      1623.3672      6026.7863     -4592.2636     -29.208949      0.96839629     49047.599      81           
    147600   296.58177      370.39819     -1876.5088     -738.9447       1634.7638      6015.0542     -4630.4054     -33.560969      0.9677742      49079.127      81           
    147700   298.17909      491.92263     -1840.725      -717.66595      1655.7848      6088.8891     -4664.9717     -29.388702      0.9667505      49131.097      81           
    147800   299.51312      246.25894     -1838.9811     -998.39837      1674.2845      6101.331      -4655.305      -36.672095      0.96743589     49096.289      81           
    147900   299.41289      392.79322     -1885.759      -830.45882      1629.3434      6101.5556     -4587.2081     -34.680018      0.96963608     48984.886      81           
    148000   299.44939      644.1809      -1878.4901     -551.68527      1671.2237      6063.7419     -4629.4068     -31.202596      0.97252639     48839.305      81           
    148100   296.74636      328.19584     -1876.9681     -834.4884       1677.8305      6014.0847     -4619.7677     -32.495149      0.97466774     48732.004      81           
    148200   292.17741      454.73808     -1854.2395     -691.0387       1670.1432      5998.8454     -4638.2964     -30.675974      0.97690291     48620.505      81           
    148300   299.28824      513.05536     -1877.9942     -562.68747      1609.2441      5994.9008     -4617.5698     -32.838077      0.9765677      48637.194      81           
    148400   297.56659      549.79772     -1864.8497     -641.88491      1662.2315      5966.1149     -4539.2968     -32.517259      0.97498999     48715.898      81           
    148500   301.37517      551.82673     -1877.2643     -625.63504      1657.0746      5967.9145     -4539.2496     -31.013373      0.97027954     48952.4        81           
    148600   304.21925      641.57435     -1851.484      -536.09023      1663.1562      6003.1613     -4605.8697     -31.299308      0.96613808     49162.24       81           
    148700   301.55194      677.77074     -1836.8793     -547.67399      1643.9601      6052.9665     -4599.9616     -34.640898      0.96247201     49349.5        81           
    148800   296.29852      753.79586     -1811.6436     -456.62114      1649.6084      6028.9886     -4624.8889     -31.647541      0.95904077     49526.062      81           
    148900   294.37952      651.63649     -1884.3613     -511.35468      1663.8153      6076.0485     -4664.8598     -27.651445      0.95663043     49650.849      81           
    149000   298.67194      463.58677     -1836.872      -720.21078      1662.6769      5966.1493     -4574.848      -33.308648      0.95811891     49573.714      81           
    149100   304.37226      570.2637      -1839.6415     -634.04663      1659.7688      6031.8423     -4614.8062     -32.85308       0.96274239     49335.641      81           
    149200   302.28687      471.56065     -1845.5927     -772.30354      1682.064       6115.4084     -4670.8625     -37.15296       0.96739509     49098.36       81           
    149300   308.8997       489.20421     -1866.7751     -631.50161      1638.3437      5997.8685     -4613.4008     -35.330525      0.97126764     48902.6        81           
    149400   300.1373       339.83878     -1847.4831     -825.61434      1654.7112      5990.3199     -4600.488      -31.606915      0.97302477     48814.29       81           
    149500   295.46479      324.84242     -1849.9924     -879.39069      1668.0014      6010.0516     -4592.6048     -31.222673      0.97408961     48760.927      81           
    149600   297.54195      335.89349     -1844.934      -865.17567      1633.1077      6037.8747     -4592.9929     -31.986373      0.97412823     48758.994      81           
    149700   298.07617      250.37245     -1844.1927     -969.72947      1663.4192      6149.8819     -4713.9987     -35.007918      0.97303462     48813.795      81           
    149800   299.3066       387.27934     -1868.8199     -822.35181      1616.0186      6085.3787     -4593.0547     -29.891564      0.97147588     48892.117      81           
    149900   297.94102      415.9622      -1854.7454     -833.43332      1709.3146      6029.1556     -4607.8181     -26.511113      0.9679313      49071.161      81           
    150000   306.56449      522.27576     -1841.3942     -660.72763      1614.3448      6048.5154     -4607.8601     -30.602518      0.96482486     49229.155      81           
    150100   303.20657      534.75525     -1836.6711     -750.05962      1626.4357      6136.1913     -4608.4717     -32.669354      0.96215359     49365.832      81           
    150200   301.6016       451.80032     -1863.1438     -772.65154      1702.1638      5979.9051     -4565.4892     -28.984018      0.96189189     49379.263      81           
    150300   296.18069      332.44922     -1845.0019     -853.50948      1650.6197      6036.6322     -4623.0814     -33.209891      0.96310714     49316.956      81           
    150400   300.68331      243.93382     -1847.5736     -886.54819      1631.4034      5972.4442     -4595.5676     -30.224407      0.96527903     49205.992      81           
    150500   296.84524      511.36429     -1830.9528     -713.2716       1643.147       6069.0218     -4624.4247     -32.155431      0.96684797     49126.144      81           
    150600   302.96328      488.735       -1852.9309     -786.04336      1769.7096      6024.9462     -4635.5232     -31.423388      0.96499476     49220.488      81           
    150700   303.47861      574.28206     -1832.7235     -683.27894      1706.3564      6039.4493     -4624.5063     -31.014928      0.96288381     49328.395      81           
    150800   301.78628      454.43404     -1860.3028     -776.12388      1689.2373      6124.4867     -4690.2184     -32.644777      0.96090008     49430.23       81           
    150900   302.26214      385.02118     -1856.3477     -798.39908      1680.1956      5973.557      -4582.7403     -31.244316      0.96053905     49448.81       81           
    151000   297.0837       452.49269     -1859.0811     -766.93812      1670.5639      6054.8721     -4617.2127     -29.711354      0.96185688     49381.061      81           
    151100   294.99993      462.87956     -1816.9742     -764.86637      1679.8873      6069.0627     -4670.9799     -33.250007      0.96168739     49389.763      81           
    151200   300.29259      338.16828     -1782.1191     -821.5585       1645.2414      5937.7374     -4609.9566     -31.1762        0.9629689      49324.036      81           
    151300   300.88788      286.89688     -1862.7795     -894.80781      1675.1531      6045.0063     -4644.3411     -31.334113      0.96279902     49332.739      81           
    151400   303.84822      400.95904     -1815.4475     -778.82416      1651.902       5954.5904     -4577.3877     -33.874016      0.96280566     49332.399      81           
    151500   304.62311      222.61979     -1849.1932     -975.16699      1694.5898      6004.7666     -4621.0134     -31.363017      0.96182996     49382.443      81           
    151600   302.97832      502.04859     -1853.9311     -695.24556      1644.6558      6074.1384     -4636.7317     -30.837377      0.96338152     49302.91       81           
    151700   293.38144      568.5929      -1858.5387     -661.68019      1676.2311      5977.3517     -4532.997      -31.774101      0.96668432     49134.46       81           
    151800   302.94638      266.70952     -1861.4656     -817.26407      1627.3326      5928.4091     -4577.9549     -32.347693      0.97054666     48938.928      81           
    151900   306.65505      254.11296     -1832.2682     -869.07073      1627.4355      5926.5432     -4564.7218     -33.804978      0.97212159     48859.642      81           
    152000   300.70682      361.0341      -1837.7068     -886.74192      1694.5253      6072.472      -4649.7444     -31.769983      0.97255777     48837.729      81           
    152100   305.36533      501.54703     -1840.8251     -631.20915      1645.2435      6002.937      -4642.0126     -32.586515      0.97106111     48913.001      81           
    152200   300.99452      461.51597     -1859.5375     -668.1739       1636.8459      6029.8203     -4647.5957     -29.843227      0.96983353     48974.913      81           
    152300   299.7817       457.7453      -1807.1537     -663.91985      1613.6723      5982.4341     -4634.6118     -32.675749      0.9680774      49063.755      81           
    152400   303.60067      669.02911     -1866.6296     -514.60702      1680.713       5957.5008     -4557.1977     -30.75032       0.96539355     49200.155      81           
    152500   297.83022      638.49312     -1844.5526     -706.19672      1721.7063      6024.771      -4527.4681     -29.766868      0.96366715     49288.297      81           
    152600   301.49016      581.26111     -1845.6238     -663.8926       1674.0331      6079.3236     -4629.3927     -33.186497      0.96269714     49337.959      81           
    152700   298.66682      479.23264     -1858.0459     -741.45062      1629.6236      6132.2482     -4652.3376     -30.805061      0.96134757     49407.222      81           
    152800   298.76814      445.09193     -1866.9872     -770.02273      1694.5157      6014.3985     -4596.849      -29.963267      0.96147797     49400.521      81           
    152900   301.2249       535.10475     -1840.3214     -641.82363      1633.6135      6055.4751     -4640.5627     -31.276054      0.96313525     49315.517      81           
    153000   299.36429      455.16637     -1848.4982     -750.6924       1665.2261      6040.6219     -4619.3915     -32.099514      0.9645146      49244.991      81           
    153100   300.79603      178.90444     -1844.7388     -953.70159      1605.1379      5931.6746     -4527.5546     -31.913041      0.96658357     49139.582      81           
    153200   293.7336       284.37104     -1829.2877     -874.27149      1628.7671      6082.3722     -4690.5421     -32.667033      0.96864273     49035.12       81           
    153300   298.84345      495.17975     -1829.3651     -599.57088      1614.1541      5913.2083     -4573.4553     -29.791449      0.96838464     49048.189      81           
    153400   305.45927      346.52993     -1821.987      -774.08326      1667.413       5928.8873     -4620.836      -32.864161      0.96406492     49267.961      81           
    153500   302.43305      344.30725     -1830.2398     -865.01585      1666.6818      6019.3054     -4618.2318     -28.192517      0.95876273     49540.425      81           
    153600   303.63674      428.67371     -1855.9647     -749.02125      1632.7408      6066.9954     -4634.7809     -31.295646      0.95492342     49739.604      81           
    153700   295.82115      421.0931      -1798.3323     -822.81985      1678.4446      6036.2554     -4639.6758     -32.779074      0.95518499     49725.983      81           
    153800   298.01862      356.1014      -1859.3617     -740.45114      1644.5613      6005.4606     -4663.9135     -30.194115      0.95870719     49543.294      81           
    153900   294.33812      370.57275     -1833.2975     -745.64185      1647.6563      5943.3595     -4613.3876     -28.116055      0.96038819     49456.577      81           
    154000   299.40186      229.94185     -1852.9135     -992.94001      1671.5332      6070.2735     -4631.7284     -34.282899      0.96164173     49392.108      81           
    154100   304.13068      520.66708     -1855.6541     -665.27574      1644.4204      5979.0051     -4552.9016     -28.927078      0.96496637     49221.936      81           
    154200   302.07989      399.65635     -1880.3834     -804.97041      1624.3558      6086.8365     -4595.0184     -31.16381       0.96764963     49085.445      81           
    154300   302.0065       327.15493     -1867.7106     -787.02858      1586.6615      6038.3406     -4612.8213     -30.286731      0.96930621     49001.556      81           
    154400   294.66497      309.07375     -1870.1106     -860.51165      1636.9333      6028.1877     -4594.4075     -31.017507      0.97042064     48945.283      81           
    154500   299.60018      498.70554     -1861.1879     -638.39367      1604.0882      6146.8858     -4722.6331     -30.053764      0.97072542     48929.915      81           
    154600   306.47928      323.17885     -1872.4521     -852.29579      1660.578       6028.9412     -4612.4943     -29.098125      0.96914533     49009.69       81           
    154700   307.1277       523.09922     -1829.1025     -654.88945      1684.6855      5996.0471     -4640.4402     -33.201192      0.9672597      49105.233      81           
    154800   300.3914       373.12533     -1869.4429     -803.10986      1677.0909      6007.1573     -4600.8013     -37.768874      0.96534648     49202.555      81           
    154900   301.20751      257.73513     -1881.9578     -844.92925      1614.3825      6066.884      -4661.951      -34.693292      0.96509155     49215.551      81           
    155000   296.53973      430.89137     -1826.4303     -770.64659      1686.9133      6003.1335     -4630.6206     -31.457869      0.9665         49143.831      81           
    155100   301.75957      375.12067     -1870.0552     -829.75599      1671.4067      6040.6269     -4605.0178     -32.084003      0.96766052     49084.892      81           
    155200   308.94073      336.193       -1820.8983     -895.68507      1677.1235      6094.4594     -4687.8649     -30.941547      0.96753399     49091.311      81           
    155300   306.86216      336.60202     -1834.3734     -883.51373      1613.8695      6034.9664     -4561.7992     -32.547646      0.96655969     49140.796      81           
    155400   300.7053       388.74955     -1841.1279     -821.64327      1625.1526      6084.3353     -4626.1079     -31.859297      0.9668988      49123.562      81           
    155500   301.40685      323.57981     -1827.6682     -834.58433      1615.7528      6015.5448     -4612.0079     -33.457378      0.96706256     49115.243      81           
    155600   301.4467       208.65588     -1871.2489     -920.55962      1594.5927      6044.1011     -4607.4602     -30.769301      0.96786494     49074.525      81           
    155700   303.09339      236.12039     -1873.6676     -857.29216      1615.7959      5982.2044     -4594.4693     -36.450898      0.96909344     49012.315      81           
    155800   296.03282      441.20661     -1885.554      -733.05552      1653.8973      5967.5289     -4530.3445     -31.26554       0.97206644     48862.414      81           
    155900   298.42271      415.33708     -1894.8052     -726.22308      1666.1759      6027.2358     -4625.5722     -31.474186      0.97556116     48687.376      81           
    156000   303.04489      329.55692     -1846.6268     -816.71763      1691.0468      5944.1903     -4615.7552     -26.580568      0.97730356     48600.573      81           
    156100   302.63968      499.30976     -1858.738      -726.18916      1635.7892      6071.0466     -4590.8507     -31.748143      0.97607437     48661.776      81           
    156200   302.27086      351.1869      -1839.1074     -869.45935      1643.0246      6057.4679     -4610.5702     -30.168658      0.97235434     48847.946      81           
    156300   298.76787      287.03891     -1901.3484     -830.05975      1700.2724      5987.3004     -4636.0432     -33.082524      0.96851598     49041.537      81           
    156400   293.20667      486.30235     -1840.6596     -694.8454       1650.997       6021.8129     -4623.5321     -27.470539      0.96590348     49174.181      81           
    156500   297.20638      486.84489     -1858.3501     -681.46934      1609.514       6065.8658     -4618.7704     -29.945038      0.96455425     49242.967      81           
    156600   299.22694      432.64667     -1830.595      -789.55759      1670.3047      5991.5923     -4576.9047     -32.193072      0.96482309     49229.246      81           
    156700   303.63651      213.26834     -1886.8484     -971.07911      1667.0517      6096.6825     -4663.1088     -29.429463      0.96593264     49172.696      81           
    156800   302.48146      298.88207     -1864.9336     -895.405        1671.9088      6127.7829     -4708.3468     -32.12409       0.9669992      49118.461      81           
    156900   303.06866      380.46109     -1849.7193     -791.50633      1675.3414      6000.5434     -4624.2203     -29.977793      0.96759207     49088.365      81           
    157000   298.75935      381.87898     -1888.8944     -824.12453      1673.6172      6065.6185     -4613.2207     -31.117163      0.96790634     49072.426      81           
    157100   305.50774      202.38786     -1868.1761     -862.54055      1593.4283      5999.7457     -4626.8276     -33.241946      0.96865806     49034.344      81           
    157200   300.47552      406.89523     -1833.4368     -708.93029      1649.4159      5962.0751     -4632.1363     -30.092288      0.96758314     49088.818      81           
    157300   294.97561      404.66282     -1814.2606     -821.61657      1665.1655      5983.3952     -4578.3529     -29.667914      0.96819345     49057.875      81           
    157400   301.96562      460.69362     -1846.118      -782.04677      1681.136       6050.3004     -4612.6182     -29.95978       0.96607194     49165.606      81           
    157500   303.8669       465.15927     -1834.5098     -750.1444       1638.6101      5955.8261     -4510.7035     -33.919265      0.96439419     49251.139      81           
    157600   303.65361      206.25335     -1844.9211     -944.10204      1646.1893      6002.8924     -4620.0378     -33.767376      0.96305862     49319.441      81           
    157700   297.67884      448.1754      -1820.4645     -691.94804      1600.3996      5998.8689     -4602.5601     -36.120408      0.96269417     49338.112      81           
    157800   298.80211      349.82497     -1864.3917     -761.56989      1629.4823      6013.3245     -4635.3828     -31.637405      0.96337138     49303.429      81           
    157900   299.09107      449.98074     -1816.874      -714.85018      1634.1291      6082.1498     -4703.5324     -31.041655      0.96399389     49271.591      81           
    158000   297.24412      590.07411     -1856.3336     -654.17572      1684.5296      6095.3627     -4647.5219     -31.786944      0.96156528     49396.035      81           
    158100   298.76266      433.19056     -1827.0701     -819.27533      1691.3934      6047.4535     -4628.5783     -30.732618      0.96089024     49430.737      81           
    158200   298.49809      432.32439     -1832.3128     -805.46059      1677.9929      6128.4656     -4705.6606     -30.700108      0.96271468     49337.061      81           
    158300   305.10977      489.03779     -1885.9775     -636.31753      1601.9764      6005.537      -4564.1168     -32.063806      0.96409028     49266.665      81           
    158400   305.98507      295.19147     -1866.7602     -826.07437      1604.7516      6104.3027     -4690.2513     -30.776931      0.96651469     49143.084      81           
    158500   290.8095       519.49651     -1877.496      -749.90564      1689.7677      6036.1472     -4547.3705     -31.646273      0.96893982     49020.086      81           
    158600   297.05679      154.27434     -1829.4877     -920.78318      1637.0589      5964.6753     -4664.8842     -32.30476       0.97128256     48901.848      81           
    158700   295.97649      338.13054     -1855.7662     -756.72933      1601.4167      5936.0367     -4557.0033     -29.823886      0.97341964     48794.488      81           
    158800   304.56357      424.89527     -1850.1616     -702.59956      1620.3734      5964.9521     -4574.5574     -33.111706      0.97470619     48730.082      81           
    158900   303.82635      420.00118     -1894.6186     -751.04405      1654.6554      5998.5205     -4556.8381     -30.674033      0.97340394     48795.275      81           
    159000   302.3644       187.88595     -1873.7372     -956.44961      1664.2444      5962.2233     -4575.777      -32.617971      0.97224772     48853.303      81           
    159100   298.95679      304.06173     -1864.0465     -826.53371      1625.8399      5967.9678     -4567.0513     -32.114534      0.97333277     48798.843      81           
    159200   295.2997       415.02733     -1876.0246     -758.0263       1633.1674      6015.5034     -4567.2302     -32.362382      0.97349917     48790.501      81           
    159300   299.95838      522.99212     -1843.2736     -690.40042      1671.9524      5938.8959     -4523.4033     -30.778741      0.97070538     48930.925      81           
    159400   299.98594      449.47737     -1809.1999     -846.48659      1661.4543      6151.2377     -4675.4731     -32.055027      0.9664591      49145.911      81           
    159500   304.79204      317.9716      -1868.572      -866.77415      1630.767       6084.0909     -4629.9754     -31.564669      0.96093631     49428.367      81           
    159600   299.80302      272.31346     -1828.4099     -919.65091      1641.45        6073.7383     -4664.483      -30.331026      0.96003037     49475.011      81           
    159700   295.97131      270.25546     -1847.1669     -955.6915       1625.2812      5999.3912     -4522.9616     -28.596956      0.96226364     49360.186      81           
    159800   294.67088      466.14674     -1842.3675     -769.90405      1665.3964      6111.4923     -4669.309      -29.161443      0.96513377     49213.398      81           
    159900   297.7371       556.23948     -1840.8398     -658.42901      1649.0853      6086.908      -4649.2351     -31.249993      0.96870649     49031.893      81           
    160000   301.52559      393.00663     -1866.9888     -799.98832      1713.5641      5936.1033     -4558.3438     -31.339928      0.97312053     48809.486      81           
    160100   302.64843      370.61775     -1904.6274     -783.32433      1612.0144      6068.2521     -4592.9788     -28.718252      0.97577245     48676.833      81           
    160200   296.89988      278.45516     -1856.3482     -891.85612      1640.5988      5966.8621     -4550.0326     -30.768793      0.97831648     48550.253      81           
    160300   294.21282      353.52679     -1862.6363     -804.15758      1662.2881      6052.0329     -4664.392      -29.608387      0.97988947     48472.317      81           
    160400   295.80939      420.41144     -1891.4493     -732.46058      1612.3196      6087.7196     -4623.4056     -32.312323      0.97854009     48539.159      81           
    160500   301.61873      206.73037     -1844.2642     -1000.727       1674.2277      6038.5252     -4629.7437     -31.287583      0.97397292     48766.769      81           
    160600   302.86712      495.56039     -1852.2512     -708.19826      1672.4394      6035.0503     -4621.1267     -30.353163      0.9681891      49058.095      81           
    160700   305.6218       239.31647     -1863.8552     -883.20743      1615.9819      6043.271      -4643.1973     -29.676543      0.9636569      49288.821      81           
    160800   299.92721      487.67785     -1888.1716     -647.08269      1658.824       5915.976      -4519.2191     -32.648616      0.96058774     49446.303      81           
    160900   297.60144      452.61633     -1845.7359     -613.90685      1602.5578      5931.6634     -4587.8076     -34.154638      0.95954718     49499.924      81           
    161000   293.68964      81.132873     -1870.0242     -982.07412      1584.2176      6106.5488     -4726.8513     -30.683943      0.96075623     49437.632      81           
    161100   295.21159      242.71124     -1853.7383     -922.81489      1635.4953      6106.5094     -4690.2689     -32.471334      0.96538176     49200.756      81           
    161200   303.04723      242.97576     -1823.9688     -908.12864      1686.0966      5902.0074     -4581.7487     -31.282176      0.97040518     48946.063      81           
    161300   302.88881      432.11037     -1873.6047     -743.85484      1678.9886      6084.9017     -4685.4711     -28.849271      0.97273283     48828.94       81           
    161400   297.62963      373.32146     -1872.917      -841.86753      1698.6829      6044.5506     -4621.9667     -33.160848      0.97511259     48709.773      81           
    161500   297.15711      395.55359     -1880.8602     -774.14264      1653.5214      6023.2266     -4595.5927     -30.598829      0.97522579     48704.119      81           
    161600   293.8633       298.11431     -1886.7792     -876.02584      1659.9657      6022.8731     -4591.9012     -30.01823       0.97300279     48815.392      81           
    161700   298.99859      506.59942     -1889.4475     -663.96264      1660.7727      6000.6103     -4567.4826     -33.890822      0.97286105     48822.504      81           
    161800   303.65996      511.80236     -1897.2331     -689.60025      1642.3622      6096.6976     -4606.9671     -33.456979      0.97273282     48828.94       81           
    161900   301.89645      409.39433     -1889.5209     -815.09008      1672.1299      6098.9184     -4624.7897     -32.253316      0.97073493     48929.436      81           
    162000   305.42019      153.03514     -1866.8742     -939.44988      1630.3615      5935.656      -4574.1791     -32.479139      0.96941325     48996.146      81           
    162100   298.53863      395.59424     -1835.0482     -753.47812      1635.2794      5986.6195     -4604.8003     -32.977961      0.96826446     49054.277      81           
    162200   291.36952      520.88959     -1858.823      -737.47435      1649.5042      6068.7134     -4571.2892     -29.741463      0.96701177     49117.823      81           
    162300   295.78865      406.07415     -1852.362      -863.38251      1692.1116      6133.5163     -4668.6586     -35.150607      0.9664461      49146.572      81           
    162400   297.06379      572.97621     -1850.5747     -706.10788      1630.8935      6187.0084     -4657.516      -30.727113      0.96585926     49176.433      81           
    162500   299.9026       558.49827     -1871.2881     -714.67418      1671.7922      6122.9768     -4619.9889     -30.319452      0.96568256     49185.43       81           
    162600   303.17508      536.68345     -1861.8761     -727.36005      1675.9695      6126.1032     -4645.6523     -30.500851      0.96467593     49236.755      81           
    162700   301.02856      434.08646     -1839.7153     -773.21334      1644.2888      6016.2398     -4578.6762     -34.837267      0.96388844     49276.981      81           
    162800   299.36954      502.00837     -1855.2014     -631.572        1677.2733      5935.0484     -4590.838      -32.701884      0.96459785     49240.741      81           
    162900   295.7928       511.44509     -1880.7498     -669.48153      1675.7371      6019.3007     -4603.241      -30.120291      0.96523467     49208.254      81           
    163000   297.1648       446.29035     -1841.1057     -787.54494      1692.4246      6072.6972     -4658.6703     -31.510529      0.96762831     49086.527      81           
    163100   304.70538      478.13888     -1876.4818     -752.98875      1713.3407      6147.5499     -4721.1064     -32.174743      0.97012052     48960.425      81           
    163200   303.85752      490.83936     -1844.5065     -751.73806      1713.8         6042.084      -4633.9807     -34.81936       0.97294411     48818.336      81           
    163300   306.19294      540.41132     -1906.9715     -629.52493      1689.0994      5989.4299     -4568.2526     -33.369022      0.97290888     48820.104      81           
    163400   299.37613      491.86409     -1887.4664     -731.3897       1709.9898      5984.6331     -4551.27       -32.632641      0.97276752     48827.198      81           
    163500   300.55312      502.50375     -1888.5036     -640.87588      1613.1702      6042.7865     -4592.613      -31.46044       0.97142931     48894.461      81           
    163600   299.79098      427.36532     -1850.9372     -670.67027      1650.6166      6042.6695     -4712.9587     -31.35463       0.96970019     48981.647      81           
    163700   294.23843      369.04757     -1834.3491     -830.17196      1697.2301      6039.6899     -4671.9498     -31.401586      0.96697465     49119.708      81           
    163800   300.40787      394.93921     -1874.1751     -840.48204      1667.9405      6092.4406     -4618.5705     -32.214246      0.9623625      49355.116      81           
    163900   304.64407      442.75774     -1879.5346     -777.12977      1663.1164      5995.3853     -4527.6782     -31.401497      0.9592679      49514.336      81           
    164000   301.91153      524.35922     -1860.8934     -703.34407      1677.225       5978.7076     -4536.367      -30.968909      0.95950049     49502.333      81           
    164100   298.70063      239.9798      -1888.5951     -933.34334      1656.4122      5996.6679     -4557.2867     -33.875192      0.96170368     49388.927      81           
    164200   296.39025      325.75408     -1863.6011     -877.86426      1657.9904      5986.06       -4545.683      -31.147854      0.96571063     49184.001      81           
    164300   296.94217      243.69613     -1854.348      -982.61335      1646.4546      6128.5731     -4665.9647     -28.405438      0.96981107     48976.047      81           
    164400   301.96479      217.77648     -1853.6085     -933.60071      1631.1884      6040.2764     -4637.3467     -29.132424      0.97385315     48772.767      81           
    164500   302.77322      258.74011     -1895.2218     -889.81068      1665.9168      6041.4499     -4631.9225     -31.671557      0.97646406     48642.356      81           
    164600   303.41318      147.08739     -1885.8435     -996.44477      1682.2532      6060.2352     -4681.7841     -31.328584      0.97599925     48665.522      81           
    164700   301.86033      255.62117     -1855.4551     -899.26871      1612.8871      6004.636      -4575.3431     -31.834953      0.9742933      48750.733      81           
    164800   301.51711      275.69369     -1844.215      -863.57414      1624.1019      6068.2501     -4677.0648     -31.80436       0.9724553      48842.875      81           
    164900   298.12635      297.89102     -1862.4124     -854.73486      1612.5497      6089.1871     -4656.2033     -30.495227      0.96946827     48993.365      81           
    165000   299.60613      348.59658     -1849.3385     -845.40607      1638.4238      6141.5598     -4703.884      -32.758405      0.96689958     49123.522      81           
    165100   303.58097      349.46372     -1852.6043     -883.24593      1702.5916      6026.6427     -4611.6026     -32.317774      0.96382291     49280.332      81           
    165200   303.38556      372.12277     -1834.4084     -848.36467      1685.0083      5991.8015     -4590.1383     -31.775622      0.96257758     49344.088      81           
    165300   297.95837      300.05204     -1857.9491     -862.23587      1656.4246      6019.1893     -4621.6701     -33.70686       0.96095144     49427.589      81           
    165400   296.16767      208.4138      -1805.567      -938.21373      1644.4211      6014.9626     -4676.4513     -30.73787       0.96258155     49343.885      81           
    165500   297.83759      439.31705     -1846.5181     -761.80915      1667.5626      5972.741      -4560.7803     -31.878884      0.9647029      49235.379      81           
    165600   299.12207      453.45176     -1885.9785     -774.42472      1686.4995      6017.4426     -4557.2754     -32.811803      0.96593683     49172.483      81           
    165700   304.34464      483.50062     -1828.5172     -682.57222      1596.4498      6138.9976     -4707.9187     -32.938646      0.96804398     49065.449      81           
    165800   299.4684       512.73689     -1888.69       -720.72966      1647.3219      6037.922      -4526.4007     -36.686657      0.96909845     49012.061      81           
    165900   293.79491      578.96577     -1840.4968     -651.15957      1668.4381      5972.1634     -4537.6014     -32.377935      0.97123617     48904.184      81           
    166000   297.22884      477.89981     -1866.0103     -661.95617      1660.2113      6012.6393     -4633.1672     -33.817109      0.97430677     48750.059      81           
    166100   300.26777      450.62886     -1895.3238     -675.86985      1666.8044      6037.4427     -4650.905      -31.519557      0.97544769     48693.039      81           
    166200   298.08055      495.33042     -1918.4073     -783.31742      1752.9304      6067.6479     -4592.5992     -30.923888      0.97334396     48798.282      81           
    166300   300.99404      541.08344     -1868.1174     -715.72799      1675.781       6168.6835     -4684.9137     -34.622022      0.9729704      48817.017      81           
    166400   299.63783      437.29413     -1891.33       -780.19308      1693.2939      6088.588      -4638.1255     -34.939174      0.97174692     48878.48       81           
    166500   304.16348      365.97779     -1839.0198     -767.07381      1609.7491      6038.5699     -4642.9301     -33.317503      0.97065975     48933.226      81           
    166600   304.68275      197.29326     -1889.126      -913.36595      1613.7913      6100.0141     -4682.4769     -31.543196      0.96959677     48986.872      81           
    166700   296.84018      428.35254     -1869.3208     -807.93987      1669.6725      6067.1763     -4597.6558     -33.579783      0.96873982     49030.206      81           
    166800   304.6832       377.14352     -1841.3537     -827.7348       1639.9902      6059.8234     -4621.7765     -31.805082      0.96738493     49098.876      81           
    166900   307.01604      417.33887     -1854.6755     -851.48424      1659.7231      6163.8051     -4668.8827     -31.146917      0.96639493     49149.174      81           
    167000   307.45893      417.72444     -1871.2872     -781.53547      1669.1092      6065.9384     -4634.2162     -30.284279      0.96426383     49257.798      81           
    167100   297.52466      561.50816     -1879.0269     -681.96883      1703.6082      6083.0342     -4632.0517     -32.08686       0.96221886     49362.483      81           
    167200   294.97598      476.64047     -1845.3146     -772.55548      1640.9647      6074.0899     -4586.9449     -33.599185      0.9632624      49309.007      81           
    167300   296.63508      363.26126     -1882.681      -859.52273      1659.3872      6048.0524     -4568.1473     -33.827277      0.96409985     49266.176      81           
    167400   298.1052       424.89701     -1847.4994     -797.25351      1640.1653      6071.6706     -4613.0555     -29.130393      0.9681275      49061.216      81           
    167500   303.0596       378.17761     -1867.902      -797.66771      1690.8043      6150.0015     -4764.1934     -32.86504       0.9702767      48952.544      81           
    167600   298.79269      289.22044     -1872.8118     -950.00105      1704.6109      6061.1731     -4623.0867     -30.664043      0.97098496     48916.837      81           
    167700   301.04907      145.7439      -1859.6486     -1004.2588      1668.3446      6093.9387     -4721.2189     -31.412986      0.97147104     48892.361      81           
    167800   299.66359      173.86475     -1871.4145     -919.4068       1618.5551      6004.1299     -4626.9336     -31.065316      0.97043137     48944.741      81           
    167900   298.83332      248.65953     -1863.0073     -838.0162       1596.9727      5984.3029     -4599.2907     -32.301906      0.97020383     48956.22       81           
    168000   298.91461      343.69729     -1852.0647     -883.8143       1639.9735      6163.5244     -4691.2037     -32.717897      0.96982345     48975.422      81           
    168100   302.4639       476.36029     -1849.6252     -743.26446      1656.8463      6088.7309     -4644.5238     -31.803558      0.96800108     49067.624      81           
    168200   302.16977      487.91331     -1864.5132     -680.2143       1628.9618      6163.0649     -4723.0934     -36.292443      0.96694519     49121.205      81           
    168300   296.43772      445.5663      -1887.9179     -739.93721      1627.2769      6076.8241     -4600.6486     -30.031002      0.96589317     49174.706      81           
    168400   296.91732      436.37904     -1866.4904     -715.53593      1704.5682      6067.0937     -4721.4183     -31.838144      0.96525613     49207.16       81           
    168500   300.41251      375.25619     -1824.0217     -783.53958      1609.0088      6059.4966     -4657.6618     -28.026115      0.96546121     49196.707      81           
    168600   305.37951      573.28615     -1855.3775     -666.7533       1650.9094      6152.185      -4675.372      -32.305404      0.96439178     49251.263      81           
    168700   306.61898      502.13773     -1847.3742     -683.64108      1585.7078      6130.5649     -4652.5055     -30.614134      0.9641003      49266.153      81           
    168800   299.54129      455.88476     -1847.8862     -736.47818      1661.9589      6043.5607     -4635.9423     -29.328139      0.96251183     49347.459      81           
    168900   298.10242      326.96266     -1848.8288     -830.03631      1659.1566      5968.1474     -4588.2415     -33.234667      0.96294563     49325.228      81           
    169000   302.00231      554.03742     -1842.2466     -582.85633      1673.2981      5981.0372     -4643.1445     -32.050371      0.96526548     49206.683      81           
    169100   302.67333      305.86313     -1852.6972     -899.19181      1640.7126      6096.1885     -4645.2337     -33.915315      0.96964494     48984.438      81           
    169200   306.21352      650.8427      -1836.5954     -628.18211      1679.3842      6103.1207     -4635.8581     -31.026515      0.9729753      48816.771      81           
    169300   308.24953      520.06843     -1854.6978     -711.50021      1659.8782      6143.6362     -4687.3612     -29.886734      0.97505218     48712.791      81           
    169400   304.16723      384.76206     -1897.2572     -796.26517      1645.4786      6051.7658     -4584.0891     -34.870857      0.97487382     48721.703      81           
    169500   302.13636      385.61882     -1860.0026     -786.57651      1626.3639      6099.1551     -4661.8955     -31.425603      0.97707318     48612.032      81           
    169600   299.16129      256.96314     -1871.2369     -895.8036       1597.4648      6174.1546     -4716.5539     -31.061806      0.97734344     48598.589      81           
    169700   301.32928      121.27918     -1871.461      -945.3198       1603.7286      6040.7756     -4675.6068     -30.837347      0.97559392     48685.741      81           
    169800   302.8559       321.36846     -1920.386      -802.32097      1681.5555      6025.9028     -4633.9679     -29.415036      0.97382477     48774.188      81           
    169900   308.49418      333.34551     -1871.8095     -819.23455      1642.8008      6057.5323     -4644.1346     -31.80905       0.97272801     48829.182      81           
    170000   306.27581      324.27418     -1856.6591     -868.91635      1611.6023      5985.0276     -4517.1298     -29.650456      0.97116275     48907.882      81           
    170100   301.47875      404.27622     -1858.9231     -800.18001      1615.9327      6122.4705     -4644.0573     -30.966555      0.96979178     48977.021      81           
    170200   297.36633      671.70811     -1862.8552     -531.59221      1665.8249      6031.0633     -4599.4058     -31.326811      0.96822835     49056.106      81           
    170300   299.79169      564.03274     -1873.0297     -588.70345      1656.7281      5930.6582     -4530.7762     -30.844296      0.96847931     49043.394      81           
    170400   301.1801       508.88301     -1876.8079     -670.50809      1657.2567      6053.9188     -4624.2643     -30.712175      0.96930051     49001.844      81           
    170500   304.40628      359.85886     -1865.2918     -777.81417      1629.2973      6033.9539     -4630.4932     -29.793223      0.97160886     48885.426      81           
    170600   300.34325      354.89351     -1925.5508     -806.7901       1615.4089      6031.4758     -4527.8328     -31.817521      0.97233297     48849.02       81           
    170700   296.01627      153.68129     -1866.6126     -965.35323      1684.1873      5968.4084     -4634.0744     -32.874202      0.9731063      48810.2        81           
    170800   297.93638      292.91176     -1875.0317     -797.34144      1663.2074      5948.7881     -4617.5489     -29.1617        0.97317974     48806.516      81           
    170900   301.18383      415.12866     -1874.368      -736.48126      1625.201       6055.2002     -4623.4802     -30.943082      0.97183016     48874.294      81           
    171000   302.55178      447.16487     -1885.8824     -730.02601      1656.0126      6079.1911     -4636.9509     -35.179487      0.96787953     49073.786      81           
    171100   301.14668      367.06974     -1864.3154     -819.12879      1680.8639      5995.1107     -4592.864      -32.596804      0.96480134     49230.355      81           
    171200   298.03613      229.39028     -1829.1514     -947.96053      1645.1262      6004.3001     -4610.8793     -32.044884      0.96223202     49361.808      81           
    171300   296.883        353.15186     -1873.1162     -770.78465      1630.0845      6062.8601     -4663.8457     -32.046148      0.9619168      49377.984      81           
    171400   295.65772      320.40031     -1858.859      -763.44629      1655.6113      5984.1278     -4664.4086     -32.624939      0.96449959     49245.757      81           
    171500   294.39818      324.24643     -1881.3619     -855.67624      1714.0765      5968.5841     -4591.3829     -29.9932        0.96897845     49018.131      81           
    171600   305.08147      379.76562     -1857.4729     -748.64516      1626.714       6145.8994     -4755.3684     -31.361301      0.97426351     48752.224      81           
    171700   299.87806      270.39853     -1870.8468     -956.82933      1676.1382      6074.1224     -4617.218      -34.967863      0.97710974     48610.213      81           
    171800   300.71971      245.92774     -1848.5607     -913.42446      1667.9581      5982.1365     -4610.9116     -31.270036      0.97878962     48526.784      81           
    171900   294.87548      269.23562     -1924.2985     -870.74905      1677.62        6014.1333     -4595.4522     -32.017945      0.97729004     48601.245      81           
    172000   296.07314      218.82116     -1893.534      -896.23981      1674.6062      6083.9355     -4720.2306     -29.716165      0.97568675     48681.109      81           
    172100   296.6327       499.60965     -1893.5199     -659.70213      1692.7441      6058.5334     -4666.886      -31.559892      0.97512091     48709.357      81           
    172200   300.37878      242.64474     -1884.6155     -887.80888      1678.5356      6013.3179     -4647.7217     -29.06267       0.97413431     48758.69       81           
    172300   301.04518      253.98399     -1875.4538     -886.27005      1596.4544      6149.0656     -4696.0321     -33.780142      0.97275134     48828.011      81           
    172400   301.52728      309.56141     -1886.6548     -866.79983      1661.8963      6047.1096     -4613.7742     -32.215705      0.9726811      48831.536      81           
    172500   302.76326      232.5456      -1854.9839     -989.9344       1665.64        6048.8986     -4602.5997     -34.475017      0.97155118     48888.328      81           
    172600   306.69165      341.0209      -1853.9416     -836.20274      1680.471       6072.649      -4690.6804     -31.274376      0.96960305     48986.554      81           
    172700   298.14654      474.32105     -1888.2118     -743.64014      1672.6667      6035.668      -4568.2867     -33.874985      0.96848656     49043.027      81           
    172800   296.44671      271.51219     -1852.0051     -897.98361      1643.6082      6006.2728     -4598.3179     -30.062186      0.97024714     48954.035      81           
    172900   303.54223      406.567       -1885.4446     -693.89852      1615.637       6037.1635     -4636.0322     -30.858236      0.97076747     48927.796      81           
    173000   302.26145      293.87954     -1871.9204     -908.85861      1664.1664      6024.2466     -4583.769      -29.985543      0.97131347     48900.292      81           
    173100   303.60321      427.06471     -1859.1771     -889.07009      1708.5207      6063.6355     -4563.5212     -33.323164      0.97357427     48786.738      81           
    173200   307.00706      555.90437     -1856.4364     -725.07631      1664.1315      6083.0423     -4577.1128     -32.643831      0.97444254     48743.267      81           
    173300   302.9754       399.91742     -1863.4907     -794.21928      1684.1163      6103.4538     -4699.4096     -30.533054      0.97383901     48773.475      81           
    173400   304.36782      390.74823     -1853.7577     -709.69402      1638.9192      5984.2125     -4635.4443     -33.487476      0.97270043     48830.566      81           
    173500   297.89918      268.01308     -1864.7996     -851.09659      1598.6897      6035.1314     -4614.7739     -35.137992      0.96841013     49046.898      81           
    173600   295.77974      303.76565     -1828.4272     -849.76495      1595.277       6098.82       -4680.518      -31.621214      0.96690532     49123.23       81           
    173700   300.16415      358.75415     -1851.3447     -825.14246      1646.7898      6075.988      -4657.0064     -30.530053      0.96484154     49228.304      81           
    173800   302.47337      148.89868     -1855.7015     -1055.0288      1696.3837      6042.4914     -4648.1496     -31.096465      0.96102333     49423.891      81           
    173900   300.00549      186.87849     -1821.5581     -1030.0873      1631.9528      6083.5231     -4644.1948     -32.757194      0.96008017     49472.444      81           
    174000   298.15966      420.29589     -1841.7074     -819.06472      1696.6269      6003.7547     -4585.874      -33.439543      0.95954073     49500.257      81           
    174100   297.97706      458.49609     -1821.7479     -757.995        1673.2521      6055.1338     -4659.4544     -30.692421      0.95903545     49526.337      81           
    174200   302.43481      166.88899     -1863.1436     -971.20719      1637.5044      6023.5373     -4626.9743     -32.82765       0.95932511     49511.383      81           
    174300   300.19008      429.30333     -1857.2146     -749.44037      1657.4321      6025.9209     -4614.417      -32.977707      0.96133214     49408.015      81           
    174400   302.98781      189.66335     -1827.8576     -977.66947      1655.2118      6064.1048     -4693.8676     -30.258566      0.96364529     49289.415      81           
    174500   306.57823      364.74715     -1865.0776     -846.4012       1702.5811      6018.9268     -4610.7056     -34.576352      0.9655993      49189.672      81           
    174600   300.34582      507.15929     -1812.1104     -826.84572      1729.6531      6069.2531     -4617.1327     -35.658044      0.96917485     49008.198      81           
    174700   298.88452      530.81753     -1880.3529     -685.46538      1678.6764      6016.4111     -4569.1503     -29.301334      0.97322699     48804.147      81           
    174800   298.27228      523.51206     -1881.3082     -658.02559      1639.0403      6015.8809     -4561.7269     -30.348436      0.97617918     48656.552      81           
    174900   296.49225      343.94838     -1862.445      -841.21319      1648.8386      6101.0996     -4669.0248     -33.306879      0.97717102     48607.165      81           
    175000   300.10746      265.16218     -1910.7537     -855.02628      1617.3816      6037.5849     -4596.7726     -27.251791      0.97794386     48568.752      81           
    175100   304.69118      332.43769     -1870.6489     -787.48053      1682.5863      5966.7534     -4628.754      -30.018611      0.97781411     48575.197      81           
    175200   301.97739      416.55148     -1871.1523     -836.13588      1687.7391      6097.6993     -4630.7367     -30.862153      0.97653374     48638.886      81           
    175300   303.64047      326.45533     -1868.7006     -858.42871      1655.6759      6050.608      -4626.1006     -26.598684      0.97350592     48790.163      81           
    175400   302.90206      126.29525     -1902.9369     -942.67777      1617.5482      6008.7536     -4624.2455     -30.146281      0.97116683     48907.676      81           
    175500   295.37857      158.14914     -1854.4398     -991.00103      1658.2857      5990.296      -4611.7431     -33.248589      0.97008986     48961.972      81           
    175600   294.74763      212.00687     -1838.1168     -994.44869      1714.9171      6002.0784     -4638.7891     -33.634107      0.96821141     49056.965      81           
    175700   296.86929      415.68299     -1860.8968     -834.42116      1700.9122      6068.4084     -4626.593      -31.726532      0.96954376     48989.55       81           
    175800   300.44002      157.93182     -1881.1599     -1066.3471      1696.6429      6071.8307     -4632.0885     -30.946237      0.97400408     48765.209      81           
    175900   302.25286      289.29477     -1892.2181     -878.80156      1660.4631      6056.216      -4625.5732     -30.791541      0.97854422     48538.954      81           
    176000   298.06502      330.22655     -1881.2269     -837.1794       1621.0397      6099.1206     -4637.586      -33.941335      0.98208449     48363.978      81           
    176100   303.39903      193.61473     -1887.714      -888.12073      1636.2834      6021.6478     -4653.083      -35.398722      0.98128391     48403.436      81           
    176200   294.6548       408.3537      -1859.2749     -833.50058      1664.2626      6127.8798     -4661.4159     -29.597328      0.97715604     48607.91       81           
    176300   301.00127      279.72103     -1907.4826     -896.57463      1629.7881      6091.9072     -4606.6118     -31.305134      0.97086717     48922.771      81           
    176400   306.49087      218.68517     -1886.559      -938.2571       1682.5694      5989.2348     -4600.406      -27.896959      0.9654314      49198.227      81           
    176500   304.78861      163.41346     -1862.0675     -1001.7979      1684.1946      5978.9465     -4604.5887     -31.273527      0.96524341     49207.808      81           
    176600   296.74038      213.39904     -1868.6123     -946.39075      1673.8551      6085.3476     -4697.2199     -33.580784      0.96733938     49101.188      81           
    176700   297.26558      229.51936     -1865.5013     -904.02824      1645.668       5944.2486     -4558.8237     -32.044015      0.96852513     49041.074      81           
    176800   299.34742      293.29737     -1843.3847     -916.74249      1633.7933      6111.9631     -4660.972      -31.359842      0.96902169     49015.944      81           
    176900   306.15399      313.72243     -1873.318      -833.5442       1657.9465      6038.6808     -4644.592      -31.450617      0.96889366     49022.421      81           
    177000   299.00617      436.60282     -1830.4021     -771.45955      1618.7915      6125.2784     -4674.716      -30.889372      0.96941097     48996.261      81           
    177100   304.87587      267.51162     -1902.6176     -825.38601      1609.9013      5981.3181     -4564.1046     -31.59946       0.96906076     49013.967      81           
    177200   301.33528      205.0969      -1890.2588     -927.81472      1621.5844      6008.9326     -4573.6522     -33.694369      0.97007593     48962.675      81           
    177300   302.91255      330.34483     -1890.5757     -853.7977       1684.6262      6065.0038     -4639.4102     -35.501588      0.97161798     48884.967      81           
    177400   301.77458      509.39431     -1848.0856     -799.25802      1690.9356      6134.6994     -4635.6323     -33.264705      0.97260559     48835.328      81           
    177500   300.76639      592.01973     -1890.2258     -668.5151       1670.8499      6131.8318     -4622.1434     -29.777686      0.97347528     48791.699      81           
    177600   299.365        315.28928     -1882.0688     -845.67529      1637.1813      6046.7373     -4607.1445     -33.740733      0.97209808     48860.823      81           
    177700   300.36514      272.09683     -1868.9418     -878.81777      1617.5156      6052.815      -4618.5592     -31.915073      0.96898041     49018.032      81           
    177800   297.41577      218.27148     -1886.4142     -991.46839      1649.9682      6038.0088     -4560.4218     -31.401097      0.96779306     49078.17       81           
    177900   300.5816       174.22645     -1842.6106     -1046.4297      1690.7629      6010.9194     -4603.3598     -35.055787      0.96831799     49051.565      81           
    178000   303.13947      253.99486     -1846.0073     -1038.5475      1659.8582      6178.5024     -4667.0494     -32.761568      0.96918169     49007.852      81           
    178100   300.9935       313.73509     -1903.513      -1020.9194      1746.5565      6178.7659     -4654.0677     -33.087101      0.97045498     48943.551      81           
    178200   299.00867      467.95877     -1855.5611     -728.63685      1685.5121      6064.8289     -4665.6149     -32.569307      0.97220948     48855.225      81           
    178300   301.34889      189.47362     -1885.3911     -906.03905      1686.0682      5909.5934     -4584.4377     -30.320178      0.97310373     48810.328      81           
    178400   294.77038      248.71131     -1913.9294     -975.78984      1688.5962      6123.1981     -4642.4999     -30.863809      0.97395326     48767.754      81           
    178500   302.75293      118.9581      -1870.117      -1036.4012      1602.3089      6085.3548     -4630.5145     -31.672957      0.97585306     48672.812      81           
    178600   300.56386      183.06233     -1877.3337     -1036.7722      1705.532       6056.5714     -4631.1529     -33.782209      0.97721458     48604.998      81           
    178700   305.94819      143.48988     -1877.044      -1007.9369      1641.3699      6038.9079     -4620.4564     -31.350688      0.97839179     48546.516      81           
    178800   299.67521      331.68955     -1917.8368     -784.24668      1660.1258      6080.4282     -4676.4303     -30.350738      0.97931862     48500.571      81           
    178900   293.57067      256.97258     -1897.0522     -888.88552      1664.6523      6009.565      -4599.1029     -32.204152      0.97988848     48472.366      81           
    179000   300.22154      252.48865     -1864.3265     -852.92181      1671.3816      6045.8666     -4714.6446     -32.866655      0.97731019     48600.243      81           
    179100   297.93544      235.17028     -1854.6459     -998.15319      1718.4887      6027.8543     -4623.0575     -35.316089      0.97125768     48903.101      81           
    179200   298.17611      365.64753     -1857.0525     -911.36224      1704.462       6047.2537     -4584.7935     -32.859894      0.96679308     49128.933      81           
    179300   299.97588      260.41617     -1854.0341     -979.76724      1695.3258      6078.8769     -4646.9586     -33.02662       0.96331878     49306.121      81           
    179400   296.53071      397.44188     -1845.9565     -842.38399      1693.049       6006.1544     -4581.9339     -31.487105      0.96320427     49311.983      81           
    179500   297.89213      415.39973     -1834.0756     -739.14961      1619.8413      6014.8677     -4616.301      -29.783079      0.96462591     49239.308      81           
    179600   297.7049       254.28796     -1848.0431     -826.76052      1661.5691      5949.2712     -4650.3895     -31.359219      0.96403046     49269.722      81           
    179700   292.3122       265.29814     -1870.7667     -878.99634      1718.7514      5975.0932     -4645.5571     -33.226225      0.96409906     49266.216      81           
    179800   301.54867      267.32527     -1870.3786     -897.46757      1680.1313      6028.3663     -4641.6026     -31.723532      0.9665067      49143.49       81           
    179900   299.87133      319.74368     -1898.6758     -936.76713      1714.5261      6120.1945     -4644.9956     -34.538497      0.97116155     48907.942      81           
    180000   306.13437      400.73862     -1847.7271     -767.54957      1647.7773      6029.0447     -4630.1248     -30.681979      0.97490091     48720.349      81           
    180100   301.63805      313.12949     -1884.5448     -861.5735       1689.8059      6061.5905     -4656.1707     -35.977933      0.97508212     48711.295      81           
    180200   298.06358      374.77939     -1881.0353     -748.25551      1606.3378      6099.607      -4672.3979     -29.476679      0.97418192     48756.307      81           
    180300   296.49249      227.53803     -1900.5191     -912.87335      1625.9495      6130.2993     -4685.5487     -29.769648      0.97298059     48816.506      81           
    180400   298.73919      394.37423     -1891.7322     -765.14026      1669.4931      6042.3815     -4626.8867     -33.741296      0.97157105     48887.328      81           
    180500   299.56689      426.28204     -1865.0849     -766.04759      1712.5722      5977.0286     -4604.1413     -28.044931      0.97146697     48892.566      81           
    180600   302.0221       313.9158      -1824.5374     -844.1286       1640.9808      6101.2623     -4722.3232     -37.338033      0.97013326     48959.782      81           
    180700   302.10087      193.63147     -1870.764      -948.39481      1637.8666      6007.3723     -4600.8039     -31.644772      0.96721098     49107.706      81           
    180800   299.85869      292.33317     -1850.325      -884.01367      1653.2056      6025.8664     -4622.5746     -29.8255        0.96490262     49225.188      81           
    180900   309.10016      140.35271     -1872.0425     -944.59687      1670.3313      6002.1438     -4685.9018     -29.581324      0.96379627     49281.694      81           
    181000   303.99562      487.24789     -1865.7251     -742.11569      1685.9832      6091.8219     -4653.566      -29.150403      0.96499995     49220.223      81           
    181100   301.58345      426.26692     -1863.103      -823.01705      1736.1706      6077.516      -4670.2154     -31.084269      0.96694387     49121.272      81           
    181200   300.14444      372.69169     -1888.6973     -766.63351      1670.4139      6025.4441     -4635.4999     -32.335604      0.96627909     49155.066      81           
    181300   300.91755      232.29578     -1888.6839     -856.52316      1626.1081      6047.5519     -4664.9685     -31.188672      0.96750852     49092.604      81           
    181400   303.74198      330.64907     -1861.8308     -753.2915       1648.9502      6029.721      -4700.9793     -31.920602      0.9704542      48943.59       81           
    181500   298.02733      378.98205     -1852.2166     -850.19094      1656.3075      6113.7062     -4656.3758     -32.248288      0.97099151     48916.507      81           
    181600   304.15483      401.23769     -1889.8009     -841.4324       1709.2558      6063.0122     -4606.5321     -33.264925      0.97145122     48893.359      81           
    181700   308.97181      371.20611     -1873.454      -856.54395      1702.3671      6053.2656     -4621.2473     -33.181358      0.96986153     48973.499      81           
    181800   302.1527       373.80182     -1865.0359     -828.72104      1658.5914      6075.5697     -4635.9745     -30.627931      0.96779718     49077.961      81           
    181900   302.95564      324.79986     -1863.7897     -801.71075      1627.6725      6028.3777     -4636.3756     -29.374404      0.96578083     49180.426      81           
    182000   295.36464      377.28        -1871.7698     -816.68017      1641.8442      6092.6167     -4635.803      -32.927936      0.96439854     49250.917      81           
    182100   296.8663       445.72699     -1844.6411     -724.45747      1629.0148      6105.1288     -4682.4299     -36.888136      0.96350084     49296.804      81           
    182200   304.64501      376.92218     -1826.6464     -785.28536      1623.0496      6050.7137     -4652.7897     -32.119607      0.96310761     49316.932      81           
    182300   302.83297      391.27675     -1862.1104     -869.97627      1709.1923      6111.3267     -4663.1352     -34.020398      0.96056588     49447.429      81           
    182400   302.67311      306.06645     -1831.0979     -887.96679      1583.944       6007.6365     -4536.5833     -29.866132      0.95841148     49558.581      81           
    182500   300.521        264.49306     -1828.7839     -893.86928      1619.0838      6121.1754     -4719.7835     -33.329359      0.95886457     49535.163      81           
    182600   298.40947      325.58646     -1870.9818     -827.50678      1647.0234      6028.6106     -4619.1932     -32.365831      0.96138273     49405.415      81           
    182700   296.33066      478.1174      -1835.2903     -699.5564       1620.6394      6063.473      -4637.8545     -33.293918      0.96553021     49193.192      81           
    182800   299.67596      318.62912     -1868.2733     -852.24856      1681.8302      6042.9276     -4653.7226     -31.884184      0.96770466     49082.654      81           
    182900   304.32945      272.03731     -1847.0018     -910.32901      1672.1983      6106.1567     -4717.4006     -31.586145      0.96851007     49041.837      81           
    183000   307.88673      358.22768     -1874.9077     -915.73255      1690.3502      6068.4358     -4579.3286     -30.589499      0.96774765     49080.473      81           
    183100   304.93577      329.99095     -1838.4265     -952.94697      1685.9647      6106.8549     -4638.2316     -33.22356       0.96858339     49038.124      81           
    183200   302.72882      308.96629     -1834.3859     -905.12255      1643.7753      6090.7588     -4655.4142     -30.645143      0.96992167     48970.462      81           
    183300   302.00709      218.3674      -1868.4277     -930.20631      1643.2329      5929.4145     -4520.0907     -35.555196      0.97074111     48929.125      81           
    183400   300.70648      172.85707     -1855.2608     -930.61173      1602.0255      6002.0908     -4612.7162     -32.670482      0.97377853     48776.504      81           
    183500   299.51837      163.28069     -1884.2797     -947.58113      1625.4016      5958.7451     -4557.0313     -31.973769      0.97742476     48594.546      81           
    183600   303.10085      85.41575      -1910.2317     -1095.6561      1683.6849      6070.1247     -4627.5075     -34.998537      0.97988361     48472.607      81           
    183700   303.80678      515.96484     -1883.4761     -719.99755      1679.2233      6092.0727     -4619.6752     -32.18221       0.98277058     48330.214      81           
    183800   305.52086      277.84727     -1910.2527     -855.93803      1616.8946      6113.7368     -4657.1674     -29.426025      0.9843989      48250.27       81           
    183900   296.02246      321.66441     -1840.293      -886.12201      1643.7372      6024.3078     -4584.7605     -35.205069      0.98291131     48323.294      81           
    184000   299.16663      321.18343     -1867.4708     -812.56995      1630.9389      6013.2998     -4612.0645     -30.950068      0.97697342     48616.996      81           
    184100   299.70865      241.76814     -1888.2464     -928.28458      1660.5928      6090.6036     -4663.8829     -29.01441       0.96958234     48987.601      81           
    184200   308.57299      427.39659     -1846.4311     -730.54636      1647.6807      6025.2769     -4638.9628     -29.620792      0.96340088     49301.919      81           
    184300   309.61129      432.76754     -1832.4959     -774.09234      1666.4827      6081.0545     -4678.8396     -29.341724      0.95825991     49566.419      81           
    184400   302.11742      366.70714     -1868.764      -843.91157      1650.1501      6034.7633     -4574.2522     -31.278532      0.95541175     49714.181      81           
    184500   297.95669      200.86504     -1831.2442     -1022.561       1651.4739      6140.655      -4704.752      -32.70664       0.95751341     49605.062      81           
    184600   302.44066      238.91415     -1819.7668     -895.62706      1644.6006      6023.0306     -4681.8493     -31.473801      0.96155356     49396.637      81           
    184700   298.75366      296.14673     -1866.6        -849.91633      1650.1441      6019.4703     -4626.0505     -30.900833      0.96401017     49270.759      81           
    184800   303.51808      110.36334     -1880.8387     -951.17665      1610.9803      6108.3975     -4742.2202     -34.77892       0.96760385     49087.767      81           
    184900   302.12875      131.02661     -1886.1352     -951.16942      1588.9039      6014.8425     -4605.8547     -29.560482      0.96962316     48985.539      81           
    185000   301.91723      272.93703     -1853.7842     -892.84061      1659.8539      6032.9324     -4643.9579     -29.266545      0.97075095     48928.629      81           
    185100   300.40235      284.38122     -1875.5021     -966.67936      1685.4547      6135.5477     -4663.3899     -31.049805      0.9704361      48944.503      81           
    185200   308.57491      252.72025     -1847.4819     -923.71619      1671.8365      6049.3993     -4665.6929     -31.624537      0.97030447     48951.143      81           
    185300   302.76127      379.21486     -1853.8668     -770.86361      1677.9752      6061.9978     -4704.3752     -31.652519      0.96944227     48994.679      81           
    185400   298.64093      409.20385     -1897.2652     -699.33725      1607.5655      6070.8507     -4639.2915     -33.318423      0.96697588     49119.646      81           
    185500   297.5977       435.36897     -1863.2717     -726.75861      1633.9275      6129.8227     -4705.2528     -33.098136      0.96506493     49216.909      81           
    185600   301.44609      365.7342      -1883.5565     -814.31962      1662.2304      6122.0481     -4691.56       -29.108231      0.96325599     49309.335      81           
    185700   300.37671      390.87234     -1816.3639     -852.89727      1610.4213      6095.4357     -4613.0037     -32.719816      0.96200054     49373.686      81           
    185800   298.84737      347.24244     -1832.9162     -873.22931      1649.6649      6057.5529     -4618.5805     -35.249307      0.96089547     49430.468      81           
    185900   296.05079      409.34465     -1844.5196     -742.21367      1697.0966      5983.5983     -4652.6415     -31.975579      0.95987387     49483.077      81           
    186000   294.0536       510.98764     -1862.0677     -674.84777      1705.7438      5998.1708     -4625.0034     -31.008071      0.96139867     49404.596      81           
    186100   299.07039      609.27788     -1826.8301     -565.66052      1654.6801      6029.8832     -4648.3833     -34.411628      0.96282888     49331.209      81           
    186200   301.70624      273.46102     -1822.7789     -908.55641      1684.3973      5978.259      -4626.0692     -31.790746      0.96377819     49282.618      81           
    186300   300.6172       287.69342     -1825.9564     -895.27404      1659.8692      6039.7953     -4657.497      -33.243706      0.96579766     49179.569      81           
    186400   302.09839      316.36743     -1818.8863     -828.45422      1656.3037      6035.62       -4697.8857     -30.330019      0.96805507     49064.887      81           
    186500   304.00106      242.748       -1855.9675     -859.35854      1662.1024      5943.5468     -4617.429      -30.146133      0.96877177     49028.589      81           
    186600   298.55591      424.34298     -1869.5423     -740.90367      1674.8895      6013.6889     -4624.3766     -29.41281       0.97053289     48939.622      81           
    186700   298.92956      215.6035      -1872.0462     -969.66501      1699.464       6103.459      -4711.8531     -33.755129      0.9729766      48816.706      81           
    186800   300.8212       305.84752     -1882.91       -854.16802      1628.6858      6062.6596     -4615.561      -32.858893      0.97302023     48814.517      81           
    186900   303.61685      340.40603     -1821.0276     -864.83421      1629.7352      6113.1303     -4683.0829     -33.514776      0.97130912     48900.511      81           
    187000   301.84378      365.56905     -1871.6461     -875.3962       1717.1639      6038.0011     -4610.3173     -32.2363        0.96876077     49029.145      81           
    187100   293.35594      404.17803     -1866.9001     -850.55541      1676.5798      6109.7292     -4631.4714     -33.204074      0.96641354     49148.228      81           
    187200   296.63956      322.78709     -1874.3986     -837.20695      1657.1177      6039.8067     -4627.8458     -34.686015      0.96334001     49305.035      81           
    187300   300.5324       211.56497     -1816.4171     -889.82122      1625.6906      6005.0805     -4683.7968     -29.170996      0.96177878     49385.07       81           
    187400   305.79124      360.25155     -1837.5978     -776.48627      1667.0521      6060.2186     -4718.7857     -34.149362      0.95939241     49507.91       81           
    187500   297.9287       329.81313     -1858.7774     -996.22523      1724.0258      6103.5451     -4614.9357     -27.819421      0.95675659     49644.302      81           
    187600   303.39829      238.26566     -1850.6145     -953.225        1659.0865      6041.8996     -4628.3601     -30.520854      0.95826266     49566.277      81           
    187700   297.5822       342.74692     -1878.0311     -856.06471      1661.6146      6082.7757     -4634.6501     -32.89749       0.96024789     49463.803      81           
    187800   303.03737      42.615853     -1817.7272     -1037.8881      1613.5569      5935.6168     -4618.9472     -31.99539       0.96404088     49269.189      81           
    187900   302.97741      86.234692     -1851.887      -1065.2877      1642.5647      6064.6715     -4672.554      -31.272795      0.96508564     49215.853      81           
    188000   306.34656      70.489192     -1823.9471     -1110.3663      1638.3735      6136.0587     -4741.1148     -28.514878      0.96606264     49166.08       81           
    188100   304.79361      53.814126     -1849.365      -1150.2067      1657.8456      6014.8299     -4589.8947     -29.394995      0.96472175     49234.417      81           
    188200   301.54457      136.29782     -1826.5706     -1000.2328      1620.7092      6038.5434     -4662.8482     -33.303191      0.96292021     49326.53       81           
    188300   294.60315      127.24446     -1838.6792     -1050.569       1646.3699      5979.3618     -4581.8263     -27.412819      0.96025134     49463.626      81           
    188400   300.60559      116.96336     -1865.6583     -991.33748      1589.8657      6058.4116     -4641.1656     -33.152541      0.96104859     49422.592      81           
    188500   301.27305      318.74822     -1859.213      -887.61109      1664.0012      6048.8482     -4616.5753     -30.701809      0.9638757      49277.632      81           
    188600   303.55281      542.18613     -1829.4344     -709.52765      1674.9856      6061.2252     -4622.5026     -32.560007      0.96698051     49119.411      81           
    188700   298.53191      202.82226     -1822.3259     -1049.3063      1755.3034      6023.8753     -4671.3936     -33.330691      0.96635206     49151.354      81           
    188800   302.76488      234.5669      -1840.687      -878.89761      1632.7474      6013.4957     -4660.6746     -31.416962      0.96327967     49308.123      81           
    188900   299.45504      326.56085     -1845.2455     -824.27724      1619.0911      6032.6526     -4624.2615     -31.398566      0.96095489     49427.411      81           
    189000   298.16049      343.81151     -1848.4381     -844.49868      1640.916       6154.2953     -4728.8037     -29.659404      0.95785222     49587.516      81           
    189100   302.43781      407.03549     -1796.0957     -771.80024      1605.8634      6057.7468     -4654.9818     -33.697046      0.9568653      49638.662      81           
    189200   307.2738       309.37769     -1856.4291     -907.54524      1620.3647      6031.5361     -4547.9851     -30.563654      0.95732342     49614.907      81           
    189300   303.7898       482.52539     -1811.334      -756.50136      1640.5423      6135.0494     -4693.7003     -31.530469      0.9567269      49645.842      81           
    189400   303.01611      488.20858     -1840.7907     -632.37839      1658.7664      5992.7629     -4658.0113     -32.140385      0.95622768     49671.761      81           
    189500   295.8605       563.57758     -1849.0705     -626.17307      1614.4241      6086.1968     -4630.9949     -30.804862      0.95576325     49695.898      81           
    189600   305.98269      449.49576     -1817.2598     -623.49719      1617.1689      5962.4774     -4656.2303     -33.163272      0.95620497     49672.94       81           
    189700   301.02718      455.83198     -1812.7357     -744.48771      1666.8728      6033.1492     -4658.2019     -28.76471       0.95448043     49762.689      81           
    189800   302.17256      565.09274     -1829.8618     -659.5583       1647.2592      6020.313      -4579.3399     -33.719395      0.95260983     49860.406      81           
    189900   304.48521      361.04994     -1821.071      -801.39519      1612.014       6104.0455     -4699.8732     -32.670159      0.95252499     49864.847      81           
    190000   292.88239      333.8009      -1813.5612     -883.89399      1660.632       6121.0507     -4719.3102     -31.116477      0.95343672     49817.163      81           
    190100   294.23821      395.36202     -1835.1078     -796.714        1652.2921      6069.1381     -4659.6106     -34.635748      0.95450587     49761.362      81           
    190200   302.20301      291.01838     -1864.3165     -863.95139      1618.753       6022.1179     -4593.4287     -28.156016      0.95443267     49765.179      81           
    190300   297.17769      496.28782     -1819.207      -786.65396      1666.2986      6064.8495     -4597.2131     -31.786241      0.95651463     49656.859      81           
    190400   303.8939       504.51161     -1872.9599     -646.73468      1630.818       6019.4902     -4590.5974     -35.50465       0.96115178     49417.287      81           
    190500   296.07163      525.11734     -1829.2789     -726.47795      1658.3028      6102.2201     -4648.3904     -31.258265      0.96495309     49222.613      81           
    190600   299.97245      556.6342      -1860.9058     -599.06824      1637.225       6010.6702     -4599.2699     -32.017013      0.96650071     49143.795      81           
    190700   297.76244      180.94969     -1891.4238     -931.13007      1664.8131      5983.6489     -4614.8864     -30.071991      0.96758731     49088.607      81           
    190800   291.36472      161.89983     -1865.8898     -936.69884      1569.8989      6055.3547     -4631.6422     -29.123006      0.97226541     48852.414      81           
    190900   294.47533      276.52682     -1897.571      -842.69016      1581.6071      6144.457      -4676.2988     -32.97732       0.97551266     48689.796      81           
    191000   301.52603      261.27611     -1857.2231     -890.60763      1640.4193      5993.8927     -4595.6526     -29.552588      0.97507114     48711.843      81           
    191100   299.01976      453.04681     -1876.1786     -728.49082      1728.1032      6040.6436     -4680.1908     -30.839866      0.97049786     48941.388      81           
    191200   299.89917      164.26165     -1855.467      -986.47482      1691.7435      5991.3014     -4646.5514     -30.289909      0.96453919     49243.735      81           
    191300   299.41571      100.01787     -1856.8397     -1045.3358      1641.0609      6036.2701     -4647.392      -27.745633      0.95990844     49481.295      81           
    191400   301.27002      261.09762     -1840.5012     -919.38915      1661.6514      6054.9095     -4662.071      -33.502004      0.95751129     49605.173      81           
    191500   295.8117       350.14277     -1840.8716     -1000.7602      1681.8929      6059.2246     -4516.1248     -33.21812       0.95736198     49612.909      81           
    191600   303.00164      347.72436     -1843.531      -901.77846      1668.3627      6073.5283     -4618.0755     -30.781656      0.95647463     49658.936      81           
    191700   299.55682      357.96682     -1857.1724     -809.97365      1644.5655      6059.9416     -4647.1264     -32.267783      0.9555563      49706.66       81           
    191800   299.4117       375.0916      -1817.0403     -750.35944      1577.7338      6036.7852     -4641.3619     -30.665714      0.9572548      49618.464      81           
    191900   300.96457      311.87376     -1857.2912     -824.53963      1610.3023      6035.8604     -4622.893      -29.565107      0.95724564     49618.939      81           
    192000   300.82892      249.80216     -1884.8297     -937.00722      1609.8554      6014.0218     -4524.8324     -27.405666      0.95974732     49489.602      81           
    192100   304.26448      486.27725     -1838.0645     -738.28774      1661.5114      6089.0436     -4655.7944     -32.13105       0.96325606     49309.332      81           
    192200   303.58418      449.80364     -1812.601      -797.44097      1678.1744      6108.3144     -4693.4761     -33.167087      0.96639532     49149.154      81           
    192300   293.7223       415.45526     -1853.5962     -831.06723      1677.8825      6102.4599     -4651.0051     -29.218537      0.96769049     49083.372      81           
    192400   298.0611       383.61216     -1886.1504     -745.68983      1678.6944      5947.7263     -4582.4475     -28.520858      0.9679425      49070.593      81           
    192500   298.31075      97.901981     -1850.7335     -996.55109      1584.6337      6082.6166     -4690.8308     -31.232997      0.96950109     48991.706      81           
    192600   301.08138      237.70558     -1871.2178     -906.30756      1645.5194      6085.6482     -4684.715      -31.221578      0.97093717     48919.244      81           
    192700   304.76315      183.0086      -1884.2641     -982.1266       1642.1617      6060.3735     -4619.8568     -33.27912       0.96806934     49064.164      81           
    192800   303.04525      222.79575     -1851.3807     -936.68293      1627.9163      6036.8021     -4623.6411     -30.217876      0.96582034     49178.414      81           
    192900   302.87336      335.04471     -1844.5339     -775.6485       1598.8886      6036.8557     -4647.2836     -33.233571      0.96380747     49281.121      81           
    193000   297.95823      257.64427     -1828.1322     -913.38116      1591.0647      6016.0686     -4575.4477     -32.527983      0.96362352     49290.528      81           
    193100   297.97208      380.26801     -1844.4135     -802.00773      1641.4         6062.3547     -4641.535      -35.530548      0.96362293     49290.559      81           
    193200   300.06977      435.80286     -1853.0861     -750.40388      1637.2236      6037.4557     -4603.2196     -32.166757      0.96252586     49346.739      81           
    193300   298.56563      258.66158     -1865.2287     -960.04887      1675.8782      6033.536      -4592.3871     -33.087898      0.9627934      49333.027      81           
    193400   297.76826      337.1428      -1865.6093     -943.42836      1705.6995      6122.4494     -4650.2092     -31.759302      0.9638647      49278.195      81           
    193500   300.03851      400.57172     -1842.4985     -899.08562      1700.4848      6075.0084     -4602.4065     -30.930985      0.9639652      49273.057      81           
    193600   305.96086      353.22897     -1880.5498     -813.75287      1654.2964      6064.5676     -4641.8584     -29.473922      0.9614816      49400.335      81           
    193700   302.00184      408.04962     -1838.7686     -705.45964      1654.2019      5916.7554     -4587.9857     -30.693766      0.96105641     49422.19       81           
    193800   300.8424       295.19759     -1890.2282     -790.10887      1605.2787      6021.7385     -4619.1956     -32.286925      0.96240426     49352.974      81           
    193900   296.14053      420.00909     -1831.7387     -738.08988      1640.9822      6031.8794     -4650.8786     -32.145375      0.96539354     49200.156      81           
    194000   295.61961      491.07839     -1844.0838     -772.84317      1722.0419      6058.563      -4640.286      -32.31365       0.96694205     49121.364      81           
    194100   299.28222      436.35812     -1863.6882     -852.32157      1721.5949      6099.1479     -4639.0952     -29.279679      0.96512425     49213.884      81           
    194200   296.0145       521.4634      -1842.9831     -715.2011       1660.6472      6085.3073     -4634.1267     -32.180205      0.96381393     49280.791      81           
    194300   292.87897      342.02652     -1875.4884     -825.65121      1667.8873      6083.2205     -4679.6397     -28.301989      0.96286418     49329.401      81           
    194400   298.58473      188.61023     -1859.1186     -932.67777      1617.8527      5974.9341     -4579.5005     -32.879635      0.96343203     49300.326      81           
    194500   299.70853      479.05982     -1857.8559     -731.85437      1640.248       6132.7705     -4671.9679     -32.280511      0.96519101     49210.48       81           
    194600   304.29511      154.86173     -1830.0485     -1020.1459      1611.4509      6092.8088     -4669.8605     -29.343005      0.96591402     49173.644      81           
    194700   300.35313      243.99229     -1848.4951     -948.75621      1644.5732      6107.2555     -4676.74       -33.845077      0.96477658     49231.619      81           
    194800   300.75206      30.809773     -1826.4626     -1046.0361      1633.2298      6051.2166     -4747.9705     -33.167405      0.96278234     49333.594      81           
    194900   295.82777      233.79147     -1875.0725     -889.74135      1642.764       5998.173      -4606.45       -35.881652      0.96215722     49365.646      81           
    195000   297.14869      412.86673     -1871.1514     -747.14342      1627.8779      6064.7298     -4629.5018     -31.944441      0.96288896     49328.131      81           
    195100   300.60072      309.90298     -1865.0721     -848.55283      1631.894       6044.1788     -4621.1179     -31.426837      0.96458485     49241.404      81           
    195200   299.36647      481.23473     -1878.1371     -728.18993      1632.7442      6184.588      -4695.0009     -34.769527      0.96794616     49070.407      81           
    195300   301.04985      342.19675     -1856.6166     -855.0572       1664.3986      6071.1262     -4650.3682     -31.286025      0.97030173     48951.281      81           
    195400   297.44702      421.14731     -1908.3404     -843.24483      1709.56        6096.9937     -4598.9074     -34.913822      0.97140917     48895.475      81           
    195500   299.66353      464.40407     -1892.6443     -696.00729      1670.9701      6124.1519     -4709.386      -32.680382      0.97376615     48777.125      81           
    195600   295.15819      526.4141      -1888.5349     -622.8255       1659.6673      6022.8573     -4612.1327     -32.617393      0.97436305     48747.243      81           
    195700   299.63584      304.5874      -1857.8909     -770.83624      1653.9844      6002.0501     -4691.9442     -30.775639      0.97122669     48904.662      81           
    195800   299.97653      567.45378     -1884.3036     -601.73531      1658.3233      6008.1199     -4581.5108     -31.439695      0.96655391     49141.09       81           
    195900   306.74841      607.66856     -1862.2745     -551.01094      1674.9131      6073.6224     -4693.926      -33.655462      0.96298249     49323.34       81           
    196000   298.64967      523.91702     -1827.3225     -727.94742      1668.2076      6088.4747     -4644.626      -32.869293      0.9597969      49487.045      81           
    196100   296.8785       414.91885     -1851.4076     -796.60853      1690.4222      5997.0652     -4594.2479     -30.304487      0.95788735     49585.698      81           
    196200   299.81342      251.92641     -1848.6027     -887.91854      1615.5154      5998.7501     -4593.0316     -32.786261      0.9557288      49697.689      81           
    196300   300.97497      539.10812     -1848.3741     -677.21542      1640.2636      6137.6441     -4678.9295     -34.280625      0.9567227      49646.06       81           
    196400   307.36713      463.5497      -1838.8759     -739.88047      1645.0036      6005.7851     -4576.4594     -32.02316       0.95892174     49532.21       81           
    196500   301.85132      618.41396     -1839.4243     -632.36942      1634.3392      6121.6197     -4632.5635     -33.187672      0.96147789     49400.525      81           
    196600   298.14547      417.6542      -1864.6976     -785.38015      1673.3805      6082.8439     -4657.194      -31.298425      0.9644917      49246.16       81           
    196700   298.79231      291.38173     -1795.1678     -852.45076      1641.2886      6078.1377     -4746.3838     -34.042203      0.96890283     49021.957      81           
    196800   293.85202      593.07132     -1853.4138     -641.82741      1647.2902      6083.2197     -4610.7769     -31.420453      0.96743077     49096.549      81           
    196900   301.42747      348.95641     -1883.6137     -839.46235      1693.2553      6065.2813     -4655.424      -31.08009       0.96608117     49165.137      81           
    197000   304.03657      428.82823     -1861.5105     -737.45322      1650.8881      5999.0567     -4590.0637     -32.089191      0.96558038     49190.636      81           
    197100   299.65043      447.83886     -1840.5078     -817.45129      1724.9004      6030.2996     -4616.7115     -32.690557      0.96503434     49218.469      81           
    197200   302.66384      363.89847     -1863.9554     -807.31678      1659.3822      6066.9435     -4657.0539     -34.101138      0.96571323     49183.869      81           
    197300   297.07701      274.5675      -1865.1693     -927.42485      1682.8429      5982.8475     -4565.0862     -33.442592      0.96734644     49100.83       81           
    197400   297.02917      370.03228     -1874.264      -819.02682      1658.4454      6005.503      -4569.9838     -30.641484      0.96902456     49015.799      81           
    197500   299.55387      323.81371     -1883.1746     -824.9765       1634.94        6050.385      -4621.7204     -31.639816      0.97037531     48947.569      81           
    197600   299.81323      510.85314     -1870.8837     -725.3725       1712.9334      5990.9916     -4565.5913     -31.224265      0.97012879     48960.008      81           
    197700   301.78356      491.82326     -1844.6555     -776.35553      1691.2731      6103.0076     -4647.7778     -33.668624      0.9677286      49081.44       81           
    197800   303.50549      456.01169     -1856.3927     -773.2996       1680.1104      6064.7357     -4626.578      -32.564177      0.96301598     49321.625      81           
    197900   295.23265      321.2776      -1884.0243     -885.90482      1655.1772      6084.0075     -4614.6914     -33.286551      0.95824704     49567.085      81           
    198000   299.55553      336.71825     -1858.6459     -782.44081      1648.0014      6004.0739     -4640.5381     -33.732219      0.95749303     49606.118      81           
    198100   299.64201      411.38283     -1884.5508     -732.54487      1631.914       6054.0706     -4623.8854     -33.62065       0.95983661     49484.998      81           
    198200   303.43573      503.41157     -1863.6533     -670.77426      1674.5668      5979.109      -4581.8976     -33.939013      0.96303925     49320.433      81           
    198300   301.78559      420.58282     -1857.6429     -825.44184      1689.1776      6149.201      -4703.193      -31.518003      0.96581274     49178.801      81           
    198400   303.07457      265.79845     -1892.5138     -937.72535      1658.2392      6017.5002     -4547.32       -32.381934      0.96883894     49025.19       81           
    198500   300.96806      182.60306     -1891.4118     -926.89402      1639.6606      5975.9885     -4584.3908     -30.34947       0.97061515     48935.474      81           
    198600   292.12986      280.2957      -1867.2521     -918.79268      1657.8371      6032.0718     -4591.4893     -32.079182      0.9709998      48916.089      81           
    198700   295.54715      377.63882     -1848.4931     -787.17028      1676.6788      6055.5127     -4689.4161     -29.473235      0.97171945     48879.862      81           
    198800   300.20129      501.57157     -1876.1536     -707.2358       1616.648       6134.7601     -4634.4283     -32.018829      0.97036037     48948.323      81           
    198900   303.57958      431.70811     -1845.9003     -737.2955       1676.9229      6027.1397     -4656.6894     -32.469323      0.96860668     49036.945      81           
    199000   299.67583      517.9624      -1861.3217     -679.29778      1663.6634      6101.1397     -4670.2962     -35.925025      0.96761036     49087.437      81           
    199100   296.56998      673.97906     -1839.2098     -530.62903      1690.9414      5977.182      -4592.3717     -31.933778      0.96600097     49169.218      81           
    199200   301.11108      420.0299      -1897.3723     -719.61557      1665.085       6025.2909     -4622.7756     -30.582533      0.96341645     49301.123      81           
    199300   293.47432      377.20464     -1838.7417     -857.03779      1684.6244      6071.1039     -4653.0539     -29.690199      0.96245423     49350.412      81           
    199400   298.29214      451.64683     -1831.4936     -704.10642      1673.5649      6060.6764     -4716.2008     -30.79354       0.96145852     49401.52       81           
    199500   298.2049       298.47385     -1850.8772     -854.26231      1649.1193      6062.5777     -4679.2087     -28.874853      0.96034673     49458.712      81           
    199600   296.4556       434.18675     -1838.6601     -816.80175      1710.7761      6084.7804     -4676.0824     -29.825417      0.95993388     49479.984      81           
    199700   303.37305      502.72591     -1864.687      -704.46332      1686.2972      6103.5495     -4685.3685     -32.601988      0.96071061     49439.979      81           
    199800   303.59169      393.7893      -1880.7834     -770.09945      1701.5995      6006.7221     -4631.944      -31.705407      0.9614963      49399.579      81           
    199900   295.36573      662.84101     -1833.4621     -490.02149      1648.9474      6031.6401     -4662.793      -31.469914      0.96402521     49269.99       81           
    200000   293.83422      348.06498     -1847.1633     -830.56512      1687.7488      6017.7243     -4648.4852     -31.194462      0.96661361     49138.055      81           
    200100   298.30156      275.2861      -1849.7438     -900.65376      1670.8947      6026.439      -4639.2878     -32.362139      0.9681522      49059.965      81           
    200200   301.94402      437.87302     -1832.919      -738.39555      1667.5678      6062.3148     -4688.4743     -32.220794      0.9714046      48895.705      81           
    200300   302.01322      190.59038     -1879.8408     -936.93171      1679.876       5977.1921     -4618.8678     -30.837489      0.97387595     48771.625      81           
    200400   298.53578      116.98197     -1898.3782     -908.93354      1619.707       5989.91       -4653.4431     -31.880097      0.9767398      48628.624      81           
    200500   296.92712      280.17417     -1839.9666     -796.025        1624.7538      6010.7872     -4686.6273     -32.747883      0.97662731     48634.225      81           
    200600   305.06562      260.98635     -1920.0791     -791.59654      1603.9602      6024.1379     -4623.7393     -31.696892      0.97130782     48900.577      81           
    200700   306.79129      313.58021     -1893.9126     -775.47684      1699.3871      6031.1887     -4718.1475     -29.45871       0.96732745     49101.793      81           
    200800   305.46813      299.76747     -1855.2916     -814.90481      1653.7592      6030.856      -4681.8502     -32.801059      0.96517071     49211.515      81           
    200900   297.25967      471.72021     -1830.6829     -671.73357      1667.2597      6052.1672     -4714.0204     -31.269765      0.96386822     49278.015      81           
    201000   295.18451      486.81457     -1855.1756     -614.27681      1645.3087      5998.4194     -4654.9133     -32.547727      0.96415651     49263.281      81           
    201100   299.38005      465.45296     -1849.2014     -622.2714       1632.5814      6021.8482     -4686.849      -30.65489       0.96411066     49265.623      81           
    201200   297.82846      306.60415     -1899.448      -844.62543      1678.2337      6118.85       -4715.7021     -30.704005      0.96156114     49396.248      81           
    201300   301.60761      335.36002     -1823.5517     -823.23991      1640.4971      6092.414      -4719.5089     -31.250532      0.96144917     49402.001      81           
    201400   300.78497      189.74965     -1881.3019     -983.40416      1679.2989      6086.1491     -4676.3501     -34.642169      0.96097211     49426.526      81           
    201500   297.72183      424.10132     -1885.3077     -765.07781      1666.0084      6109.8874     -4665.2486     -36.160373      0.96255464     49345.264      81           
    201600   297.39175      189.5025      -1888.2759     -910.50848      1669.8531      5999.6241     -4648.5844     -32.606024      0.96510452     49214.89       81           
    201700   294.84225      390.17959     -1804.2855     -695.06146      1651.8579      6029.8053     -4760.011      -32.125624      0.96904926     49014.549      81           
    201800   297.86525      318.06765     -1882.6163     -774.05309      1667.8398      5997.5527     -4658.418      -32.23743       0.96939425     48997.106      81           
    201900   301.41806      382.59365     -1898.3971     -793.09377      1680.6339      6115.5749     -4692.6898     -29.434402      0.96842403     49046.194      81           
    202000   302.4397       264.25147     -1888.4337     -892.96858      1690.1585      6032.7833     -4644.7684     -32.519553      0.96613674     49162.309      81           
    202100   294.70791      469.44784     -1841.5799     -751.79976      1693.339       6079.6436     -4672.2537     -37.901469      0.96587658     49175.551      81           
    202200   293.40369      438.89251     -1845.5899     -742.85689      1693.3087      6017.5663     -4652.8869     -30.648848      0.96515451     49212.341      81           
    202300   299.3335       494.71698     -1884.6796     -603.37039      1632.0168      6054.2065     -4672.6944     -30.761885      0.96314709     49314.91       81           
    202400   305.5067       495.81457     -1875.874      -628.83364      1644.7802      6033.6786     -4648.071      -29.865647      0.96149882     49399.45       81           
    202500   302.68798      463.44527     -1860.8376     -766.8951       1702.1082      6067.3263     -4645.0071     -33.249365      0.95988763     49482.368      81           
    202600   302.5464       359.40485     -1869.0253     -859.71812      1709.4409      6145.8112     -4736.1323     -30.971478      0.960187       49466.94       81           
    202700   297.54222      563.52386     -1844.7828     -609.5959       1667.5796      6051.1434     -4669.3035     -31.516908      0.96147462     49400.693      81           
    202800   296.60537      500.01583     -1884.1701     -644.106        1732.0659      5969.1883     -4642.3465     -30.615794      0.96280628     49332.367      81           
    202900   298.49633      334.54664     -1838.6428     -811.41902      1670.5773      6041.5403     -4695.5349     -31.974223      0.96413698     49264.278      81           
    203000   304.40794      241.94522     -1870.2051     -880.18872      1627.5561      6060.7495     -4665.0391     -30.92745       0.96442977     49249.322      81           
    203100   306.15029      271.10443     -1846.468      -854.68905      1665.9762      5936.5326     -4599.5488     -30.698448      0.96581479     49178.697      81           
    203200   307.20943      262.81819     -1850.3529     -868.9397       1699.8796      5973.296      -4656.5998     -34.465039      0.96813193     49060.992      81           
    203300   310.32648      444.12518     -1907.8586     -635.72488      1612.7995      6116.5649     -4711.0121     -30.643665      0.96869804     49032.32       81           
    203400   301.15822      358.93004     -1863.7811     -748.79305      1576.2385      6107.1025     -4679.6632     -32.173552      0.96877125     49028.615      81           
    203500   296.12801      409.15039     -1850.2028     -700.10306      1644.1317      5962.045      -4612.4527     -34.26773       0.96868594     49032.933      81           
    203600   298.00538      153.05284     -1866.7403     -983.6049       1656.0823      6051.9505     -4675.1342     -29.500589      0.96709739     49113.474      81           
    203700   303.97054      97.731799     -1855.6722     -1058.5022      1688.5673      6003.2631     -4648.419      -31.505109      0.96663237     49137.101      81           
    203800   300.05508      309.04619     -1862.1795     -932.86213      1681.2654      6065.0875     -4613.3403     -28.924875      0.9664296      49147.411      81           
    203900   307.53523      156.54861     -1879.9426     -925.27355      1614.7159      6013.4261     -4634.0941     -32.283107      0.96554887     49192.241      81           
    204000   301.4038       394.82816     -1851.7696     -751.3766       1640.3626      6118.3536     -4728.935      -31.806923      0.96695475     49120.719      81           
    204100   300.73848      418.08743     -1855.8511     -727.6545       1661.8188      6070.9389     -4695.2816     -35.882985      0.96941234     48996.192      81           
    204200   302.91944      357.26163     -1866.9043     -739.3524       1642.2144      6006.3559     -4656.1889     -28.863102      0.97146712     48892.558      81           
    204300   294.70418      457.86867     -1863.3576     -679.48302      1632.3107      6061.3157     -4662.9952     -29.921893      0.97393902     48768.467      81           
    204400   298.91331      306.88093     -1882.3768     -752.55582      1656.9071      6029.5559     -4712.8615     -31.78793       0.97513998     48708.405      81           
    204500   298.50212      425.89349     -1865.3234     -729.56388      1680.6322      6062.6299     -4690.4669     -32.014492      0.97392884     48768.976      81           
    204600   302.40075      471.2386      -1846.8873     -712.91599      1696.9635      6014.2302     -4649.1552     -30.996644      0.9709946      48916.351      81           
    204700   300.25665      260.17996     -1880.7265     -932.33529      1624.7806      6145.2671     -4664.3892     -32.416808      0.96602713     49167.887      81           
    204800   299.75478      262.54305     -1844.0616     -887.42405      1625.9643      6073.1145     -4674.3        -30.75011       0.96160805     49393.838      81           
    204900   300.20771      415.52356     -1836.1264     -732.59459      1628.7391      6047.9431     -4661.2264     -31.211316      0.96077948     49436.435      81           
    205000   299.05514      587.73788     -1838.2661     -671.42386      1727.2028      6036.5243     -4634.4972     -31.802113      0.96093851     49428.254      81           
    205100   305.69928      598.80866     -1833.5659     -647.18195      1631.8486      6075.2638     -4599.2879     -28.267949      0.96009327     49471.769      81           
    205200   301.30383      683.55152     -1829.7261     -543.45556      1705.8423      6038.3426     -4654.5221     -32.929546      0.95821961     49568.504      81           
    205300   299.52126      443.74079     -1843.7134     -721.06944      1635.745       6053.7328     -4650.1313     -30.822904      0.9560208      49682.51       81           
    205400   298.81866      271.22012     -1801.3162     -841.55597      1614.6238      6016.9721     -4686.5416     -30.962049      0.95538773     49715.431      81           
    205500   304.63149      368.66136     -1818.7119     -672.54572      1549.6943      6041.5785     -4699.4073     -31.94647       0.9546382      49754.465      81           
    205600   298.61972      389.88691     -1836.1828     -855.70904      1637.9826      6149.17       -4674.3837     -30.990128      0.95333307     49822.58       81           
    205700   299.08908      533.23191     -1851.5998     -780.1544       1742.3572      6100.2005     -4646.1925     -31.37903       0.95455557     49758.772      81           
    205800   300.1066       465.88391     -1853.4881     -766.61354      1651.88        6088.8644     -4622.2385     -32.520241      0.95982648     49485.52       81           
    205900   296.81552      410.9324      -1827.2592     -800.2748       1654.2146      5957.4982     -4543.646      -29.600383      0.96577517     49180.714      81           
    206000   297.14044      563.57444     -1833.1458     -637.34859      1657.0287      6066.9646     -4657.3681     -32.55643       0.96857761     49038.417      81           
    206100   304.79069      287.28984     -1891.7778     -787.6519       1633.3495      6034.5921     -4671.5403     -29.68177       0.97051888     48940.329      81           
    206200   295.02363      472.30888     -1863.3149     -684.47985      1613.3819      6048.2232     -4609.1447     -32.356714      0.9709593      48918.129      81           
    206300   288.80531      127.61323     -1849.9333     -963.90725      1639.3749      6006.8287     -4672.3905     -32.359279      0.97010737     48961.089      81           
    206400   296.89226      308.00867     -1854.5898     -719.23347      1577.5509      5941.3497     -4604.9623     -32.106338      0.96836619     49049.123      81           
    206500   300.98467      278.8182      -1861.5357     -814.00069      1561.8289      6123.1783     -4701.567      -29.085743      0.96796588     49069.408      81           
    206600   305.05476      478.81427     -1865.7216     -621.8553       1620.6218      6034.6205     -4657.634      -31.217204      0.96776324     49079.683      81           
    206700   299.50865      376.50282     -1851.1579     -869.95055      1695.4664      6106.1618     -4668.5888     -35.428149      0.96619292     49159.45       81           
    206800   303.93499      386.58742     -1848.5983     -773.90883      1657.0189      6037.1131     -4651.1039     -33.933644      0.9649487      49222.837      81           
    206900   296.48031      322.03591     -1845.4393     -856.85501      1652.3068      6009.1042     -4605.3189     -31.761906      0.96292787     49326.137      81           
    207000   295.64511      56.771275     -1852.7525     -1055.596       1673.1531      6031.8079     -4708.8817     -30.959527      0.96399952     49271.303      81           
    207100   296.6945       291.2041      -1873.2763     -824.13165      1623.9402      6027.9204     -4632.3767     -30.871787      0.96542485     49198.56       81           
    207200   297.2754       252.68175     -1887.2593     -897.10733      1639.1218      6097.1428     -4668.5658     -30.650489      0.96512453     49213.869      81           
    207300   299.79206      397.7192      -1847.8102     -750.08299      1613.7031      6097.8114     -4682.2654     -33.636616      0.96514943     49212.6        81           
    207400   298.55927      436.15632     -1879.7701     -766.97907      1701.3331      6106.4108     -4693.2873     -31.551028      0.96686033     49125.516      81           
    207500   300.60688      478.05455     -1856.6639     -718.6571       1657.077       6113.8528     -4686.5726     -30.981569      0.96860447     49037.057      81           
    207600   305.56426      307.41605     -1875.907      -877.80103      1664.8399      6087.3937     -4660.2562     -30.853271      0.97094784     48918.707      81           
    207700   304.46366      294.4372      -1857.243      -908.28997      1662.6151      6127.0774     -4699.0642     -30.658142      0.97094025     48919.089      81           
    207800   297.21866      380.39981     -1877.5914     -810.9299       1666.904       6049.4438     -4613.5011     -33.925507      0.97066977     48932.721      81           
    207900   294.69697      268.09095     -1879.9902     -919.35443      1661.7189      6075.9951     -4640.9715     -29.306929      0.96703242     49116.774      81           
    208000   297.68157      471.01162     -1873.9425     -719.27882      1664.6373      6123.1641     -4688.3987     -35.169853      0.96436856     49252.448      81           
    208100   295.49038      608.57154     -1848.9408     -710.78709      1701.7978      6187.147      -4689.8195     -30.825853      0.96422109     49259.981      81           
    208200   297.22777      446.48416     -1875.9734     -828.05518      1714.3851      6140.2597     -4670.875      -33.257034      0.9670043      49118.202      81           
    208300   304.20529      326.53374     -1864.2672     -779.74469      1615.696       6069.8939     -4682.9582     -32.086128      0.97138689     48896.596      81           
    208400   296.9407       402.79725     -1830.1412     -816.19207      1643.8319      6113.0498     -4676.332      -31.419144      0.97219589     48855.908      81           
    208500   296.63587      442.35233     -1854.1218     -757.71225      1649.6498      6126.0208     -4685.5961     -35.888135      0.96998382     48967.324      81           
    208600   299.56123      397.6517      -1879.526      -763.9006       1613.0272      6140.972      -4682.772      -30.149016      0.9652864      49205.617      81           
    208700   300.50109      351.62348     -1859.722      -793.80792      1665.4727      5978.0596     -4609.7973     -28.581578      0.96108362     49420.791      81           
    208800   298.3971       441.8564      -1857.4959     -749.39357      1659.2376      6089.6322     -4666.2048     -33.919151      0.95890057     49533.303      81           
    208900   303.0914       358.15235     -1819.5554     -815.91341      1655.1352      6045.4571     -4672.7539     -34.217185      0.96027084     49462.621      81           
    209000   307.04619      512.77053     -1859.5593     -634.11317      1665.8122      5988.7623     -4610.6129     -37.518599      0.96142543     49403.221      81           
    209100   300.63193      557.64912     -1859.2572     -614.50393      1663.0377      6034.702      -4633.6048     -32.724575      0.96335917     49304.054      81           
    209200   299.1727       369.06576     -1871.9501     -712.14859      1609.7862      5965.0794     -4589.6975     -32.003635      0.96430865     49255.508      81           
    209300   303.7099       172.67012     -1838.3533     -852.70617      1635.1909      5976.6196     -4715.5362     -32.544719      0.96578757     49180.083      81           
    209400   300.05642      442.37178     -1845.9264     -695.79947      1592.2696      6126.6243     -4704.9392     -29.85702       0.96522705     49208.642      81           
    209500   301.00581      326.76696     -1829.2927     -890.56635      1676.601       6102.253      -4698.5683     -33.659687      0.96445586     49247.99       81           
    209600   304.88219      537.88954     -1876.8876     -597.07325      1670.417       6040.1839     -4668.3098     -30.440692      0.96443625     49248.991      81           
    209700   298.16995      422.16659     -1841.4348     -798.43272      1650.09        6176.8119     -4732.0563     -32.811525      0.96428522     49256.705      81           
    209800   301.23829      308.48582     -1845.3332     -856.71454      1650.6457      6077.1639     -4685.158      -32.118048      0.96244625     49350.821      81           
    209900   301.26572      410.91299     -1867.1687     -692.54009      1656.2474      6096.7179     -4748.0336     -34.309923      0.96216322     49365.338      81           
    210000   296.43022      339.43889     -1869.7868     -766.16962      1632.3302      6037.5789     -4663.6551     -30.85869       0.96354273     49294.661      81           
    210100   296.50487      492.59628     -1864.3231     -631.23546      1654.4839      6069.8977     -4701.0678     -35.158994      0.96505846     49217.239      81           
    210200   301.73928      576.16222     -1867.5109     -604.43944      1633.6023      6063.62       -4620.3        -28.809738      0.96420815     49260.642      81           
    210300   300.74209      503.35578     -1844.4279     -755.6659       1657.84        6196.3477     -4718.9392     -31.798827      0.96389425     49276.684      81           
    210400   299.27562      428.48552     -1874.2085     -807.78631      1651.3522      6100.8254     -4609.8574     -31.839779      0.9620068      49373.365      81           
    210500   297.70202      476.21764     -1873.5137     -685.48363      1651.1699      6080.9923     -4668.9782     -27.968927      0.96083374     49433.644      81           
    210600   298.0243       265.97157     -1849.7274     -807.48363      1575.9093      6028.7265     -4649.3654     -32.087868      0.96322938     49310.697      81           
    210700   301.69494      271.66584     -1873.5478     -837.50316      1658.3446      6054.2285     -4696.3595     -33.496928      0.96603641     49167.415      81           
    210800   304.0013       474.8568      -1847.6071     -734.51834      1683.8654      6100.5376     -4697.3076     -30.113142      0.96977362     48977.939      81           
    210900   300.12727      482.06152     -1857.011      -751.22733      1632.8151      6073.4607     -4580.8883     -35.087667      0.97169966     48880.857      81           
    211000   300.42603      255.43555     -1907.1226     -855.75238      1643.6867      6076.9768     -4672.5761     -29.776887      0.97148609     48891.604      81           
    211100   300.41989      438.66992     -1878.0275     -640.86441      1648.6016      5884.3025     -4544.3847     -30.957523      0.96939806     48996.913      81           
    211200   294.54287      357.07887     -1855.3643     -814.94176      1677.6007      6122.6052     -4739.1052     -33.715727      0.96701305     49117.758      81           
    211300   299.1999       512.65589     -1862.0706     -750.51255      1692.0542      6030.7241     -4566.2149     -31.324443      0.96268301     49338.684      81           
    211400   305.36554      315.10109     -1840.3284     -871.56728      1665.4985      6017.9564     -4625.0911     -31.366954      0.95847828     49555.127      81           
    211500   298.65631      335.8166      -1825.667      -893.82818      1670.9532      6084.5023     -4667.3874     -32.756384      0.95656376     49654.309      81           
    211600   298.93164      255.80103     -1810.58       -898.27882      1642.9768      6063.4481     -4710.775      -30.99008       0.95625342     49670.424      81           
    211700   293.33737      486.68931     -1856.0259     -730.64692      1649.62        6024.7292     -4570.2847     -30.702414      0.9554519      49712.092      81           
    211800   305.15457      489.84001     -1870.5359     -683.79205      1649.387       6061.1857     -4637.3823     -29.022439      0.95445037     49764.256      81           
    211900   308.75352      251.91486     -1867.9565     -918.23234      1579.5203      6147.2621     -4657.901      -30.777679      0.95562436     49703.12       81           
    212000   306.67979      278.99521     -1831.9943     -867.81427      1620.912       6069.7908     -4680.7579     -31.141047      0.95936582     49509.282      81           
    212100   300.06053      475.36349     -1876.1356     -658.42932      1653.9097      6008.0889     -4621.0695     -31.000623      0.96558266     49190.519      81           
    212200   298.80875      382.42179     -1819.9854     -783.76495      1628.6289      6110.773      -4721.7676     -31.462269      0.97193971     48868.785      81           
    212300   304.19755      418.29706     -1838.5115     -678.64622      1647.57        5915.1296     -4595.6925     -31.552361      0.9744087      48744.96       81           
    212400   305.27308      401.21737     -1869.0718     -710.10954      1636.1583      6019.4639     -4642.9149     -32.308602      0.9738252      48774.167      81           
    212500   307.13553      351.66625     -1859.1876     -826.89867      1650.1527      6053.7748     -4635.1937     -30.981183      0.97065553     48933.438      81           
    212600   305.35687      458.23267     -1836.9243     -778.73936      1682.8878      6120.1794     -4695.692      -33.478886      0.96612119     49163.1        81           
    212700   298.98888      437.2979      -1825.4997     -782.009        1653.8526      6058.8647     -4633.2855     -34.625128      0.96222292     49362.276      81           
    212800   294.25468      615.77279     -1851.0645     -604.64306      1629.1988      6110.0405     -4636.3191     -31.439784      0.95998086     49477.562      81           
    212900   303.56532      438.70914     -1863.6061     -675.22075      1625.0219      6052.9807     -4669.6121     -30.854524      0.95825335     49566.759      81           
    213000   297.37288      383.73689     -1832.3991     -865.51421      1681.7933      6075.7305     -4642.0348     -33.838818      0.95864847     49546.329      81           
    213100   303.74842      395.41429     -1825.6948     -835.59922      1653.6996      6072.0703     -4639.7824     -29.279238      0.95885676     49535.566      81           
    213200   313.597        597.73742     -1847.4182     -567.05716      1687.1658      6023.2535     -4666.5941     -31.612405      0.96275648     49334.919      81           
    213300   300.52876      582.9486      -1833.8265     -662.50158      1656.805       6170.356      -4717.6956     -30.18866       0.96451357     49245.044      81           
    213400   301.14782      532.72237     -1835.1988     -636.34374      1656.8984      6060.7506     -4681.3638     -32.020286      0.9646103      49240.105      81           
    213500   298.88724      492.78944     -1881.0684     -677.58098      1651.7619      6122.1601     -4689.9836     -32.499664      0.96371464     49285.868      81           
    213600   293.78367      534.96673     -1810.8921     -714.40235      1678.0347      6052.4077     -4638.0092     -32.171972      0.96170405     49388.908      81           
    213700   297.91719      579.20075     -1828.2008     -663.80039      1664.0908      6072.4817     -4632.8189     -32.551677      0.96093656     49428.354      81           
    213800   304.90022      667.88092     -1853.7456     -558.87688      1677.2873      6053.9472     -4620.1679     -30.563241      0.96059117     49446.127      81           
    213900   304.80299      511.19745     -1853.0535     -682.40733      1629.1697      6085.6435     -4637.3204     -30.834576      0.96096932     49426.669      81           
    214000   298.95407      390.97312     -1840.7408     -758.32634      1628.0444      6097.0738     -4705.2576     -29.820245      0.96065697     49442.74       81           
    214100   294.77542      435.67821     -1861.7354     -790.74588      1707.7861      6028.7851     -4614.4186     -33.993047      0.96103182     49423.455      81           
    214200   298.21548      466.07311     -1851.6182     -738.43393      1659.8025      6049.9098     -4619.9886     -33.598402      0.96207234     49370.001      81           
    214300   302.01691      443.42088     -1874.2497     -768.46013      1656.8067      6093.0913     -4631.0159     -32.751394      0.96401078     49270.728      81           
    214400   302.30913      441.80042     -1874.7812     -812.67994      1726.9949      6052.3369     -4618.9569     -31.113322      0.96570681     49184.196      81           
    214500   303.54629      529.05682     -1818.8103     -671.84234      1688.0667      6086.1838     -4720.1996     -34.341522      0.96805211     49065.037      81           
    214600   298.71656      473.75403     -1872.9484     -655.82335      1652.6561      6107.2769     -4725.0518     -32.355341      0.97017617     48957.616      81           
    214700   299.15643      417.66211     -1875.8126     -692.10157      1656.6121      5991.5207     -4633.4865     -29.069997      0.96956034     48988.712      81           
    214800   295.94935      662.34934     -1855.4248     -529.4011       1682.5019      5997.6355     -4600.7082     -32.254012      0.9693623      48998.721      81           
    214900   303.16889      533.57214     -1823.196      -655.88416      1703.3365      6020.3284     -4680.8031     -30.209541      0.96805926     49064.675      81           
    215000   303.4316       299.31848     -1858.184      -907.54525      1681.9621      6091.9968     -4678.4622     -30.448969      0.96682958     49127.078      81           
    215100   304.83835      171.86101     -1897.0644     -964.09496      1636.6787      6107.1895     -4678.4519     -32.395962      0.96801741     49066.796      81           
    215200   303.08423      409.00123     -1850.625      -744.11936      1608.1784      5988.287      -4558.135      -34.58482       0.96828885     49053.041      81           
    215300   299.49184      487.84472     -1860.6891     -709.17648      1689.5397      6064.7968     -4663.33       -33.296243      0.96905643     49014.186      81           
    215400   298.7752       379.45822     -1856.3813     -794.02237      1640.4084      6017.4636     -4596.605      -31.405147      0.97032316     48950.2        81           
    215500   299.0819       346.57048     -1894.8709     -727.81144      1611.1085      6005.5138     -4617.174      -30.195509      0.97151063     48890.368      81           
    215600   294.91331      198.01713     -1909.4423     -854.90381      1590.6084      6012.9175     -4608.5792     -32.583458      0.97223459     48853.963      81           
    215700   293.85563      395.51199     -1873.6383     -783.29909      1697.6941      6044.5263     -4656.0346     -33.736424      0.97292062     48819.515      81           
    215800   300.08439      494.2253      -1854.6354     -669.00024      1669.6319      5981.4005     -4600.45       -32.721504      0.9711074      48910.669      81           
    215900   301.67083      532.61538     -1832.1449     -672.1438       1690.2464      6063.1903     -4683.9616     -32.570884      0.96820411     49057.334      81           
    216000   300.2934       467.92452     -1835.4012     -738.86336      1671.9981      6095.6591     -4693.3809     -32.087221      0.96489826     49225.41       81           
    216100   301.58793      433.16884     -1878.8752     -674.42524      1634.904       6070.7086     -4691.1566     -27.986664      0.9607992      49435.421      81           
    216200   298.02315      373.81609     -1842.3226     -735.14092      1612.1799      5977.0583     -4606.1299     -31.828697      0.95632665     49666.62       81           
    216300   297.4078       264.69695     -1816.8175     -882.66555      1624.0011      6003.0191     -4628.8284     -34.011767      0.95450342     49761.49       81           
    216400   298.81208      439.22185     -1797.0735     -829.26115      1728.3554      6048.4339     -4679.6317     -31.601205      0.95464967     49753.867      81           
    216500   301.70123      314.85076     -1832.3801     -916.757        1671.589       6066.5544     -4638.4707     -35.684759      0.95448057     49762.682      81           
    216600   301.62522      375.218       -1833.7083     -803.87609      1675.1326      6039.8065     -4670.3554     -31.78141       0.95508312     49731.287      81           
    216700   297.50661      174.89462     -1834.9298     -994.60979      1659.8994      5970.4685     -4592.2006     -33.733102      0.95717516     49622.592      81           
    216800   295.26107      223.80984     -1839.4691     -924.36016      1657.5617      5994.7026     -4631.2984     -33.326818      0.96002484     49475.296      81           
    216900   297.85299      397.69456     -1866.0585     -805.64109      1679.937       6017.4783     -4593.5134     -34.507735      0.96263042     49341.379      81           
    217000   303.35667      319.03902     -1809.8222     -907.13178      1708.2528      6095.2297     -4735.7715     -31.717985      0.96643202     49147.288      81           
    217100   303.71765      355.32049     -1888.1077     -823.623        1633.0765      6109.0338     -4643.9427     -31.116471      0.96737192     49099.536      81           
    217200   297.84669      430.88688     -1845.8536     -736.64231      1651.3504      6133.3904     -4738.3179     -33.040145      0.96888601     49022.808      81           
    217300   294.62577      296.13738     -1843.7149     -893.72449      1690.2035      6010.5167     -4632.5034     -34.639997      0.96789195     49073.156      81           
    217400   295.92793      380.35563     -1867.5269     -815.26189      1620.9556      6140.4993     -4666.2473     -32.063154      0.96533787     49202.993      81           
    217500   303.01057      412.12652     -1848.0787     -731.72632      1652.1862      6005.0387     -4632.5865     -32.706786      0.96385621     49278.629      81           
    217600   304.1689       462.82286     -1817.7711     -809.8524       1636.8086      6201.6772     -4715.2714     -32.768045      0.96404073     49269.197      81           
    217700   311.31264      519.26825     -1876.1263     -787.09459      1704.2498      6164.3645     -4653.113      -33.012106      0.96481667     49229.573      81           
    217800   304.70022      419.42693     -1844.3483     -935.8548       1746.0555      6074.9426     -4589.9344     -31.433566      0.96428385     49256.775      81           
    217900   300.64201      416.95146     -1801.0587     -847.74794      1653.5901      6113.2871     -4665.7058     -35.41341       0.96192021     49377.809      81           
    218000   304.31288      336.28389     -1890.017      -785.81021      1642.8032      5962.3457     -4562.4133     -30.624492      0.96058454     49446.468      81           
    218100   299.08539      241.82614     -1865.6098     -897.88137      1653.9727      6037.836      -4658.5372     -27.954296      0.96201024     49373.188      81           
    218200   300.79313      319.17863     -1895.5576     -787.04904      1681.1918      6049.1375     -4696.8705     -31.673552      0.96476257     49232.334      81           
    218300   301.65276      368.63215     -1866.8423     -799.6737       1658.8423      6030.3465     -4623.518      -30.522728      0.96739249     49098.492      81           
    218400   299.2678       566.40058     -1868.2303     -688.32391      1735.5857      6030.8602     -4610.279      -33.212062      0.96905373     49014.323      81           
    218500   302.79305      524.69974     -1857.6645     -671.87801      1639.8276      6027.3503     -4581.7122     -31.223414      0.97079294     48926.512      81           
    218600   297.65601      512.71969     -1881.8652     -657.91817      1673.0671      6059.2449     -4648.2627     -31.546207      0.97360052     48785.423      81           
    218700   296.53982      249.29106     -1879.0369     -869.89197      1674.5609      6058.3626     -4703.1695     -31.534217      0.97582472     48674.226      81           
    218800   299.49652      309.9774      -1882.8346     -815.02383      1642.5163      6040.0657     -4642.7882     -31.957908      0.97580859     48675.03       81           
    218900   296.81246      345.33175     -1897.4727     -915.13303      1677.7724      6053.9713     -4546.6105     -27.195687      0.97411773     48759.52       81           
    219000   301.33322      291.52944     -1856.2801     -903.79143      1709.8399      5966.0191     -4595.0137     -29.244358      0.97356617     48787.144      81           
    219100   305.69833      241.0668      -1868.3756     -890.52503      1696.6726      5979.0368     -4643.6408     -32.101176      0.97340296     48795.324      81           
    219200   301.01059      288.91764     -1841.3327     -882.45119      1640.6169      6134.932      -4729.9628     -32.884608      0.9716279      48884.468      81           
    219300   297.44022      359.08829     -1890.3475     -808.04271      1654.4985      5965.6603     -4530.1749     -32.505477      0.96834965     49049.961      81           
    219400   301.83907      443.00105     -1869.4797     -644.83409      1662.2361      5988.4497     -4664.8828     -28.488158      0.96657679     49139.927      81           
    219500   299.71125      460.36951     -1837.771      -708.63325      1628.7432      6060.2461     -4654.1907     -28.024902      0.96437945     49251.892      81           
    219600   304.3951       480.0261      -1880.0108     -713.71237      1646.4296      5951.1928     -4497.2586     -26.614549      0.96354762     49294.411      81           
    219700   300.78041      622.64546     -1851.0468     -652.64561      1701.3392      6117.1016     -4661.9876     -30.115241      0.96811851     49061.672      81           
    219800   302.14687      463.12096     -1834.105      -724.57005      1656.6906      6010.595      -4615.267      -30.222497      0.97397035     48766.898      81           
    219900   300.798        210.94992     -1875.6745     -900.61851      1591.667       6157.5882     -4729.131      -32.881166      0.97608437     48661.278      81           
    220000   297.66212      172.21155     -1863.384      -1003.3175      1663.5063      6034.2323     -4628.695      -30.130559      0.9753217      48699.329      81           
    220100   297.14754      187.2811      -1855.2993     -1041.9335      1681.4163      6008.7482     -4574.4287     -31.221813      0.97253237     48839.005      81           
    220200   303.6602       305.91744     -1840.7663     -888.37092      1658.4919      6042.5724     -4635.0578     -30.951834      0.96883963     49025.155      81           
    220300   301.40778      384.40223     -1859.602      -863.54912      1717.3795      6030.1256     -4607.3897     -32.562005      0.96811178     49062.013      81           
    220400   305.22675      410.61338     -1881.2464     -661.82971      1620.2031      5960.293      -4600.0062     -26.80036       0.96932406     49000.654      81           
    220500   300.35459      319.12753     -1865.3296     -750.67897      1676.8632      5937.3556     -4650.4033     -28.67943       0.96779682     49077.979      81           
    220600   295.22615      250.77702     -1855.464      -907.51963      1673.0671      5990.5688     -4618.7497     -31.12562       0.96772538     49081.603      81           
    220700   301.38762      494.85651     -1843.6217     -678.70217      1668.3171      6132.518      -4750.7257     -32.929067      0.96947713     48992.917      81           
    220800   303.18593      376.27365     -1835.191      -806.04804      1624.3675      5964.591      -4538.9309     -32.514803      0.96917103     49008.391      81           
    220900   297.07589      519.70879     -1857.781      -745.63411      1677.5485      6158.7517     -4681.9241     -31.252142      0.96776332     49079.678      81           
    221000   302.20928      324.08338     -1844.9553     -827.5747       1629.903       6108.638      -4708.0724     -33.855218      0.9659691      49170.841      81           
    221100   297.75379      82.243087     -1834.2124     -1116.7104      1641.1017      6048.7457     -4622.7788     -33.902686      0.96405167     49268.638      81           
    221200   297.68994      276.29474     -1829.1665     -926.65777      1684.2399      5892.423      -4513.0802     -31.46367       0.96213026     49367.029      81           
    221300   295.33812      382.1574      -1833.5109     -866.89558      1663.7171      6100.3154     -4646.628      -34.840626      0.96038089     49456.953      81           
    221400   307.11633      435.97494     -1840.1954     -774.72945      1711.3075      6003.0639     -4632.0893     -31.382287      0.96038674     49456.652      81           
    221500   301.23074      522.17738     -1833.9875     -790.71956      1703.2067      6144.132      -4665.9588     -34.495418      0.96308504     49318.088      81           
    221600   299.63142      371.93756     -1854.0863     -864.36102      1663.7979      5989.6974     -4532.6122     -30.498237      0.96944986     48994.295      81           
    221700   299.99633      255.89524     -1840.3843     -880.38634      1646.9151      6031.4306     -4666.1498     -35.530169      0.97543613     48693.617      81           
    221800   300.64046      332.92208     -1894.6646     -773.8285       1601.4425      5993.8537     -4569.9881     -23.892923      0.97915682     48508.586      81           
    221900   294.57941      498.49726     -1880.737      -701.25857      1652.0875      6121.0984     -4662.1756     -30.51743       0.98111329     48411.853      81           
    222000   301.41567      391.53125     -1883.4744     -837.70527      1703.8683      6126.3106     -4685.0597     -32.408259      0.98050393     48441.94       81           
    222100   304.85633      348.83421     -1865.219      -858.73609      1685.2714      5994.3754     -4580.7734     -26.084069      0.97601414     48664.779      81           
    222200   306.05004      286.95311     -1862.7404     -808.13028      1615.433       6034.8112     -4658.8044     -33.616002      0.96923196     49005.31       81           
    222300   296.59921      513.12635     -1850.4279     -675.98684      1690.7577      5985.653      -4606.1421     -30.727483      0.96288362     49328.405      81           
    222400   301.47992      435.80603     -1858.1249     -677.22555      1637.4214      5924.7426     -4559.4511     -31.556553      0.95889143     49533.775      81           
    222500   302.08813      347.09383     -1854.8983     -783.92252      1635.5633      6036.4432     -4656.6289     -29.46286       0.95816052     49571.561      81           
    222600   297.16408      355.27979     -1825.4757     -871.93084      1657.9022      6093.1184     -4664.993      -33.34136       0.95945113     49504.88       81           
    222700   305.34593      443.32003     -1856.7287     -730.71766      1665.9311      6016.3005     -4618.6312     -32.833996      0.96223142     49361.839      81           
    222800   303.74672      674.86907     -1823.5761     -675.07424      1735.6432      6113.2255     -4643.551      -31.798272      0.96468592     49236.245      81           
    222900   311.95323      490.9952      -1849.6546     -696.83448      1705.6708      6075.2485     -4709.0416     -34.393343      0.96520177     49209.931      81           
    223000   302.56581      566.9051      -1842.1914     -674.0339       1677.1313      6123.4147     -4685.524      -31.891614      0.96447508     49247.009      81           
    223100   303.49358      207.92577     -1864.3786     -929.69114      1648.6403      6075.3023     -4692.4543     -29.492801      0.96554782     49192.295      81           
    223200   299.24473      312.09188     -1872.3166     -810.22603      1627.956       5994.07       -4597.6483     -29.743199      0.96776169     49079.761      81           
    223300   300.96094      126.29417     -1870.2064     -924.45797      1611.2333      6044.0538     -4702.2332     -32.095404      0.97012622     48960.137      81           
    223400   297.26161      397.35043     -1875.1081     -767.26403      1674.3851      6043.5593     -4643.2902     -34.931648      0.97193591     48868.976      81           
    223500   297.3343       464.77748     -1867.3138     -826.75573      1671.0199      6207.8316     -4689.3827     -30.621838      0.97352804     48789.055      81           
    223600   301.03949      414.92542     -1856.121      -828.42401      1641.9098      6088.7896     -4598.9933     -32.235696      0.97306785     48812.128      81           
    223700   298.80739      505.92521     -1880.3678     -686.95962      1663.7717      6053.5109     -4611.7963     -32.233628      0.97156808     48887.477      81           
    223800   302.98411      290.73859     -1877.8571     -791.1934       1606.0918      6022.4624     -4639.027      -29.738184      0.97048677     48941.948      81           
    223900   299.94447      98.615406     -1884.1789     -1039.1804      1689.9678      6099.0794     -4735.0725     -31.999993      0.96989861     48971.627      81           
    224000   304.29118      165.55452     -1913.5857     -916.22626      1642.89        6015.9276     -4631.0106     -32.440582      0.97136986     48897.454      81           
    224100   300.76398      358.03586     -1890.1853     -814.78301      1669.1632      6061.2041     -4638.7521     -28.611087      0.97312777     48809.123      81           
    224200   303.27399      228.83519     -1877.6742     -898.0269       1665.0762      5962.5577     -4593.6303     -29.467291      0.97359685     48785.607      81           
    224300   294.64461      198.73263     -1878.3275     -969.13192      1615.8523      6118.6599     -4658.0365     -30.283626      0.97371085     48779.895      81           
    224400   295.33238      297.87928     -1914.2953     -821.6558       1657.3134      6084.7263     -4678.086      -30.12329       0.9734745      48791.738      81           
    224500   302.58595      331.89509     -1861.8506     -774.41368      1612.933       6000.6119     -4615.6736     -29.711993      0.97303111     48813.971      81           
    224600   304.12811      294.09857     -1866.7417     -867.77699      1659.5158      6102.9355     -4700.3171     -33.516959      0.97040568     48946.037      81           
    224700   302.66609      151.01392     -1863.4489     -1035.6788      1664.8961      6099.2716     -4682.1037     -31.922449      0.96691082     49122.951      81           
    224800   302.05864      245.92858     -1857.5619     -942.67436      1641.2764      6027.2067     -4589.2753     -33.043036      0.9654546      49197.044      81           
    224900   297.19476      329.09388     -1852.825      -837.89845      1634.6461      6039.5692     -4623.8973     -30.500637      0.96600051     49169.242      81           
    225000   298.35897      282.79777     -1880.5146     -790.47111      1654.7374      5986.4827     -4659.3583     -28.078312      0.96864134     49035.19       81           
    225100   295.36441      238.21513     -1897.4183     -879.82877      1605.6656      6070.261      -4627.4239     -33.040478      0.97190022     48870.77       81           
    225200   299.06841      175.81577     -1866.7596     -998.1204       1633.641       6087.0378     -4649.5927     -30.390345      0.97660736     48635.219      81           
    225300   298.66547      467.70024     -1864.5354     -756.74956      1713.6531      6086.3695     -4676.0621     -34.97535       0.97813741     48559.141      81           
    225400   299.82145      474.2939      -1893.6244     -709.57649      1650.9102      6034.2347     -4577.4217     -30.228466      0.97722819     48604.321      81           
    225500   296.42799      585.58836     -1869.4724     -619.3508       1662.5942      6157.5567     -4714.2959     -31.443393      0.97593514     48668.719      81           
    225600   296.61992      354.94467     -1827.5669     -795.73887      1649.8435      6018.7319     -4662.7628     -27.562093      0.97096859     48917.661      81           
    225700   296.41136      325.14058     -1898.3773     -782.09023      1626.2879      6005.2554     -4595.3481     -30.58717       0.96721743     49107.379      81           
    225800   292.70957      316.42785     -1884.8604     -812.89211      1601.1287      6053.2314     -4610.2013     -29.978541      0.96542259     49198.675      81           
    225900   296.71998      370.63779     -1858.4007     -833.135        1641.4424      6091.0484     -4637.1669     -33.150272      0.96560177     49189.546      81           
    226000   299.85631      445.64641     -1814.6267     -757.90543      1652.664       6114.4922     -4716.4749     -32.502726      0.96559316     49189.985      81           
    226100   300.12853      409.55262     -1858.5639     -789.13         1662.5162      6061.874      -4637.3529     -29.790795      0.96456182     49242.58       81           
    226200   300.21839      339.93822     -1867.1375     -818.61222      1677.614       6013.3753     -4634.3443     -30.957047      0.96420358     49260.875      81           
    226300   296.53544      410.34553     -1889.1514     -703.2013       1629.3635      6056.182      -4647.7153     -35.131928      0.96544203     49197.685      81           
    226400   298.87397      350.62745     -1861.2648     -726.24965      1642.2871      5992.9771     -4666.5184     -30.603851      0.96996243     48968.405      81           
    226500   307.68139      409.26384     -1885.095      -659.20203      1631.3676      6026.2581     -4672.0498     -32.015009      0.97348383     48791.27       81           
    226600   301.0878       427.12184     -1875.8721     -764.96399      1653.7201      6072.8788     -4622.2776     -36.363368      0.97462254     48734.264      81           
    226700   302.77017      325.27409     -1868.6714     -818.51725      1633.3365      6077.7991     -4663.7538     -34.918997      0.97277781     48826.682      81           
    226800   295.28905      254.19189     -1867.3699     -935.41687      1668.125       6003.7804     -4583.9307     -30.995994      0.97106323     48912.894      81           
    226900   297.26558      282.37636     -1872.7455     -817.76619      1608.5761      6045.177      -4651.6068     -29.258164      0.9698155      48975.823      81           
    227000   295.46233      376.19109     -1866.0893     -666.54658      1582.1968      6035.7808     -4676.8292     -32.321359      0.96859302     49037.637      81           
    227100   293.46349      123.22947     -1882.637      -963.29744      1633.0127      5962.3769     -4593.8849     -32.340787      0.9680529      49064.997      81           
    227200   295.93031      216.91838     -1876.9227     -983.54884      1713.0523      5989.3674     -4590.1911     -34.838701      0.9681516      49059.995      81           
    227300   303.35413      476.02337     -1881.805      -660.56667      1634.7567      6084.3985     -4671.8545     -28.905625      0.9677819      49078.737      81           
    227400   301.482        274.41741     -1878.3038     -922.96985      1652.3528      6108.6228     -4650.9169     -34.367521      0.96728138     49104.132      81           
    227500   303.52784      409.17206     -1877.9009     -705.53753      1601.1942      6084.425      -4661.3214     -31.687241      0.9669763      49119.624      81           
    227600   301.31295      218.20621     -1876.8859     -842.8952       1541.2035      5956.609      -4525.1443     -34.680946      0.96871866     49031.277      81           
    227700   298.35891      188.12876     -1860.4811     -873.81293      1559.7972      6097.9986     -4704.844      -30.528961      0.97044651     48943.978      81           
    227800   295.55962      291.17307     -1879.7445     -855.38464      1656.5317      6040.2169     -4637.3061     -33.140299      0.9722758      48851.892      81           
    227900   306.39229      365.44268     -1869.6213     -755.68622      1665.3471      6010.3708     -4652.9455     -32.022296      0.97351307     48789.805      81           
    228000   304.0837       227.91573     -1854.3208     -932.52235      1649.402       6001.9983     -4603.4924     -33.149057      0.97096266     48917.96       81           
    228100   298.12556      360.90959     -1884.0037     -829.27677      1691.8843      6007.6532     -4593.7682     -31.579216      0.96929897     49001.922      81           
    228200   298.58226      284.02977     -1847.8411     -830.07119      1606.6363      5982.9327     -4596.8704     -30.756529      0.96905951     49014.031      81           
    228300   297.99674      404.52605     -1875.9806     -659.19987      1626.2943      6039.227      -4691.9012     -33.913652      0.96606931     49165.74       81           
    228400   299.16503      265.49264     -1894.7305     -849.14335      1634.4106      5946.2351     -4539.0513     -32.227945      0.96608328     49165.029      81           
    228500   301.05486      389.08921     -1848.8485     -812.48008      1648.3141      6034.137      -4598.062      -33.971345      0.96849825     49042.435      81           
    228600   301.11199      354.01194     -1842.7815     -852.42088      1658.631       6081.4852     -4659.8866     -31.015302      0.97043629     48944.494      81           
    228700   298.9474       346.27695     -1863.5972     -848.69122      1683.4364      6062.3995     -4656.6051     -30.665326      0.97220994     48855.202      81           
    228800   296.32496      470.15267     -1896.2499     -643.08229      1603.1169      6081.477      -4646.3964     -28.712613      0.97300259     48815.402      81           
    228900   297.90872      450.41648     -1875.0478     -644.51693      1608.5566      6000.2431     -4607.1494     -31.669124      0.97295755     48817.662      81           
    229000   299.74733      481.46705     -1872.6673     -695.26991      1646.8278      6050.1654     -4616.3343     -31.254661      0.9700135      48965.826      81           
    229100   304.40088      351.48107     -1886.1401     -798.79787      1629.4867      6023.0317     -4586.4311     -29.668316      0.96719957     49108.286      81           
    229200   301.67726      160.57366     -1850.2565     -1011.6204      1613.3834      6149.6032     -4709.2413     -31.294769      0.96410512     49265.906      81           
    229300   300.10998      276.66412     -1865.6575     -887.33219      1634.1836      6038.9107     -4614.6837     -28.756725      0.960931       49428.64       81           
    229400   297.6667       194.83346     -1889.2269     -940.91931      1684.4949      6043.3356     -4672.5771     -30.273662      0.96067273     49441.929      81           
    229500   296.47179      373.90424     -1859.3734     -766.98569      1557.8654      6170.7956     -4696.0514     -32.346228      0.96326115     49309.071      81           
    229600   303.36645      129.86832     -1892.4098     -1037.2411      1629.8106      6158.9978     -4698.066      -31.2231        0.96488975     49225.844      81           
    229700   307.33647      248.82516     -1857.9661     -909.79569      1625.7239      5990.1159     -4569.274      -29.978763      0.96735666     49100.311      81           
    229800   301.05774      384.07569     -1859.5241     -786.70505      1670.465       5964.1908     -4572.3466     -32.004403      0.96778859     49078.397      81           
    229900   294.26899      466.78711     -1847.9423     -744.4001       1650.2964      5997.1585     -4555.4985     -32.826785      0.96697014     49119.937      81           
    230000   297.58826      334.33548     -1863.9145     -839.67194      1691.262       6044.8867     -4667.0046     -31.22222       0.9662381      49157.151      81           
    230051   299.6789       455.22196     -1831.9359     -707.57461      1685.7496      5973.135      -4634.1762     -29.975871      0.9660351      49167.481      81           
Loop time of 2082.69 on 6 procs for 200000 steps with 5021 atoms

Performance: 8.297 ns/day, 2.893 hours/ns, 96.030 timesteps/s, 482.166 katom-step/s
98.5% CPU use with 6 MPI tasks x no OpenMP threads

MPI task timing breakdown:
Section |  min time  |  avg time  |  max time  |%varavg| %total
---------------------------------------------------------------
Pair    | 904.47     | 933.67     | 947.69     |  48.4 | 44.83
Bond    | 553.13     | 576.05     | 594.34     |  65.3 | 27.66
Neigh   | 63.345     | 63.558     | 63.856     |   2.0 |  3.05
Comm    | 196.35     | 221.77     | 245.93     | 111.6 | 10.65
Output  | 1.9724     | 2.0592     | 2.4444     |  12.0 |  0.10
Modify  | 264.43     | 268.63     | 271.32     |  17.1 | 12.90
Other   |            | 16.94      |            |       |  0.81

Nlocal:        836.833 ave         859 max         807 min
Histogram: 1 1 0 0 0 1 0 0 2 1
Nghost:        8679.83 ave        8720 max        8661 min
Histogram: 3 0 0 1 1 0 0 0 0 1
Neighs:         304216 ave      314820 max      294783 min
Histogram: 1 0 0 2 0 1 1 0 0 1

Total # of neighbors = 1825295
Ave neighs/atom = 363.53216
Ave special neighs/atom = 11.2619
Neighbor list builds = 7779
Dangerous builds = 0

Total wall time: 0:37:55
