LAMMPS (22 Dec 2022)
# PREREQUISITES:
#
#     You must use moltemplate.sh to create 3 files:
#        system.data  system.in.init  system.in.settings
#     (Follow the instructions in README_setup.sh,
#      or run the file as a script using ./README_setup.sh)

# ------------------------------- Initialization Section --------------------

units real
atom_style full
pair_style lj/class2/coul/long 10.0 10.0
bond_style class2
angle_style class2
dihedral_style class2
improper_style class2
kspace_style pppm/cg 0.001

pair_modify     mix sixthpower tail yes
special_bonds   lj/coul 0 0 1


# ------------------------------- Atom Definition Section -------------------

read_data       "reacted_lmp.data"
Reading data file ...
  orthogonal box = (6.100545 6.100545 6.100545) to (45.040438 45.040438 45.040438)
  2 by 3 by 4 MPI processor grid
  reading atoms ...
  5000 atoms
  reading velocities ...
  5000 velocities
  scanning bonds ...
  4 = max bonds/atom
  scanning angles ...
  6 = max angles/atom
  scanning dihedrals ...
  14 = max dihedrals/atom
  scanning impropers ...
  4 = max impropers/atom
  reading bonds ...
  5342 bonds
  reading angles ...
  9512 angles
  reading dihedrals ...
  13457 dihedrals
  reading impropers ...
  4640 impropers
Finding 1-2 1-3 1-4 neighbors ...
  special bond factors lj:    0        0        1       
  special bond factors coul:  0        0        1       
     4 = max # of 1-2 neighbors
     7 = max # of 1-3 neighbors
    11 = max # of special neighbors
  special bonds CPU = 0.004 seconds
  read_data CPU = 0.366 seconds

include calc.pram

# Masses

mass		1    12.01115  # c
mass		2    12.01115  # c1
mass		3    12.01115  # c3h
mass		4    12.01115  # cp
mass		5     1.00797  # h
mass		6     1.00797  # hc
mass		7    15.99940  # o3e
mass		8    15.99940  # oc
mass		9    15.99940  # oh

# Potentials

pair_coeff	 1  1    0.05400    4.01000  # c,c
pair_coeff	 2  2    0.05400    4.01000  # c1,c1
pair_coeff	 3  3    0.05400    4.01000  # c3h,c3h
pair_coeff	 4  4    0.06400    4.01000  # cp,cp
pair_coeff	 5  5    0.02000    2.99500  # h,h
pair_coeff	 6  6    0.02000    2.99500  # hc,hc
pair_coeff	 7  7    0.24000    3.53500  # o3e,o3e
pair_coeff	 8  8    0.24000    3.53500  # oc,oc
pair_coeff	 9  9    0.24000    3.53500  # oh,oh

# Bond Coeffs

bond_coeff	 1    1.53000  299.67000 -501.77000  679.81000  # c,c
bond_coeff	 2    1.53000  299.67000 -501.77000  679.81000  # c,c1
bond_coeff	 3    1.53000  299.67000 -501.77000  679.81000  # c,c3h
bond_coeff	 4    1.50100  321.90210 -521.82080  572.16280  # c,cp
bond_coeff	 5    1.10100  345.00000 -691.89000  844.60000  # c,hc
bond_coeff	 6    1.42000  400.39540 -835.19510 1313.01420  # c,o3e
bond_coeff	 7    1.42000  400.39540 -835.19510 1313.01420  # c,oc
bond_coeff	 8    1.42000  400.39540 -835.19510 1313.01420  # c,oh
bond_coeff	 9    1.10100  345.00000 -691.89000  844.60000  # c1,hc
bond_coeff	10    1.42000  400.39540 -835.19510 1313.01420  # c1,oc
bond_coeff	11    1.10100  345.00000 -691.89000  844.60000  # c3h,hc
bond_coeff	12    1.42000  400.39540 -835.19510 1313.01420  # c3h,o3e
bond_coeff	13    1.41700  470.83610 -627.61790 1327.63450  # cp,cp
bond_coeff	14    1.09820  372.82510 -803.45260  894.31730  # cp,hc
bond_coeff	15    1.37680  428.87980 -738.23510 1114.96550  # cp,oc
bond_coeff	16    0.96000  493.84800    0.00000    0.00000  # h,oh

# Angle Coeffs

angle_coeff	 1  112.67000   39.51600   -7.44300   -9.55830  # c,c,c
angle_coeff	 2  110.77000   41.45300  -10.60400    5.12900  # c,c,hc
angle_coeff	 3  111.27000   54.53810   -8.36420  -13.08380  # c,c,oc
angle_coeff	 4  112.67000   39.51600   -7.44300   -9.55830  # c,c1,c
angle_coeff	 5  110.77000   41.45300  -10.60400    5.12900  # c,c1,hc
angle_coeff	 6  111.27000   54.53810   -8.36420  -13.08380  # c,c1,oc
angle_coeff	 7  112.67000   39.51600   -7.44300   -9.55830  # c,c3h,c
angle_coeff	 8  110.77000   41.45300  -10.60400    5.12900  # c,c3h,hc
angle_coeff	 9  111.27000   54.53810   -8.36420  -13.08380  # c,c3h,o3e
angle_coeff	10  120.05000   44.71480  -22.73520    0.00000  # c,cp,cp
angle_coeff	11  104.50000   35.74540  -10.00670   -6.27290  # c,o3e,c3h
angle_coeff	12  104.50000   35.74540  -10.00670   -6.27290  # c,oc,c1
angle_coeff	13  102.96950   38.97390   -6.25950   -8.17100  # c,oc,cp
angle_coeff	14  109.00000   58.50000    0.00000    0.00000  # c,oh,h
angle_coeff	15  110.77000   41.45300  -10.60400    5.12900  # c1,c,hc
angle_coeff	16  111.27000   54.53810   -8.36420  -13.08380  # c1,c,oc
angle_coeff	17  111.27000   54.53810   -8.36420  -13.08380  # c1,c,oh
angle_coeff	18  110.77000   41.45300  -10.60400    5.12900  # c3h,c,hc
angle_coeff	19  111.27000   54.53810   -8.36420  -13.08380  # c3h,c,o3e
angle_coeff	20  111.27000   54.53810   -8.36420  -13.08380  # c3h,c,oc
angle_coeff	21  111.00000   44.32340   -9.44540    0.00000  # cp,c,cp
angle_coeff	22  111.00000   44.32340   -9.44540    0.00000  # cp,c,hc
angle_coeff	23  118.90000   61.02260  -34.99310    0.00000  # cp,cp,cp
angle_coeff	24  117.94000   35.15580  -12.46820    0.00000  # cp,cp,hc
angle_coeff	25  123.42000   73.67810  -21.67870    0.00000  # cp,cp,oc
angle_coeff	26  107.66000   39.64100  -12.92100   -2.43180  # hc,c,hc
angle_coeff	27  108.72800   58.54460  -10.80880  -12.40060  # hc,c,o3e
angle_coeff	28  108.72800   58.54460  -10.80880  -12.40060  # hc,c,oc
angle_coeff	29  108.72800   58.54460  -10.80880  -12.40060  # hc,c,oh
angle_coeff	30  108.72800   58.54460  -10.80880  -12.40060  # hc,c1,oc
angle_coeff	31  108.72800   58.54460  -10.80880  -12.40060  # hc,c3h,o3e

# BondBond Coeffs

angle_coeff	 1 bb    0.00000    1.53000    1.53000  # c,c,c
angle_coeff	 2 bb    3.38720    1.53000    1.10100  # c,c,hc
angle_coeff	 3 bb   11.43180    1.53000    1.42000  # c,c,oc
angle_coeff	 4 bb    0.00000    1.53000    1.53000  # c,c1,c
angle_coeff	 5 bb    3.38720    1.53000    1.10100  # c,c1,hc
angle_coeff	 6 bb   11.43180    1.53000    1.42000  # c,c1,oc
angle_coeff	 7 bb    0.00000    1.53000    1.53000  # c,c3h,c
angle_coeff	 8 bb    3.38720    1.53000    1.10100  # c,c3h,hc
angle_coeff	 9 bb   11.43180    1.53000    1.42000  # c,c3h,o3e
angle_coeff	10 bb   12.06760    1.50100    1.41700  # c,cp,cp
angle_coeff	11 bb   -7.11310    1.42000    1.42000  # c,o3e,c3h
angle_coeff	12 bb   -7.11310    1.42000    1.42000  # c,oc,c1
angle_coeff	13 bb    0.00000    1.42000    1.37680  # c,oc,cp
angle_coeff	14 bb    0.00000    1.42000    0.96000  # c,oh,h
angle_coeff	15 bb    3.38720    1.53000    1.10100  # c1,c,hc
angle_coeff	16 bb   11.43180    1.53000    1.42000  # c1,c,oc
angle_coeff	17 bb   11.43180    1.53000    1.42000  # c1,c,oh
angle_coeff	18 bb    3.38720    1.53000    1.10100  # c3h,c,hc
angle_coeff	19 bb   11.43180    1.53000    1.42000  # c3h,c,o3e
angle_coeff	20 bb   11.43180    1.53000    1.42000  # c3h,c,oc
angle_coeff	21 bb    0.00000    1.50100    1.50100  # cp,c,cp
angle_coeff	22 bb    2.91680    1.50100    1.10100  # cp,c,hc
angle_coeff	23 bb   68.28560    1.41700    1.41700  # cp,cp,cp
angle_coeff	24 bb    1.07950    1.41700    1.09820  # cp,cp,hc
angle_coeff	25 bb   48.47540    1.41700    1.37680  # cp,cp,oc
angle_coeff	26 bb    5.33160    1.10100    1.10100  # hc,c,hc
angle_coeff	27 bb   23.19790    1.10100    1.42000  # hc,c,o3e
angle_coeff	28 bb   23.19790    1.10100    1.42000  # hc,c,oc
angle_coeff	29 bb   23.19790    1.10100    1.42000  # hc,c,oh
angle_coeff	30 bb   23.19790    1.10100    1.42000  # hc,c1,oc
angle_coeff	31 bb   23.19790    1.10100    1.42000  # hc,c3h,o3e

# BondAngle Coeffs

angle_coeff	 1 ba    8.01600    8.01600    1.53000    1.53000  # c,c,c
angle_coeff	 2 ba   20.75400   11.42100    1.53000    1.10100  # c,c,hc
angle_coeff	 3 ba   20.40330    2.68680    1.53000    1.42000  # c,c,oc
angle_coeff	 4 ba    8.01600    8.01600    1.53000    1.53000  # c,c1,c
angle_coeff	 5 ba   20.75400   11.42100    1.53000    1.10100  # c,c1,hc
angle_coeff	 6 ba   20.40330    2.68680    1.53000    1.42000  # c,c1,oc
angle_coeff	 7 ba    8.01600    8.01600    1.53000    1.53000  # c,c3h,c
angle_coeff	 8 ba   20.75400   11.42100    1.53000    1.10100  # c,c3h,hc
angle_coeff	 9 ba    2.68680   20.40330    1.53000    1.42000  # c,c3h,o3e
angle_coeff	10 ba   31.07710   47.05790    1.50100    1.41700  # c,cp,cp
angle_coeff	11 ba   -2.81120   -2.81120    1.42000    1.42000  # c,o3e,c3h
angle_coeff	12 ba   -2.81120   -2.81120    1.42000    1.42000  # c,oc,c1
angle_coeff	13 ba    0.00000    0.00000    1.42000    1.37680  # c,oc,cp
angle_coeff	14 ba    0.00000    0.00000    1.42000    0.96000  # c,oh,h
angle_coeff	15 ba   11.42100   20.75400    1.53000    1.10100  # c1,c,hc
angle_coeff	16 ba   20.40330    2.68680    1.53000    1.42000  # c1,c,oc
angle_coeff	17 ba   20.40330    2.68680    1.53000    1.42000  # c1,c,oh
angle_coeff	18 ba   11.42100   20.75400    1.53000    1.10100  # c3h,c,hc
angle_coeff	19 ba    2.68680   20.40330    1.53000    1.42000  # c3h,c,o3e
angle_coeff	20 ba   20.40330    2.68680    1.53000    1.42000  # c3h,c,oc
angle_coeff	21 ba    0.00000    0.00000    1.50100    1.50100  # cp,c,cp
angle_coeff	22 ba   26.46080   11.77170    1.50100    1.10100  # cp,c,hc
angle_coeff	23 ba   28.87080   28.87080    1.41700    1.41700  # cp,cp,cp
angle_coeff	24 ba   20.00330   24.21830    1.41700    1.09820  # cp,cp,hc
angle_coeff	25 ba   58.47900  107.68060    1.41700    1.37680  # cp,cp,oc
angle_coeff	26 ba   18.10300   18.10300    1.10100    1.10100  # hc,c,hc
angle_coeff	27 ba    4.61890   55.32700    1.10100    1.42000  # hc,c,o3e
angle_coeff	28 ba   55.32700    4.61890    1.10100    1.42000  # hc,c,oc
angle_coeff	29 ba    4.61890   55.32700    1.10100    1.42000  # hc,c,oh
angle_coeff	30 ba   55.32700    4.61890    1.10100    1.42000  # hc,c1,oc
angle_coeff	31 ba    4.61890   55.32700    1.10100    1.42000  # hc,c3h,o3e

# Dihedral Coeffs

dihedral_coeff	 1    0.00000    0.00000    0.03160    0.00000   -0.16810    0.00000  # c,c,c,hc
dihedral_coeff	 2    0.71370    0.00000    0.26600    0.00000   -0.25450    0.00000  # c,c,c,oc
dihedral_coeff	 3   -0.52030    0.00000   -0.30280    0.00000   -0.34500    0.00000  # c,c,oc,c1
dihedral_coeff	 4    0.00000    0.00000    0.00000    0.00000    0.13000  180.00000  # c,c,oc,cp
dihedral_coeff	 5    0.00000    0.00000    0.03160    0.00000   -0.16810    0.00000  # c,c1,c,hc
dihedral_coeff	 6    0.71370    0.00000    0.26600    0.00000   -0.25450    0.00000  # c,c1,c,oc
dihedral_coeff	 7    0.71370    0.00000    0.26600    0.00000   -0.25450    0.00000  # c,c1,c,oh
dihedral_coeff	 8   -0.52030    0.00000   -0.30280    0.00000   -0.34500    0.00000  # c,c1,oc,c
dihedral_coeff	 9    0.00000    0.00000    0.03160    0.00000   -0.16810    0.00000  # c,c3h,c,hc
dihedral_coeff	10    0.71370    0.00000    0.26600    0.00000   -0.25450    0.00000  # c,c3h,c,o3e
dihedral_coeff	11    0.71370    0.00000    0.26600    0.00000   -0.25450    0.00000  # c,c3h,c,oc
dihedral_coeff	12   -0.52030    0.00000   -0.30280    0.00000   -0.34500    0.00000  # c,c3h,o3e,c
dihedral_coeff	13    0.00000    0.00000    4.40720    0.00000    0.00000    0.00000  # c,cp,cp,cp
dihedral_coeff	14    0.00000    0.00000    1.55900    0.00000    0.00000    0.00000  # c,cp,cp,hc
dihedral_coeff	15    0.53020    0.00000    0.00000    0.00000   -0.39660    0.00000  # c,o3e,c3h,hc
dihedral_coeff	16    0.53020    0.00000    0.00000    0.00000   -0.39660    0.00000  # c,oc,c1,hc
dihedral_coeff	17    0.00000    0.00000    1.50000    0.00000    0.00000    0.00000  # c,oc,cp,cp
dihedral_coeff	18   -0.52030    0.00000   -0.30280    0.00000   -0.34500    0.00000  # c1,c,oc,c1
dihedral_coeff	19    0.00000    0.00000    0.00000    0.00000    0.13000  180.00000  # c1,c,oc,cp
dihedral_coeff	20    0.00000    0.00000    0.00000    0.00000    0.13000  180.00000  # c1,c,oh,h
dihedral_coeff	21    0.53020    0.00000    0.00000    0.00000   -0.39660    0.00000  # c1,oc,c,hc
dihedral_coeff	22    0.00000    0.00000    0.00000    0.00000    0.13000  180.00000  # c3h,c,oc,cp
dihedral_coeff	23    0.53020    0.00000    0.00000    0.00000   -0.39660    0.00000  # c3h,o3e,c,hc
dihedral_coeff	24   -0.28020    0.00000   -0.06780    0.00000   -0.01220    0.00000  # cp,c,cp,cp
dihedral_coeff	25   -0.28010    0.00000   -0.06780    0.00000   -0.01220    0.00000  # cp,cp,c,hc
dihedral_coeff	26    8.36670    0.00000    1.19320    0.00000    0.00000    0.00000  # cp,cp,cp,cp
dihedral_coeff	27    0.00000    0.00000    3.96610    0.00000    0.00000    0.00000  # cp,cp,cp,hc
dihedral_coeff	28    0.00000    0.00000    4.84980    0.00000    0.00000    0.00000  # cp,cp,cp,oc
dihedral_coeff	29    0.95130    0.00000    0.11550    0.00000    0.07200    0.00000  # cp,oc,c,hc
dihedral_coeff	30    0.00000    0.00000    0.00000    0.00000    0.13000  180.00000  # h,oh,c,hc
dihedral_coeff	31   -0.14320    0.00000    0.06170    0.00000   -0.10830    0.00000  # hc,c,c,hc
dihedral_coeff	32   -0.14350    0.00000    0.25300    0.00000   -0.09050    0.00000  # hc,c,c,oc
dihedral_coeff	33   -0.14320    0.00000    0.06170    0.00000   -0.10830    0.00000  # hc,c,c1,hc
dihedral_coeff	34   -0.14350    0.00000    0.25300    0.00000   -0.09050    0.00000  # hc,c,c1,oc
dihedral_coeff	35   -0.14320    0.00000    0.06170    0.00000   -0.10830    0.00000  # hc,c,c3h,hc
dihedral_coeff	36   -0.14350    0.00000    0.25300    0.00000   -0.09050    0.00000  # hc,c,c3h,o3e
dihedral_coeff	37   -0.14350    0.00000    0.25300    0.00000   -0.09050    0.00000  # hc,c1,c,oc
dihedral_coeff	38   -0.14350    0.00000    0.25300    0.00000   -0.09050    0.00000  # hc,c1,c,oh
dihedral_coeff	39   -0.14350    0.00000    0.25300    0.00000   -0.09050    0.00000  # hc,c3h,c,o3e
dihedral_coeff	40   -0.14350    0.00000    0.25300    0.00000   -0.09050    0.00000  # hc,c3h,c,oc
dihedral_coeff	41    0.00000    0.00000    1.87690    0.00000    0.00000    0.00000  # hc,cp,cp,hc
dihedral_coeff	42    0.00000    0.00000    1.72340    0.00000    0.00000    0.00000  # hc,cp,cp,oc
dihedral_coeff	43   -0.18200    0.00000   -0.10840    0.00000   -0.70470    0.00000  # o3e,c3h,c,oc
dihedral_coeff	44   -0.18200    0.00000   -0.10840    0.00000   -0.70470    0.00000  # oc,c,c1,oc
dihedral_coeff	45   -0.18200    0.00000   -0.10840    0.00000   -0.70470    0.00000  # oc,c1,c,oh

# MiddleBondTorsion Coeffs

dihedral_coeff	 1 mbt  -14.87900   -3.65810   -0.31380    1.53000  # c,c,c,hc
dihedral_coeff	 2 mbt  -21.88420   -7.67640   -0.68680    1.53000  # c,c,c,oc
dihedral_coeff	 3 mbt   -5.92880   -2.70070   -0.31750    1.42000  # c,c,oc,c1
dihedral_coeff	 4 mbt    0.00000    0.00000    0.00000    1.42000  # c,c,oc,cp
dihedral_coeff	 5 mbt  -14.87900   -3.65810   -0.31380    1.53000  # c,c1,c,hc
dihedral_coeff	 6 mbt  -21.88420   -7.67640   -0.68680    1.53000  # c,c1,c,oc
dihedral_coeff	 7 mbt  -21.88420   -7.67640   -0.68680    1.53000  # c,c1,c,oh
dihedral_coeff	 8 mbt   -5.92880   -2.70070   -0.31750    1.42000  # c,c1,oc,c
dihedral_coeff	 9 mbt  -14.87900   -3.65810   -0.31380    1.53000  # c,c3h,c,hc
dihedral_coeff	10 mbt  -21.88420   -7.67640   -0.68680    1.53000  # c,c3h,c,o3e
dihedral_coeff	11 mbt  -21.88420   -7.67640   -0.68680    1.53000  # c,c3h,c,oc
dihedral_coeff	12 mbt   -5.92880   -2.70070   -0.31750    1.42000  # c,c3h,o3e,c
dihedral_coeff	13 mbt    0.00000    9.17920    0.00000    1.41700  # c,cp,cp,cp
dihedral_coeff	14 mbt    0.00000    3.94210    0.00000    1.41700  # c,cp,cp,hc
dihedral_coeff	15 mbt   -6.80070   -4.65460   -1.41010    1.42000  # c,o3e,c3h,hc
dihedral_coeff	16 mbt   -6.80070   -4.65460   -1.41010    1.42000  # c,oc,c1,hc
dihedral_coeff	17 mbt    0.00000    0.00000    0.00000    1.37680  # c,oc,cp,cp
dihedral_coeff	18 mbt   -5.92880   -2.70070   -0.31750    1.42000  # c1,c,oc,c1
dihedral_coeff	19 mbt    0.00000    0.00000    0.00000    1.42000  # c1,c,oc,cp
dihedral_coeff	20 mbt    0.00000    0.00000    0.00000    1.42000  # c1,c,oh,h
dihedral_coeff	21 mbt   -6.80070   -4.65460   -1.41010    1.42000  # c1,oc,c,hc
dihedral_coeff	22 mbt    0.00000    0.00000    0.00000    1.42000  # c3h,c,oc,cp
dihedral_coeff	23 mbt   -6.80070   -4.65460   -1.41010    1.42000  # c3h,o3e,c,hc
dihedral_coeff	24 mbt    0.00000    0.00000    0.00000    1.50100  # cp,c,cp,cp
dihedral_coeff	25 mbt   -5.56790    1.40830    0.30100    1.50100  # cp,cp,c,hc
dihedral_coeff	26 mbt   27.59890   -2.31200    0.00000    1.41700  # cp,cp,cp,cp
dihedral_coeff	27 mbt    0.00000   -1.15210    0.00000    1.41700  # cp,cp,cp,hc
dihedral_coeff	28 mbt    0.00000    4.82550    0.00000    1.41700  # cp,cp,cp,oc
dihedral_coeff	29 mbt    0.00000    0.00000    0.00000    1.42000  # cp,oc,c,hc
dihedral_coeff	30 mbt    0.00000    0.00000    0.00000    1.42000  # h,oh,c,hc
dihedral_coeff	31 mbt  -14.26100   -0.53220   -0.48640    1.53000  # hc,c,c,hc
dihedral_coeff	32 mbt  -16.79750   -1.22960   -0.27500    1.53000  # hc,c,c,oc
dihedral_coeff	33 mbt  -14.26100   -0.53220   -0.48640    1.53000  # hc,c,c1,hc
dihedral_coeff	34 mbt  -16.79750   -1.22960   -0.27500    1.53000  # hc,c,c1,oc
dihedral_coeff	35 mbt  -14.26100   -0.53220   -0.48640    1.53000  # hc,c,c3h,hc
dihedral_coeff	36 mbt  -16.79750   -1.22960   -0.27500    1.53000  # hc,c,c3h,o3e
dihedral_coeff	37 mbt  -16.79750   -1.22960   -0.27500    1.53000  # hc,c1,c,oc
dihedral_coeff	38 mbt  -16.79750   -1.22960   -0.27500    1.53000  # hc,c1,c,oh
dihedral_coeff	39 mbt  -16.79750   -1.22960   -0.27500    1.53000  # hc,c3h,c,o3e
dihedral_coeff	40 mbt  -16.79750   -1.22960   -0.27500    1.53000  # hc,c3h,c,oc
dihedral_coeff	41 mbt    0.00000    4.82280    0.00000    1.41700  # hc,cp,cp,hc
dihedral_coeff	42 mbt    0.00000    5.54320    0.00000    1.41700  # hc,cp,cp,oc
dihedral_coeff	43 mbt  -17.25850   -3.61570   -0.83640    1.53000  # o3e,c3h,c,oc
dihedral_coeff	44 mbt  -17.25850   -3.61570   -0.83640    1.53000  # oc,c,c1,oc
dihedral_coeff	45 mbt  -17.25850   -3.61570   -0.83640    1.53000  # oc,c1,c,oh

# EndBondTorsion Coeffs

dihedral_coeff	 1 ebt    0.24860    0.24220   -0.09250    0.08140    0.05910    0.22190    1.53000    1.10100  # c,c,c,hc
dihedral_coeff	 2 ebt    1.15380    0.84090   -0.91380   -0.31900    0.44110   -0.71740    1.53000    1.42000  # c,c,c,oc
dihedral_coeff	 3 ebt   -0.24560    1.05170   -0.77950    0.47410    1.26350    0.55760    1.53000    1.42000  # c,c,oc,c1
dihedral_coeff	 4 ebt    0.00000    0.00000    0.00000    0.00000    0.00000    0.00000    1.53000    1.37680  # c,c,oc,cp
dihedral_coeff	 5 ebt    0.24860    0.24220   -0.09250    0.08140    0.05910    0.22190    1.53000    1.10100  # c,c1,c,hc
dihedral_coeff	 6 ebt    1.15380    0.84090   -0.91380   -0.31900    0.44110   -0.71740    1.53000    1.42000  # c,c1,c,oc
dihedral_coeff	 7 ebt   -0.31900    0.44110   -0.71740    1.15380    0.84090   -0.91380    1.53000    1.42000  # c,c1,c,oh
dihedral_coeff	 8 ebt    0.47410    1.26350    0.55760   -0.24560    1.05170   -0.77950    1.53000    1.42000  # c,c1,oc,c
dihedral_coeff	 9 ebt    0.24860    0.24220   -0.09250    0.08140    0.05910    0.22190    1.53000    1.10100  # c,c3h,c,hc
dihedral_coeff	10 ebt   -0.31900    0.44110   -0.71740    1.15380    0.84090   -0.91380    1.53000    1.42000  # c,c3h,c,o3e
dihedral_coeff	11 ebt    1.15380    0.84090   -0.91380   -0.31900    0.44110   -0.71740    1.53000    1.42000  # c,c3h,c,oc
dihedral_coeff	12 ebt   -0.24560    1.05170   -0.77950    0.47410    1.26350    0.55760    1.53000    1.42000  # c,c3h,o3e,c
dihedral_coeff	13 ebt    0.00000   -0.69180    0.00000    0.00000    0.24210    0.00000    1.50100    1.41700  # c,cp,cp,cp
dihedral_coeff	14 ebt    0.00000   -1.79700    0.00000    0.00000   -0.48790    0.00000    1.50100    1.09820  # c,cp,cp,hc
dihedral_coeff	15 ebt   -0.16200    0.15640   -1.14080   -0.60540    1.33390    0.96480    1.42000    1.10100  # c,o3e,c3h,hc
dihedral_coeff	16 ebt   -0.16200    0.15640   -1.14080   -0.60540    1.33390    0.96480    1.42000    1.10100  # c,oc,c1,hc
dihedral_coeff	17 ebt    0.00000    0.00000    0.00000    0.00000    0.00000    0.00000    1.42000    1.41700  # c,oc,cp,cp
dihedral_coeff	18 ebt    0.47410    1.26350    0.55760   -0.24560    1.05170   -0.77950    1.53000    1.42000  # c1,c,oc,c1
dihedral_coeff	19 ebt    0.00000    0.00000    0.00000    0.00000    0.00000    0.00000    1.53000    1.37680  # c1,c,oc,cp
dihedral_coeff	20 ebt    0.00000    0.00000    0.00000    0.00000    0.00000    0.00000    1.53000    0.96000  # c1,c,oh,h
dihedral_coeff	21 ebt   -0.60540    1.33390    0.96480   -0.16200    0.15640   -1.14080    1.42000    1.10100  # c1,oc,c,hc
dihedral_coeff	22 ebt    0.00000    0.00000    0.00000    0.00000    0.00000    0.00000    1.53000    1.37680  # c3h,c,oc,cp
dihedral_coeff	23 ebt   -0.60540    1.33390    0.96480   -0.16200    0.15640   -1.14080    1.42000    1.10100  # c3h,o3e,c,hc
dihedral_coeff	24 ebt    0.00000    0.00000    0.00000    0.00000    0.00000    0.00000    1.50100    1.41700  # cp,c,cp,cp
dihedral_coeff	25 ebt   -0.58350    1.12200    0.39780    1.39970    0.77560    0.00000    1.41700    1.10100  # cp,cp,c,hc
dihedral_coeff	26 ebt   -0.11850    6.32040    0.00000   -0.11850    6.32040    0.00000    1.41700    1.41700  # cp,cp,cp,cp
dihedral_coeff	27 ebt    0.00000   -6.89580    0.00000    0.00000   -0.46690    0.00000    1.41700    1.09820  # cp,cp,cp,hc
dihedral_coeff	28 ebt    0.00000    0.26550    0.00000    0.00000    4.89050    0.00000    1.41700    1.37680  # cp,cp,cp,oc
dihedral_coeff	29 ebt    0.00000    0.00000    0.00000    0.00000    0.00000    0.00000    1.37680    1.10100  # cp,oc,c,hc
dihedral_coeff	30 ebt    0.00000    0.00000    0.00000    0.00000    0.00000    0.00000    0.96000    1.10100  # h,oh,c,hc
dihedral_coeff	31 ebt    0.21300    0.31200    0.07770    0.21300    0.31200    0.07770    1.10100    1.10100  # hc,c,c,hc
dihedral_coeff	32 ebt    0.59030    0.66690    0.85840    0.96810    0.95510    0.04360    1.10100    1.42000  # hc,c,c,oc
dihedral_coeff	33 ebt    0.21300    0.31200    0.07770    0.21300    0.31200    0.07770    1.10100    1.10100  # hc,c,c1,hc
dihedral_coeff	34 ebt    0.59030    0.66690    0.85840    0.96810    0.95510    0.04360    1.10100    1.42000  # hc,c,c1,oc
dihedral_coeff	35 ebt    0.21300    0.31200    0.07770    0.21300    0.31200    0.07770    1.10100    1.10100  # hc,c,c3h,hc
dihedral_coeff	36 ebt    0.96810    0.95510    0.04360    0.59030    0.66690    0.85840    1.10100    1.42000  # hc,c,c3h,o3e
dihedral_coeff	37 ebt    0.59030    0.66690    0.85840    0.96810    0.95510    0.04360    1.10100    1.42000  # hc,c1,c,oc
dihedral_coeff	38 ebt    0.96810    0.95510    0.04360    0.59030    0.66690    0.85840    1.10100    1.42000  # hc,c1,c,oh
dihedral_coeff	39 ebt    0.96810    0.95510    0.04360    0.59030    0.66690    0.85840    1.10100    1.42000  # hc,c3h,c,o3e
dihedral_coeff	40 ebt    0.59030    0.66690    0.85840    0.96810    0.95510    0.04360    1.10100    1.42000  # hc,c3h,c,oc
dihedral_coeff	41 ebt    0.00000   -0.68900    0.00000    0.00000   -0.68900    0.00000    1.09820    1.09820  # hc,cp,cp,hc
dihedral_coeff	42 ebt    0.00000    4.26410    0.00000    0.00000   -1.58670    0.00000    1.09820    1.37680  # hc,cp,cp,oc
dihedral_coeff	43 ebt    1.01650    0.75530   -0.46090    1.01650    0.75530   -0.46090    1.42000    1.42000  # o3e,c3h,c,oc
dihedral_coeff	44 ebt    1.01650    0.75530   -0.46090    1.01650    0.75530   -0.46090    1.42000    1.42000  # oc,c,c1,oc
dihedral_coeff	45 ebt    1.01650    0.75530   -0.46090    1.01650    0.75530   -0.46090    1.42000    1.42000  # oc,c1,c,oh

# AngleTorsion Coeffs

dihedral_coeff	 1 at   -0.24540    0.00000   -0.11360    0.31130    0.45160   -0.19880  112.67000  110.77000  # c,c,c,hc
dihedral_coeff	 2 at    0.96720   -0.75660   -1.23310    0.56230   -0.30410   -0.40150  112.67000  111.27000  # c,c,c,oc
dihedral_coeff	 3 at   -2.74660    1.48770   -0.89550    0.56760    0.94500    0.07030  111.27000  104.50000  # c,c,oc,c1
dihedral_coeff	 4 at    0.00000    0.00000    0.00000    0.00000    0.00000    0.00000  111.27000  102.96950  # c,c,oc,cp
dihedral_coeff	 5 at   -0.24540    0.00000   -0.11360    0.31130    0.45160   -0.19880  112.67000  110.77000  # c,c1,c,hc
dihedral_coeff	 6 at    0.96720   -0.75660   -1.23310    0.56230   -0.30410   -0.40150  112.67000  111.27000  # c,c1,c,oc
dihedral_coeff	 7 at    0.56230   -0.30410   -0.40150    0.96720   -0.75660   -1.23310  112.67000  111.27000  # c,c1,c,oh
dihedral_coeff	 8 at    0.56760    0.94500    0.07030   -2.74660    1.48770   -0.89550  111.27000  104.50000  # c,c1,oc,c
dihedral_coeff	 9 at   -0.24540    0.00000   -0.11360    0.31130    0.45160   -0.19880  112.67000  110.77000  # c,c3h,c,hc
dihedral_coeff	10 at    0.56230   -0.30410   -0.40150    0.96720   -0.75660   -1.23310  112.67000  111.27000  # c,c3h,c,o3e
dihedral_coeff	11 at    0.96720   -0.75660   -1.23310    0.56230   -0.30410   -0.40150  112.67000  111.27000  # c,c3h,c,oc
dihedral_coeff	12 at   -2.74660    1.48770   -0.89550    0.56760    0.94500    0.07030  111.27000  104.50000  # c,c3h,o3e,c
dihedral_coeff	13 at    0.00000    3.89870    0.00000    0.00000   -4.46830    0.00000  120.05000  118.90000  # c,cp,cp,cp
dihedral_coeff	14 at    0.00000   -0.12420    0.00000    0.00000    3.46010    0.00000  120.05000  117.94000  # c,cp,cp,hc
dihedral_coeff	15 at   -0.77770    0.43400   -0.66530   -1.82340    1.63930    0.51440  104.50000  108.72800  # c,o3e,c3h,hc
dihedral_coeff	16 at   -0.77770    0.43400   -0.66530   -1.82340    1.63930    0.51440  104.50000  108.72800  # c,oc,c1,hc
dihedral_coeff	17 at    0.00000    0.00000    0.00000    0.00000    0.00000    0.00000  102.96950  123.42000  # c,oc,cp,cp
dihedral_coeff	18 at    0.56760    0.94500    0.07030   -2.74660    1.48770   -0.89550  111.27000  104.50000  # c1,c,oc,c1
dihedral_coeff	19 at    0.00000    0.00000    0.00000    0.00000    0.00000    0.00000  111.27000  102.96950  # c1,c,oc,cp
dihedral_coeff	20 at    0.00000    0.00000    0.00000    0.00000    0.00000    0.00000  111.27000  109.00000  # c1,c,oh,h
dihedral_coeff	21 at   -1.82340    1.63930    0.51440   -0.77770    0.43400   -0.66530  104.50000  108.72800  # c1,oc,c,hc
dihedral_coeff	22 at    0.00000    0.00000    0.00000    0.00000    0.00000    0.00000  111.27000  102.96950  # c3h,c,oc,cp
dihedral_coeff	23 at   -1.82340    1.63930    0.51440   -0.77770    0.43400   -0.66530  104.50000  108.72800  # c3h,o3e,c,hc
dihedral_coeff	24 at    0.00000    0.00000    0.00000    0.00000    0.00000    0.00000  111.00000  120.05000  # cp,c,cp,cp
dihedral_coeff	25 at    0.22510    0.65480    0.12370    4.62660    0.16320    0.04610  120.05000  111.00000  # cp,cp,c,hc
dihedral_coeff	26 at    1.97670    1.02390    0.00000    1.97670    1.02390    0.00000  118.90000  118.90000  # cp,cp,cp,cp
dihedral_coeff	27 at    0.00000    2.50140    0.00000    0.00000    2.71470    0.00000  118.90000  117.94000  # cp,cp,cp,hc
dihedral_coeff	28 at    0.00000   10.01550    0.00000    0.00000    1.74040    0.00000  118.90000  123.42000  # cp,cp,cp,oc
dihedral_coeff	29 at    0.00000    0.00000    0.00000    0.00000    0.00000    0.00000  102.96950  108.72800  # cp,oc,c,hc
dihedral_coeff	30 at    0.00000    0.00000    0.00000    0.00000    0.00000    0.00000  109.00000  108.72800  # h,oh,c,hc
dihedral_coeff	31 at   -0.80850    0.55690   -0.24660   -0.80850    0.55690   -0.24660  110.77000  110.77000  # hc,c,c,hc
dihedral_coeff	32 at   -0.18920    0.49180    0.72730    2.36680    2.49200   -1.01220  110.77000  111.27000  # hc,c,c,oc
dihedral_coeff	33 at   -0.80850    0.55690   -0.24660   -0.80850    0.55690   -0.24660  110.77000  110.77000  # hc,c,c1,hc
dihedral_coeff	34 at   -0.18920    0.49180    0.72730    2.36680    2.49200   -1.01220  110.77000  111.27000  # hc,c,c1,oc
dihedral_coeff	35 at   -0.80850    0.55690   -0.24660   -0.80850    0.55690   -0.24660  110.77000  110.77000  # hc,c,c3h,hc
dihedral_coeff	36 at    2.36680    2.49200   -1.01220   -0.18920    0.49180    0.72730  110.77000  111.27000  # hc,c,c3h,o3e
dihedral_coeff	37 at   -0.18920    0.49180    0.72730    2.36680    2.49200   -1.01220  110.77000  111.27000  # hc,c1,c,oc
dihedral_coeff	38 at    2.36680    2.49200   -1.01220   -0.18920    0.49180    0.72730  110.77000  111.27000  # hc,c1,c,oh
dihedral_coeff	39 at    2.36680    2.49200   -1.01220   -0.18920    0.49180    0.72730  110.77000  111.27000  # hc,c3h,c,o3e
dihedral_coeff	40 at   -0.18920    0.49180    0.72730    2.36680    2.49200   -1.01220  110.77000  111.27000  # hc,c3h,c,oc
dihedral_coeff	41 at    0.00000    2.45010    0.00000    0.00000    2.45010    0.00000  117.94000  117.94000  # hc,cp,cp,hc
dihedral_coeff	42 at    0.00000    2.57060    0.00000    0.00000    1.87290    0.00000  117.94000  123.42000  # hc,cp,cp,oc
dihedral_coeff	43 at    0.55110    0.97370   -0.66730    0.55110    0.97370   -0.66730  111.27000  111.27000  # o3e,c3h,c,oc
dihedral_coeff	44 at    0.55110    0.97370   -0.66730    0.55110    0.97370   -0.66730  111.27000  111.27000  # oc,c,c1,oc
dihedral_coeff	45 at    0.55110    0.97370   -0.66730    0.55110    0.97370   -0.66730  111.27000  111.27000  # oc,c1,c,oh

# AngleAngleTorsion Coeffs

dihedral_coeff	 1 aat  -16.16400  112.67000  110.77000  # c,c,c,hc
dihedral_coeff	 2 aat  -29.04200  112.67000  111.27000  # c,c,c,oc
dihedral_coeff	 3 aat  -19.00590  111.27000  104.50000  # c,c,oc,c1
dihedral_coeff	 4 aat    0.00000  111.27000  102.96950  # c,c,oc,cp
dihedral_coeff	 5 aat  -16.16400  112.67000  110.77000  # c,c1,c,hc
dihedral_coeff	 6 aat  -29.04200  112.67000  111.27000  # c,c1,c,oc
dihedral_coeff	 7 aat  -29.04200  112.67000  111.27000  # c,c1,c,oh
dihedral_coeff	 8 aat  -19.00590  111.27000  104.50000  # c,c1,oc,c
dihedral_coeff	 9 aat  -16.16400  112.67000  110.77000  # c,c3h,c,hc
dihedral_coeff	10 aat  -29.04200  112.67000  111.27000  # c,c3h,c,o3e
dihedral_coeff	11 aat  -29.04200  112.67000  111.27000  # c,c3h,c,oc
dihedral_coeff	12 aat  -19.00590  111.27000  104.50000  # c,c3h,o3e,c
dihedral_coeff	13 aat  -14.40970  120.05000  118.90000  # c,cp,cp,cp
dihedral_coeff	14 aat    4.44440  120.05000  117.94000  # c,cp,cp,hc
dihedral_coeff	15 aat  -16.44380  104.50000  108.72800  # c,o3e,c3h,hc
dihedral_coeff	16 aat  -16.44380  104.50000  108.72800  # c,oc,c1,hc
dihedral_coeff	17 aat    0.00000  102.96950  123.42000  # c,oc,cp,cp
dihedral_coeff	18 aat  -19.00590  111.27000  104.50000  # c1,c,oc,c1
dihedral_coeff	19 aat    0.00000  111.27000  102.96950  # c1,c,oc,cp
dihedral_coeff	20 aat    0.00000  111.27000  109.00000  # c1,c,oh,h
dihedral_coeff	21 aat  -16.44380  104.50000  108.72800  # c1,oc,c,hc
dihedral_coeff	22 aat    0.00000  111.27000  102.96950  # c3h,c,oc,cp
dihedral_coeff	23 aat  -16.44380  104.50000  108.72800  # c3h,o3e,c,hc
dihedral_coeff	24 aat    0.00000  111.00000  120.05000  # cp,c,cp,cp
dihedral_coeff	25 aat   -5.88880  120.05000  111.00000  # cp,cp,c,hc
dihedral_coeff	26 aat    0.00000  118.90000  118.90000  # cp,cp,cp,cp
dihedral_coeff	27 aat   -4.81410  118.90000  117.94000  # cp,cp,cp,hc
dihedral_coeff	28 aat  -21.02470  118.90000  123.42000  # cp,cp,cp,oc
dihedral_coeff	29 aat    0.00000  102.96950  108.72800  # cp,oc,c,hc
dihedral_coeff	30 aat    0.00000  109.00000  108.72800  # h,oh,c,hc
dihedral_coeff	31 aat  -12.56400  110.77000  110.77000  # hc,c,c,hc
dihedral_coeff	32 aat  -20.20060  110.77000  111.27000  # hc,c,c,oc
dihedral_coeff	33 aat  -12.56400  110.77000  110.77000  # hc,c,c1,hc
dihedral_coeff	34 aat  -20.20060  110.77000  111.27000  # hc,c,c1,oc
dihedral_coeff	35 aat  -12.56400  110.77000  110.77000  # hc,c,c3h,hc
dihedral_coeff	36 aat  -20.20060  110.77000  111.27000  # hc,c,c3h,o3e
dihedral_coeff	37 aat  -20.20060  110.77000  111.27000  # hc,c1,c,oc
dihedral_coeff	38 aat  -20.20060  110.77000  111.27000  # hc,c1,c,oh
dihedral_coeff	39 aat  -20.20060  110.77000  111.27000  # hc,c3h,c,o3e
dihedral_coeff	40 aat  -20.20060  110.77000  111.27000  # hc,c3h,c,oc
dihedral_coeff	41 aat    0.35980  117.94000  117.94000  # hc,cp,cp,hc
dihedral_coeff	42 aat    4.22960  117.94000  123.42000  # hc,cp,cp,oc
dihedral_coeff	43 aat  -14.04840  111.27000  111.27000  # o3e,c3h,c,oc
dihedral_coeff	44 aat  -14.04840  111.27000  111.27000  # oc,c,c1,oc
dihedral_coeff	45 aat  -14.04840  111.27000  111.27000  # oc,c1,c,oh

# BondBond13 Coeffs

dihedral_coeff	 1 bb13    0.00000    1.53000    1.10100  # c,c,c,hc
dihedral_coeff	 2 bb13    0.00000    1.53000    1.42000  # c,c,c,oc
dihedral_coeff	 3 bb13    0.00000    1.53000    1.42000  # c,c,oc,c1
dihedral_coeff	 4 bb13    0.00000    1.53000    1.37680  # c,c,oc,cp
dihedral_coeff	 5 bb13    0.00000    1.53000    1.10100  # c,c1,c,hc
dihedral_coeff	 6 bb13    0.00000    1.53000    1.42000  # c,c1,c,oc
dihedral_coeff	 7 bb13    0.00000    1.53000    1.42000  # c,c1,c,oh
dihedral_coeff	 8 bb13    0.00000    1.53000    1.42000  # c,c1,oc,c
dihedral_coeff	 9 bb13    0.00000    1.53000    1.10100  # c,c3h,c,hc
dihedral_coeff	10 bb13    0.00000    1.53000    1.42000  # c,c3h,c,o3e
dihedral_coeff	11 bb13    0.00000    1.53000    1.42000  # c,c3h,c,oc
dihedral_coeff	12 bb13    0.00000    1.53000    1.42000  # c,c3h,o3e,c
dihedral_coeff	13 bb13    2.50850    1.50100    1.41700  # c,cp,cp,cp
dihedral_coeff	14 bb13    0.87430    1.50100    1.09820  # c,cp,cp,hc
dihedral_coeff	15 bb13    0.00000    1.42000    1.10100  # c,o3e,c3h,hc
dihedral_coeff	16 bb13    0.00000    1.42000    1.10100  # c,oc,c1,hc
dihedral_coeff	17 bb13    0.00000    1.42000    1.41700  # c,oc,cp,cp
dihedral_coeff	18 bb13    0.00000    1.53000    1.42000  # c1,c,oc,c1
dihedral_coeff	19 bb13    0.00000    1.53000    1.37680  # c1,c,oc,cp
dihedral_coeff	20 bb13    0.00000    1.53000    0.96000  # c1,c,oh,h
dihedral_coeff	21 bb13    0.00000    1.42000    1.10100  # c1,oc,c,hc
dihedral_coeff	22 bb13    0.00000    1.53000    1.37680  # c3h,c,oc,cp
dihedral_coeff	23 bb13    0.00000    1.42000    1.10100  # c3h,o3e,c,hc
dihedral_coeff	24 bb13    0.00000    1.50100    1.41700  # cp,c,cp,cp
dihedral_coeff	25 bb13   -3.48260    1.41700    1.10100  # cp,cp,c,hc
dihedral_coeff	26 bb13   53.00000    1.41700    1.41700  # cp,cp,cp,cp
dihedral_coeff	27 bb13   -6.27410    1.41700    1.09820  # cp,cp,cp,hc
dihedral_coeff	28 bb13   -2.24360    1.41700    1.37680  # cp,cp,cp,oc
dihedral_coeff	29 bb13    0.00000    1.37680    1.10100  # cp,oc,c,hc
dihedral_coeff	30 bb13    0.00000    0.96000    1.10100  # h,oh,c,hc
dihedral_coeff	31 bb13    0.00000    1.10100    1.10100  # hc,c,c,hc
dihedral_coeff	32 bb13    0.00000    1.10100    1.42000  # hc,c,c,oc
dihedral_coeff	33 bb13    0.00000    1.10100    1.10100  # hc,c,c1,hc
dihedral_coeff	34 bb13    0.00000    1.10100    1.42000  # hc,c,c1,oc
dihedral_coeff	35 bb13    0.00000    1.10100    1.10100  # hc,c,c3h,hc
dihedral_coeff	36 bb13    0.00000    1.10100    1.42000  # hc,c,c3h,o3e
dihedral_coeff	37 bb13    0.00000    1.10100    1.42000  # hc,c1,c,oc
dihedral_coeff	38 bb13    0.00000    1.10100    1.42000  # hc,c1,c,oh
dihedral_coeff	39 bb13    0.00000    1.10100    1.42000  # hc,c3h,c,o3e
dihedral_coeff	40 bb13    0.00000    1.10100    1.42000  # hc,c3h,c,oc
dihedral_coeff	41 bb13   -1.70770    1.09820    1.09820  # hc,cp,cp,hc
dihedral_coeff	42 bb13    2.05170    1.09820    1.37680  # hc,cp,cp,oc
dihedral_coeff	43 bb13    0.00000    1.42000    1.42000  # o3e,c3h,c,oc
dihedral_coeff	44 bb13    0.00000    1.42000    1.42000  # oc,c,c1,oc
dihedral_coeff	45 bb13    0.00000    1.42000    1.42000  # oc,c1,c,oh

# Improper Coeffs

improper_coeff	 1    0.00000    0.00000  # c,c,c,hc
improper_coeff	 2    0.00000    0.00000  # c,c,hc,hc
improper_coeff	 3    0.00000    0.00000  # c,c,hc,oc
improper_coeff	 4    0.00000    0.00000  # c,c,oc,hc
improper_coeff	 5    0.00000    0.00000  # c,c1,hc,hc
improper_coeff	 6    0.00000    0.00000  # c,c1,hc,oc
improper_coeff	 7    0.00000    0.00000  # c,c1,hc,oh
improper_coeff	 8    0.00000    0.00000  # c,c1,oc,hc
improper_coeff	 9    0.00000    0.00000  # c,c3h,hc,hc
improper_coeff	10    0.00000    0.00000  # c,c3h,hc,o3e
improper_coeff	11    0.00000    0.00000  # c,c3h,hc,oc
improper_coeff	12    0.00000    0.00000  # c,cp,cp,hc
improper_coeff	13    0.00000    0.00000  # c,cp,hc,hc
improper_coeff	14    0.00000    0.00000  # c,hc,hc,o3e
improper_coeff	15    0.00000    0.00000  # c,hc,hc,oc
improper_coeff	16    0.00000    0.00000  # c,hc,hc,oh
improper_coeff	17    0.00000    0.00000  # c1,c,c,hc
improper_coeff	18    0.00000    0.00000  # c1,c,c,oc
improper_coeff	19    0.00000    0.00000  # c1,c,oc,hc
improper_coeff	20    0.00000    0.00000  # c3h,c,c,hc
improper_coeff	21    0.00000    0.00000  # c3h,c,c,o3e
improper_coeff	22    0.00000    0.00000  # c3h,c,hc,o3e
improper_coeff	23    0.00000    0.00000  # c3h,c,o3e,hc
improper_coeff	24    7.81530    0.00000  # cp,c,cp,cp
improper_coeff	25    4.89120    0.00000  # cp,cp,cp,hc
improper_coeff	26   13.04210    0.00000  # cp,cp,cp,oc

# AngleAngle Coeffs

improper_coeff	 1 aa   -1.31990   -1.31990    0.11840  112.67000  110.77000  110.77000  # c,c,c,hc
improper_coeff	 2 aa    0.27380   -0.48250    0.27380  110.77000  110.77000  107.66000  # c,c,hc,hc
improper_coeff	 3 aa    0.00000    0.00000    0.16890  110.77000  111.27000  108.72800  # c,c,hc,oc
improper_coeff	 4 aa    0.16890    0.00000    0.00000  111.27000  110.77000  108.72800  # c,c,oc,hc
improper_coeff	 5 aa    0.00000   -0.48250    0.00000  110.77000  110.77000  107.66000  # c,c1,hc,hc
improper_coeff	 6 aa    0.00000    0.00000    0.00000  110.77000  111.27000  108.72800  # c,c1,hc,oc
improper_coeff	 7 aa    0.00000    2.59260    0.00000  110.77000  111.27000  108.72800  # c,c1,hc,oh
improper_coeff	 8 aa    0.00000    0.00000    0.00000  111.27000  110.77000  108.72800  # c,c1,oc,hc
improper_coeff	 9 aa    0.00000   -0.48250    0.00000  110.77000  110.77000  107.66000  # c,c3h,hc,hc
improper_coeff	10 aa    3.91770    2.59260    0.00000  110.77000  111.27000  108.72800  # c,c3h,hc,o3e
improper_coeff	11 aa    0.00000    0.00000    0.00000  110.77000  111.27000  108.72800  # c,c3h,hc,oc
improper_coeff	12 aa    0.00000    0.00000    0.00000  111.00000  111.00000  111.00000  # c,cp,cp,hc
improper_coeff	13 aa    2.37940    3.01180    2.37940  111.00000  111.00000  107.66000  # c,cp,hc,hc
improper_coeff	14 aa    2.42590    2.42590    2.12830  107.66000  108.72800  108.72800  # c,hc,hc,o3e
improper_coeff	15 aa    0.00000    0.00000    2.12830  107.66000  108.72800  108.72800  # c,hc,hc,oc
improper_coeff	16 aa    2.42590    2.42590    2.12830  107.66000  108.72800  108.72800  # c,hc,hc,oh
improper_coeff	17 aa   -1.31990   -1.31990    0.11840  112.67000  110.77000  110.77000  # c1,c,c,hc
improper_coeff	18 aa    0.00000    0.00000   -3.57440  112.67000  111.27000  111.27000  # c1,c,c,oc
improper_coeff	19 aa    0.16890    0.00000    0.00000  111.27000  110.77000  108.72800  # c1,c,oc,hc
improper_coeff	20 aa   -1.31990   -1.31990    0.11840  112.67000  110.77000  110.77000  # c3h,c,c,hc
improper_coeff	21 aa   -0.83300   -0.83300   -3.57440  112.67000  111.27000  111.27000  # c3h,c,c,o3e
improper_coeff	22 aa    3.91770    2.59260    0.16890  110.77000  111.27000  108.72800  # c3h,c,hc,o3e
improper_coeff	23 aa    0.16890    2.59260    3.91770  111.27000  110.77000  108.72800  # c3h,c,o3e,hc
improper_coeff	24 aa    0.00000    0.00000    0.00000  120.05000  120.05000  118.90000  # cp,c,cp,cp
improper_coeff	25 aa    0.00000    0.00000    0.00000  118.90000  117.94000  117.94000  # cp,cp,cp,hc
improper_coeff	26 aa    0.00000    0.00000    0.00000  118.90000  123.42000  123.42000  # cp,cp,cp,oc

# ------------------------------- OPT Section -------------------------------
minimize 1.0e-5 1.0e-7 100000 400000
PPPM initialization ...
  using 12-bit tables for long-range coulomb (../kspace.cpp:342)
  G vector (1/distance) = 0.11440119
  grid = 4 4 4
  stencil order = 5
  estimated absolute RMS force accuracy = 0.28915976
  estimated relative force accuracy = 0.00087079602
  using double precision KISS FFT
  3d grid and FFT values/proc = 294 4
Generated 36 of 36 mixed pair_coeff terms from sixthpower/sixthpower mixing rule
Neighbor list info ...
  update: every = 1 steps, delay = 0 steps, check = yes
  max neighbors/atom: 2000, page size: 100000
  master list distance cutoff = 12
  ghost atom cutoff = 12
  binsize = 6, bins = 7 7 7
  1 neighbor lists, perpetual/occasional/extra = 1 0 0
  (1) pair lj/class2/coul/long, perpetual
      attributes: half, newton on
      pair build: half/bin/newton
      stencil: half/bin/3d
      bin: standard
WARNING: Inconsistent image flags (../domain.cpp:815)
  PPPM/cg optimization cutoff: 1e-05
  Total charged atoms: 95.4%
  Min/max charged atoms/proc: 92.5% 96.9%
Per MPI rank memory allocation (min/avg/max) = 16.16 | 16.17 | 16.17 Mbytes
   Step          Temp          E_pair         E_mol          TotEng         Press     
         0   582.90106     -1097.5541      15683.716      23272.011      585.37865    
       103   582.90106     -1831.9103      7567.6799      14421.619      2919.7075    
Loop time of 1.00104 on 24 procs for 103 steps with 5000 atoms

99.1% CPU use with 24 MPI tasks x no OpenMP threads

Minimization stats:
  Stopping criterion = linesearch alpha is zero
  Energy initial, next-to-last, final = 
      14586.1619941054   5735.76958189661   5735.76958189661
  Force two-norm initial, final = 3630.27 55.177784
  Force max component initial, final = 180.75482 2.4957343
  Final line search alpha, max atom move = 2.4896507e-12 6.2135066e-12
  Iterations, force evaluations = 103 266

MPI task timing breakdown:
Section |  min time  |  avg time  |  max time  |%varavg| %total
---------------------------------------------------------------
Pair    | 0.5136     | 0.62578    | 0.73248    |   7.6 | 62.51
Bond    | 0.14015    | 0.16051    | 0.18249    |   2.6 | 16.03
Kspace  | 0.055189   | 0.16906    | 0.30009    |  16.5 | 16.89
Neigh   | 0.0051115  | 0.0051285  | 0.0051436  |   0.0 |  0.51
Comm    | 0.032907   | 0.033848   | 0.034966   |   0.4 |  3.38
Output  | 0          | 0          | 0          |   0.0 |  0.00
Modify  | 0          | 0          | 0          |   0.0 |  0.00
Other   |            | 0.006717   |            |       |  0.67

Nlocal:        208.333 ave         227 max         186 min
Histogram: 3 1 1 1 2 4 3 6 2 1
Nghost:        4398.96 ave        4461 max        4364 min
Histogram: 3 3 4 6 1 3 3 0 0 1
Neighs:        63809.4 ave       72884 max       53307 min
Histogram: 2 1 2 3 2 2 4 5 0 3

Total # of neighbors = 1531426
Ave neighs/atom = 306.2852
Ave special neighs/atom = 5.8564
Neighbor list builds = 2
Dangerous builds = 0
# ------------------------------- Run Section -------------------------------
#

timestep 0.25
neighbor        2.0 bin
neigh_modify    delay 0 every 1 check yes

thermo_style custom step temp pe evdwl ecoul ebond eangle edihed eimp density vol
thermo 20000

variable        Rho equal density
variable        Temp equal temp
variable        Volume equal vol
fix             fDENS all ave/time 100 100 300000 v_Temp v_Rho v_Volume file temp_vs_density.txt
fix def1 all print 100 "${Temp} ${Rho} ${Volume} " file press.dat screen no

label           loop
variable        a loop 26
variable        b equal 600-20*($a-1)
variable        b equal 600-20*(1-1)
fix             fMOM all momentum 100 linear 1 1 1 angular
fix             fNPT all npt temp $b $b $(100.0*dt) iso 1 1 $(100.0*dt)
fix             fNPT all npt temp 600 $b $(100.0*dt) iso 1 1 $(100.0*dt)
fix             fNPT all npt temp 600 600 $(100.0*dt) iso 1 1 $(100.0*dt)
fix             fNPT all npt temp 600 600 25 iso 1 1 $(100.0*dt)
fix             fNPT all npt temp 600 600 25 iso 1 1 25
run             1200000
PPPM initialization ...
  using 12-bit tables for long-range coulomb (../kspace.cpp:342)
  G vector (1/distance) = 0.11440119
  grid = 4 4 4
  stencil order = 5
  estimated absolute RMS force accuracy = 0.28915976
  estimated relative force accuracy = 0.00087079602
  using double precision KISS FFT
  3d grid and FFT values/proc = 294 4
Generated 36 of 36 mixed pair_coeff terms from sixthpower/sixthpower mixing rule
WARNING: Inconsistent image flags (../domain.cpp:815)
Per MPI rank memory allocation (min/avg/max) = 15.04 | 15.04 | 15.05 Mbytes
   Step          Temp          PotEng         E_vdwl         E_coul         E_bond        E_angle        E_dihed        E_impro        Density         Volume    
       103   582.90106      5735.7696     -1063.0375      556.00868      691.13066      9573.0532     -2664.4042     -32.099768      1.0193785      59045.154    
     20000   605.96376      14667.61      -305.03757      599.13965      3909.5027      12783.763     -1198.1336      202.71486      0.98441505     61142.258    
     40000   591.54242      14654.741     -298.79042      589.02724      3968.2281      12788.408     -1258.4587      191.40697      0.99633273     60410.902    
     60000   593.97344      14723.023     -369.54965      591.40123      3868.8688      12878.943     -1146.0562      223.99695      1.0070677      59766.945    
     80000   606.80072      14547.438     -417.10257      571.3725       3877.6734      12934.421     -1305.2868      211.50589      1.0082869      59694.673    
    100000   601.75322      14649.596     -437.22044      590.7226       3892.6635      12887.25      -1189.3194      230.63301      1.0191824      59056.516    
    120000   595.42434      14651.823     -386.53048      600.36076      4066.533       12723.796     -1222.8818      195.60739      1.0064324      59804.673    
    140000   596.63887      14563.766     -379.45983      595.08925      4033.2199      12665.192     -1217.9533      192.50732      1.019165       59057.524    
    160000   600.11309      14383.658     -471.97836      589.31441      3862.0804      12809.7       -1304.1864      222.32542      1.0364711      58071.432    
    180000   598.54042      14533.676     -412.81042      594.03425      3872.046       12835.386     -1234.2451      203.80182      1.0100409      59591.012    
    200000   596.49904      14561.553     -393.12833      569.02035      3911.8488      12917.279     -1300.2161      180.76402      1.021048       58948.61     
    220000   600.80455      14607.525     -452.55781      593.40752      3987.5835      12812.809     -1198.4325      189.15679      1.014336       59338.678    
    240000   597.66666      14570.41      -428.74731      582.36459      3815.103       12985.609     -1247.4332      187.73678      1.0206343      58972.504    
    260000   602.14824      14555.106     -439.3977       565.36072      3942.3468      12798.699     -1189.5302      202.2399       1.0288139      58503.643    
    280000   605.20544      14665.62      -304.41237      595.50488      3961.3131      12746.832     -1203.5806      193.92651      1.0107677      59548.164    
    300000   595.38374      14470.092     -438.21945      581.09027      4059.4798      12749.043     -1336.0305      179.5753       1.0221498      58885.069    
    320000   591.05813      14658.983     -410.2009       557.63667      4069.2915      12736.91      -1167.6449      196.79247      1.0349192      58158.512    
    340000   603.41434      14763.563     -445.06317      604.19435      4000.4397      12978.79      -1252.4258      201.8067       1.0202814      58992.899    
    360000   604.71417      14691.034     -445.25243      579.54368      4095.8851      12780.716     -1192.9064      198.02437      1.0247752      58734.207    
    380000   595.18599      14705.991     -447.95963      564.14215      3964.2448      13020.849     -1270.3581      198.82152      1.0309883      58380.256    
    400000   598.69818      14546.9       -466.55767      548.27569      3931.6571      12780.887     -1126.0128      202.79495      1.0288421      58502.039    
    420000   609.06756      14807.448     -437.38491      576.648        4055.8686      13072.805     -1330.7361      194.42485      1.0235113      58806.739    
    440000   595.1098       14660.366     -408.99422      611.69942      3921.0426      12937.161     -1297.9575      221.22021      1.027767       58563.231    
    460000   596.92821      14570.403     -503.07965      634.30854      3867.516       12848.82      -1141.5021      188.61697      1.0276645      58569.076    
    480000   606.84239      14502.677     -469.19009      557.64008      4059.5791      12660.371     -1178.1879      196.1266       1.0317164      58339.052    
    500000   591.70266      14796.648     -374.24483      559.07877      4027.581       12891.451     -1212.4136      230.09752      1.0119618      59477.894    
    520000   598.79329      14481.242     -476.57822      563.02615      3924.5075      12856.932     -1268.4657      207.28913      1.0280029      58549.794    
    540000   597.21011      14740.363     -444.61784      568.42719      3952.9802      12872.672     -1095.4037      211.63902      1.0251131      58714.846    
    560000   607.77262      14449.384     -425.73618      562.40939      3959.6888      12859.974     -1374.4515      192.49651      1.0357689      58110.801    
    580000   598.36687      14625.942     -338.20445      586.65555      4060.9678      12753.639     -1306.3489      194.42255      1.0123183      59456.953    
    600000   592.0658       14471.645     -377.95426      581.97427      3882.2326      12797.205     -1290.5402      203.8194       1.0161258      59234.16     
    620000   605.23069      14624.049     -332.17356      546.32369      3978.3316      12757.208     -1199.4023      199.27791      1.0116293      59497.444    
    640000   589.78813      14584.266     -435.99945      552.47899      4031.5974      12784.073     -1235.5453      213.19069      1.0301606      58427.159    
    660000   597.60235      14586.855     -411.81159      596.09502      4036.055       12759.73      -1275.9391      207.44354      1.0292848      58476.877    
    680000   593.07256      14517.916     -481.06167      577.88913      3886.6564      12830.879     -1177.8036      205.33507      1.0203945      58986.363    
    700000   605.81012      14611.517     -372.97807      576.98207      4001.512       12813.614     -1285.9009      202.62291      1.024461       58752.223    
    720000   605.98151      14726.469     -386.20388      568.99814      4018.1688      12898.899     -1261.9648      213.20411      1.0146122      59322.527    
    740000   590.28331      14819.364     -399.89247      567.95779      4047.4307      12862.175     -1165.5066      231.47808      1.0227252      58851.938    
    760000   597.4548       14734.394     -412.86054      565.37096      3857.1775      12853.002     -1023.8987      217.32363      1.0085831      59677.146    
    780000   596.37586      14478.372     -353.91656      571.76214      3949.9995      12682.865     -1254.7485      205.7449       1.0169548      59185.871    
    800000   588.83732      14682.564     -411.965        588.03691      3972.094       12800.301     -1150.3035      208.99387      1.0210264      58949.854    
    820000   595.40738      14680.284     -371.24573      563.91037      4046.0412      12765.698     -1210.6095      211.47876      1.0126225      59439.089    
    840000   606.56261      14553.462     -412.37738      572.98124      3930.5335      12825.777     -1227.63        188.94033      1.0255018      58692.592    
    860000   595.8357       14621.671     -402.54352      607.6347       3904.1323      12993.615     -1353.6399      196.73996      1.0142617      59343.023    
    880000   600.82468      14419.978     -418.92513      585.10892      3842.7327      12875.197     -1340.4471      200.05218      1.015836       59251.062    
    900000   602.22186      14515.421     -455.72306      592.91568      3970.8469      12906.943     -1368.001       192.87808      1.0214887      58923.177    
    920000   597.11502      14638.933     -450.23084      588.1178       4028.9101      12772.504     -1183.4916      207.09566      1.0344565      58184.525    
    940000   596.34159      14548.84      -455.27962      541.10763      3946.2321      12804.139     -1170.4081      206.8852       1.033874       58217.307    
    960000   605.15204      14850.727     -363.41988      574.70465      3973.0913      12898.988     -1131.4407      222.82407      1.0137175      59374.885    
    980000   603.22836      14481.679     -397.04136      593.25805      3865.8506      12756.273     -1197.7163      185.61862      1.0208342      58960.952    
   1000000   608.92419      14609.733     -409.00248      578.16516      3915.4954      12885.465     -1220.2038      184.0282       1.0207273      58967.128    
   1020000   604.42403      14675.434     -431.75408      568.8351       4012.4118      12844.786     -1229.8401      235.91896      1.0306985      58396.671    
   1040000   597.63952      14486.735     -459.76793      541.21523      3963.9         12995.117     -1416.9552      188.19785      1.0276457      58570.143    
   1060000   606.40991      14618.419     -460.49235      572.41086      3971.5493      12885.349     -1222.0904      195.37552      1.0271089      58600.755    
   1080000   596.01749      14497.768     -405.70552      569.71858      3907.9791      12808.031     -1245.5163      187.29882      1.022842       58845.218    
   1100000   601.28989      14550.636     -442.23694      567.65298      3879.0681      12792.174     -1133.1129      212.36766      1.0221745      58883.644    
   1120000   613.38351      14578.971     -525.00989      553.10256      4004.2119      12879.209     -1204.5753      195.51044      1.0445228      57623.785    
   1140000   599.73453      14631.723     -549.04517      541.61621      3971.8286      12836.688     -1049.2312      204.3047       1.0386055      57952.089    
   1160000   603.10168      14751.596     -485.49846      569.5062       4075.0867      12802.365     -1101.1193      215.61008      1.0215883      58917.434    
   1180000   598.6745       14777.576     -373.36098      584.58026      3967.7599      12847.097     -1128.5156      204.4701       1.0284819      58522.525    
   1200000   605.24938      14327.738     -488.72968      586.13096      3879.7733      12712.475     -1238.363       201.91589      1.0314356      58354.934    
   1200103   599.601        14354.612     -446.77199      589.48453      3771.1552      12841.84      -1271.1386      195.19502      1.0314671      58353.152    
Loop time of 3918.85 on 24 procs for 1200000 steps with 5000 atoms

Performance: 6.614 ns/day, 3.629 hours/ns, 306.212 timesteps/s, 1.531 Matom-step/s
99.5% CPU use with 24 MPI tasks x no OpenMP threads

MPI task timing breakdown:
Section |  min time  |  avg time  |  max time  |%varavg| %total
---------------------------------------------------------------
Pair    | 1755.7     | 1990.4     | 2413.2     | 358.5 | 50.79
Bond    | 619.82     | 674.88     | 767.07     | 136.0 | 17.22
Kspace  | 503.1      | 1019       | 1303.2     | 590.9 | 26.00
Neigh   | 56.692     | 56.828     | 56.957     |   1.5 |  1.45
Comm    | 125.59     | 129.99     | 133.84     |  21.7 |  3.32
Output  | 0.0035136  | 0.0038803  | 0.011755   |   2.6 |  0.00
Modify  | 32.938     | 35.078     | 36.378     |  18.5 |  0.90
Other   |            | 12.65      |            |       |  0.32

Nlocal:        208.333 ave         232 max         175 min
Histogram: 3 1 0 1 4 1 5 2 3 4
Nghost:        4438.88 ave        4471 max        4394 min
Histogram: 1 0 2 1 4 5 3 3 3 2
Neighs:        64678.7 ave       76959 max       49845 min
Histogram: 2 1 2 1 5 3 2 2 3 3

Total # of neighbors = 1552288
Ave neighs/atom = 310.4576
Ave special neighs/atom = 5.8564
Neighbor list builds = 19031
Dangerous builds = 0
unfix           fNPT
unfix           fMOM
next            a
jump            SELF loop
variable        a loop 26
variable        b equal 600-20*($a-1)
variable        b equal 600-20*(2-1)
fix             fMOM all momentum 100 linear 1 1 1 angular
fix             fNPT all npt temp $b $b $(100.0*dt) iso 1 1 $(100.0*dt)
fix             fNPT all npt temp 580 $b $(100.0*dt) iso 1 1 $(100.0*dt)
fix             fNPT all npt temp 580 580 $(100.0*dt) iso 1 1 $(100.0*dt)
fix             fNPT all npt temp 580 580 25 iso 1 1 $(100.0*dt)
fix             fNPT all npt temp 580 580 25 iso 1 1 25
run             1200000
PPPM initialization ...
  using 12-bit tables for long-range coulomb (../kspace.cpp:342)
  G vector (1/distance) = 0.1147302
  grid = 4 4 4
  stencil order = 5
  estimated absolute RMS force accuracy = 0.2886847
  estimated relative force accuracy = 0.0008693654
  using double precision KISS FFT
  3d grid and FFT values/proc = 294 4
Generated 36 of 36 mixed pair_coeff terms from sixthpower/sixthpower mixing rule
WARNING: Inconsistent image flags (../domain.cpp:815)
Per MPI rank memory allocation (min/avg/max) = 15.04 | 15.04 | 15.05 Mbytes
   Step          Temp          PotEng         E_vdwl         E_coul         E_bond        E_angle        E_dihed        E_impro        Density         Volume    
   1200103   599.601        14354.755     -446.77199      593.43096      3771.1552      12841.84      -1271.1386      195.19502      1.0314671      58353.152    
   1220000   576.34801      14306.908     -406.54024      592.27661      3914.3415      12661.883     -1322.3626      195.93041      1.0145317      59327.233    
   1240000   581.99116      14250.284     -452.566        582.64927      3845.372       12743.449     -1319.5932      180.11382      1.0471471      57479.374    
   1260000   573.91912      13957.146     -504.1714       550.65741      3819.3234      12619.804     -1385.8973      184.83141      1.0347366      58168.772    
   1280000   580.61226      14275.824     -488.78836      577.63513      3820.0536      12765.357     -1261.5539      191.81275      1.0363819      58076.431    
   1300000   576.56109      14176.875     -518.42333      569.74449      3836.8459      12700.238     -1268.7613      185.15952      1.028092       58544.722    
   1320000   580.99403      14168.976     -477.58115      565.99196      3820.2546      12683.212     -1297.7751      202.89149      1.0227235      58852.036    
   1340000   571.59517      14260.214     -528.16371      586.93367      3821.721       12740.806     -1245.1984      212.48431      1.0201499      59000.503    
   1360000   585.37443      14159.258     -444.01679      577.96913      3816.8144      12635.779     -1294.0549      193.97612      1.0472516      57473.636    
   1380000   576.49         14242.52      -402.91742      573.42346      3794.4388      12692.521     -1273.4003      187.72921      1.0282803      58534        
   1400000   583.88484      14118.133     -528.63194      568.45593      3746.6136      12641.336     -1181.3702      198.07615      1.0272361      58593.501    
   1420000   578.29155      14130.353     -498.66099      561.05512      3773.3224      12658.768     -1235.772       199.722        1.04202        57762.189    
   1440000   581.93658      14313.937     -486.17693      585.54224      3858.2239      12692.087     -1197.5152      190.50045      1.0286111      58515.173    
   1460000   587.7681       14306.392     -371.59726      545.53168      3878.9827      12636.217     -1269.6192      214.82156      1.0101544      59584.316    
   1480000   591.05086      14245.716     -490.32813      557.60411      3929.9815      12715.881     -1325.5836      186.37851      1.0371088      58035.722    
   1500000   574.0578       14217.724     -414.54319      554.97091      3870.0186      12549.009     -1194.3922      180.72061      1.0339244      58214.467    
   1520000   573.19598      14167.568     -500.68547      582.57446      3830.1118      12715.784     -1318.1411      185.94004      1.0243473      58758.745    
   1540000   579.75656      14352.645     -409.33268      591.53282      3781.9591      12725.863     -1210.3876      201.21272      1.0248856      58727.88     
   1560000   590.98622      14234.34      -417.49685      575.67751      3821.1771      12708.732     -1313.2976      187.12801      1.0235197      58806.252    
   1580000   571.95304      14142.951     -447.49974      567.291        3805.591       12626.052     -1262.3014      181.19472      1.0216431      58914.272    
   1600000   594.87338      14212.14      -417.55317      585.1863       3881.8982      12733.801     -1423.7696      181.90224      1.0280013      58549.887    
   1620000   581.87461      14337.464     -499.68283      580.73954      3831.2624      12747.6       -1195.9718      202.19892      1.0319984      58323.111    
   1640000   588.17095      14204.672     -501.53055      587.67822      3830.6354      12673.716     -1247.8943      189.85187      1.0414622      57793.13     
   1660000   581.11105      14051.097     -461.73689      553.33852      3711.397       12678.854     -1269.6255      166.95427      1.0365112      58069.182    
   1680000   584.78895      14377.27      -376.81167      556.51014      3886.1639      12739.907     -1283.612       183.70232      1.0283571      58529.631    
   1700000   580.57691      14068.051     -354.96497      540.62838      3704.9797      12610.263     -1292.8051      186.22737      1.0245086      58749.489    
   1720000   588.56845      14298.019     -420.84418      602.09056      3748.6636      12733.818     -1239.8154      201.54645      1.0323069      58305.681    
   1740000   565.66179      14431.201     -472.31044      577.4972       3865.0704      12926.789     -1331.0261      193.30092      1.0351335      58146.471    
   1760000   576.45063      14324.871     -519.65254      591.24624      3825.876       12783.388     -1231.1538      200.91457      1.0290991      58487.426    
   1780000   587.87395      14204.309     -517.18177      563.24604      3875.2615      12750.258     -1337.0841      198.15421      1.030592       58402.703    
   1800000   588.81255      14183.997     -539.82221      567.35171      3778.4098      12798.49      -1297.2278      204.75679      1.0368744      58048.842    
   1820000   577.82096      14353.532     -442.88806      575.66656      3953.4599      12690.057     -1285.7631      191.46083      1.0304599      58410.188    
   1840000   578.11892      14322.904     -394.59094      591.62041      3943.4533      12623.802     -1328.2245      214.31038      1.0086351      59674.067    
   1860000   575.19948      14303.107     -407.49436      600.83801      3894.988       12683.89      -1329.6748      187.42617      1.0218232      58903.886    
   1880000   586.57707      14278.932     -477.86948      559.19458      3763.3232      12773.956     -1215.041       203.72624      1.0209213      58955.923    
   1900000   573.90722      14304.698     -505.00284      593.39151      3770.502       12644.439     -1064.0829      194.15664      1.0203811      58987.138    
   1920000   592.20281      14238.314     -464.3516       596.82219      3816.4605      12704.053     -1271.7752      184.83222      1.0246246      58742.837    
   1940000   575.42862      14227.28      -489.89917      579.16692      3757.2839      12679.016     -1165.0979      194.65465      1.0326174      58288.153    
   1960000   564.8395       14410.951     -522.97973      587.31509      3886.5072      12752.823     -1171.596       207.17523      1.0356963      58114.875    
   1980000   591.08742      14271.792     -473.46833      566.61744      3827.3603      12767.395     -1272.2817      184.99302      1.024536       58747.918    
   2000000   576.50161      14299.63      -483.01664      586.8244       3972.6746      12658.262     -1293.9607      186.61613      1.0405621      57843.122    
   2020000   569.23467      14405.412     -455.94088      561.68501      3932.9076      12632.764     -1131.5383      193.74726      1.0439511      57655.344    
   2040000   584.30692      14104.872     -522.01598      578.41019      3829.9318      12655.279     -1301.4114      193.43552      1.0401902      57863.801    
   2060000   575.38172      14222.54      -579.15159      533.45396      3883.512       12745.036     -1239.3151      207.1497       1.0315446      58348.771    
   2080000   577.77862      14115.022     -582.56313      558.20282      3860.5265      12670.044     -1235.9945      172.70058      1.0431901      57697.401    
   2100000   572.24124      14150.283     -530.99037      569.58509      3835.0008      12584.353     -1190.4754      211.10652      1.0375559      58010.712    
   2120000   586.78504      14130.63      -464.34939      566.1236       3843.4908      12641.583     -1316.9983      189.63012      1.0370974      58036.362    
   2140000   568.00929      14180.667     -563.57512      609.58471      3832.3203      12644.335     -1229.3666      215.4963       1.0510201      57267.56     
   2160000   566.10927      14205.372     -566.7001       548.13999      3828.3899      12675.03      -1161.3006      209.46475      1.0379901      57986.448    
   2180000   582.80445      14149.694     -508.17478      532.92891      3823.9361      12658.166     -1219.6388      191.24039      1.048056       57429.527    
   2200000   584.71584      13976.74      -566.65136      568.20146      3816.5899      12749.532     -1453.9205      190.14843      1.045655       57561.393    
   2220000   581.5818       14264.772     -483.58794      530.60465      3766.4486      12809.419     -1234.8231      203.97551      1.0334897      58238.956    
   2240000   580.60684      14145.219     -500.86075      559.054        3875.9647      12557.939     -1202.5131      184.46307      1.0341599      58201.209    
   2260000   567.03628      14055.594     -549.69046      568.73878      3776.2926      12712.249     -1308.1874      184.81773      1.0451072      57591.566    
   2280000   572.0934       14224.028     -546.9929       567.31102      3909.7952      12733.083     -1310.6563      199.82478      1.0354055      58131.196    
   2300000   590.14182      14429.465     -487.34497      583.25574      4011.1581      12711.446     -1239.7372      179.37942      1.0213919      58928.759    
   2320000   581.8104       14193.856     -480.58206      586.97325      3868.4392      12653.228     -1294.6526      188.74352      1.0347554      58167.718    
   2340000   575.43307      14107.956     -527.41473      593.45765      3829.8792      12639.802     -1287.8603      187.05641      1.0314251      58355.529    
   2360000   579.1843       14247.943     -517.52049      557.85501      3815.1248      12800.5       -1275.3637      195.74201      1.016225       59228.381    
   2380000   579.90006      14163.589     -457.30975      608.04534      3744.625       12656.185     -1238.0333      177.42644      1.0274242      58582.77     
   2400000   571.69778      14079.604     -550.02263      568.6196       3735.855       12709.133     -1254.3479      198.33548      1.0408531      57826.95     
   2400103   581.7987       14049.938     -511.73075      572.52485      3729.8198      12736.635     -1341.0318      191.64449      1.0358422      58106.686    
Loop time of 3942.94 on 24 procs for 1200000 steps with 5000 atoms

Performance: 6.574 ns/day, 3.651 hours/ns, 304.342 timesteps/s, 1.522 Matom-step/s
99.5% CPU use with 24 MPI tasks x no OpenMP threads

MPI task timing breakdown:
Section |  min time  |  avg time  |  max time  |%varavg| %total
---------------------------------------------------------------
Pair    | 1789.6     | 2024.9     | 2445.2     | 355.9 | 51.35
Bond    | 628.81     | 673.95     | 761.59     | 127.4 | 17.09
Kspace  | 502.57     | 1011.5     | 1278.4     | 584.9 | 25.65
Neigh   | 54.493     | 54.615     | 54.742     |   1.3 |  1.39
Comm    | 126.03     | 130.22     | 134.52     |  21.7 |  3.30
Output  | 0.0061875  | 0.0065333  | 0.013509   |   1.8 |  0.00
Modify  | 32.884     | 35.068     | 36.512     |  18.8 |  0.89
Other   |            | 12.65      |            |       |  0.32

Nlocal:        208.333 ave         230 max         178 min
Histogram: 1 1 2 4 2 1 1 6 4 2
Nghost:        4444.12 ave        4480 max        4387 min
Histogram: 1 1 0 1 2 3 10 1 2 3
Neighs:          64811 ave       73448 max       51708 min
Histogram: 1 0 4 2 2 1 3 3 4 4

Total # of neighbors = 1555463
Ave neighs/atom = 311.0926
Ave special neighs/atom = 5.8564
Neighbor list builds = 18289
Dangerous builds = 0
unfix           fNPT
unfix           fMOM
next            a
jump            SELF loop
variable        a loop 26
variable        b equal 600-20*($a-1)
variable        b equal 600-20*(3-1)
fix             fMOM all momentum 100 linear 1 1 1 angular
fix             fNPT all npt temp $b $b $(100.0*dt) iso 1 1 $(100.0*dt)
fix             fNPT all npt temp 560 $b $(100.0*dt) iso 1 1 $(100.0*dt)
fix             fNPT all npt temp 560 560 $(100.0*dt) iso 1 1 $(100.0*dt)
fix             fNPT all npt temp 560 560 25 iso 1 1 $(100.0*dt)
fix             fNPT all npt temp 560 560 25 iso 1 1 25
run             1200000
PPPM initialization ...
  using 12-bit tables for long-range coulomb (../kspace.cpp:342)
  G vector (1/distance) = 0.11484845
  grid = 4 4 4
  stencil order = 5
  estimated absolute RMS force accuracy = 0.28851199
  estimated relative force accuracy = 0.00086884529
  using double precision KISS FFT
  3d grid and FFT values/proc = 294 4
Generated 36 of 36 mixed pair_coeff terms from sixthpower/sixthpower mixing rule
WARNING: Inconsistent image flags (../domain.cpp:815)
Per MPI rank memory allocation (min/avg/max) = 15.04 | 15.04 | 15.05 Mbytes
   Step          Temp          PotEng         E_vdwl         E_coul         E_bond        E_angle        E_dihed        E_impro        Density         Volume    
   2400103   581.7987       14050.004     -511.73075      573.95594      3729.8198      12736.635     -1341.0318      191.64449      1.0358422      58106.686    
   2420000   561.23465      13946.551     -553.43339      585.21423      3691.2344      12620.841     -1245.503       177.32651      1.0521293      57207.186    
   2440000   559.26036      13874.633     -563.63208      560.67881      3636.0529      12611.219     -1230.6529      191.21376      1.0483472      57413.574    
   2460000   570.22633      13911.428     -465.38763      558.23929      3728.9323      12533.353     -1308.025       193.7547       1.0418206      57773.247    
   2480000   561.28132      13962.461     -514.55297      572.28238      3723.8659      12593.46      -1283.0488      200.38721      1.0425136      57734.844    
   2500000   565.40723      13950.286     -529.45111      574.34636      3698.5766      12585.173     -1231.1281      182.34334      1.0362084      58086.155    
   2520000   555.05387      13987.895     -643.45735      573.13027      3856.0036      12671.943     -1326.6671      186.93883      1.0394097      57907.25     
   2540000   560.94565      13720.535     -528.42518      553.51731      3665.8189      12498.758     -1332.2881      193.38594      1.0356578      58117.035    
   2560000   559.00865      13839.997     -559.66988      568.3939       3722.9935      12523.729     -1268.3217      180.56828      1.0472589      57473.236    
   2580000   556.83143      13911.014     -481.53174      586.39102      3674.5696      12636.31      -1361.4919      185.55398      1.0490274      57376.347    
   2600000   569.24348      13774.716     -465.16553      581.77763      3702.9628      12506.938     -1400.8854      178.13448      1.0535059      57132.439    
   2620000   555.79129      13858.626     -554.29568      586.65391      3759.194       12652.044     -1446.741       192.09304      1.0454792      57571.072    
   2640000   558.23489      13980.637     -559.41682      578.47603      3886.6119      12583.065     -1355.9376      177.90659      1.0352455      58140.177    
   2660000   556.98493      13874.401     -481.6701       574.31932      3709.8426      12526.39      -1318.3053      193.85296      1.0460684      57538.647    
   2680000   571.30435      14011.289     -550.59441      560.02354      3762.9         12578.229     -1208.8027      199.10176      1.0274484      58581.395    
   2700000   563.18614      13951.28      -453.38365      583.77055      3713.5918      12634.596     -1376.5647      178.41495      1.0364382      58073.275    
   2720000   556.70498      13831.343     -548.58846      552.99724      3797.045       12516.081     -1346.44        189.6129       1.0393134      57912.614    
   2740000   566.72213      13912.033     -517.16584      569.33348      3677.237       12681.062     -1352.698       183.72166      1.0539219      57109.887    
   2760000   568.04492      13918.261     -568.141        584.92467      3702.1169      12578.56      -1252.1948      202.48194      1.0493448      57358.989    
   2780000   544.29675      13912.185     -524.41702      584.9469       3795.8664      12676.651     -1462.3834      170.17857      1.0514904      57241.95     
   2800000   562.96494      13944.156     -500.66597      577.55706      3726.899       12589.331     -1314.3264      195.64538      1.0415907      57786        
   2820000   556.56897      13902.952     -511.35214      575.06869      3731.014       12580.323     -1325.4581      183.62931      1.0449647      57599.419    
   2840000   554.16757      13994.496     -516.98483      621.38234      3736.6602      12647.151     -1357.8555      193.17662      1.0496405      57342.831    
   2860000   564.31598      14012.725     -394.1249       549.70562      3813.4374      12555.919     -1373.2901      190.9063       1.0535739      57128.749    
   2880000   563.63109      13929.279     -579.12636      561.26587      3747.4739      12635.68      -1285.7657      180.17496      1.0409537      57821.362    
   2900000   559.1266       13785.878     -564.82914      556.33004      3759.2942      12461.854     -1279.8872      181.98812      1.0400845      57869.68     
   2920000   564.66878      13834.329     -460.81879      601.95525      3723.6882      12467.248     -1336.0993      167.2942       1.0435942      57675.062    
   2940000   550.65732      13876.452     -476.54896      581.71828      3659.2142      12549.583     -1288.0082      179.80966      1.0364145      58074.601    
   2960000   568.13432      13876.099     -536.56837      547.99898      3760.9952      12569.267     -1319.9035      182.4383       1.0303794      58414.756    
   2980000   557.44346      14016.277     -507.71214      588.10265      3781.3262      12614.037     -1314.8163      184.4343       1.0361521      58089.307    
   3000000   562.88292      13866.485     -523.859        601.19027      3646.9796      12556.366     -1261.4731      176.71562      1.0439241      57656.834    
   3020000   569.33463      13934.059     -471.25183      565.19045      3672.2045      12687.577     -1385.4328      195.15073      1.0366587      58060.919    
   3040000   552.94484      13814.338     -579.33211      590.25752      3709.6519      12477.097     -1242.2396      186.9209       1.0423745      57742.547    
   3060000   557.51817      13883.915     -546.27781      574.95742      3871.7524      12431.085     -1310.5646      192.27745      1.0573489      56924.786    
   3080000   551.989        13582.895     -529.074        536.58539      3641.5676      12427.999     -1325.0589      160.32178      1.0525266      57185.595    
   3100000   560.8097       13899.269     -459.04633      573.23852      3758.2076      12588.064     -1408.7969      177.62896      1.0482721      57417.689    
   3120000   561.42506      13802.465     -628.22677      572.11712      3758.8424      12546.338     -1292.9782      175.82883      1.0494534      57353.054    
   3140000   555.14114      13690.869     -594.20016      544.48812      3742.1635      12553.787     -1417.5516      192.13501      1.0567931      56954.722    
   3160000   568.45466      13922.841     -585.69478      539.04862      3763.5797      12594.51      -1239.2272      180.89006      1.0577703      56902.105    
   3180000   566.5929       13820.911     -532.81069      571.20129      3665.1793      12566.299     -1317.9371      198.18474      1.0448247      57607.138    
   3200000   557.06582      13819.224     -572.66537      558.52963      3780.4052      12577.201     -1369.7372      175.52392      1.0488549      57385.78     
   3220000   561.39338      13885.659     -585.65905      605.46862      3866.8308      12523.266     -1378.8907      183.41182      1.0519501      57216.935    
   3240000   563.20032      13868.964     -537.67211      594.25392      3717.6646      12519.37      -1275.0949      181.12655      1.0463325      57524.122    
   3260000   557.16845      13801.82      -505.66516      541.04069      3802.2887      12512.109     -1393.6981      175.31332      1.0419359      57766.853    
   3280000   556.91305      13837.332     -607.9347       587.95814      3697.5474      12637.938     -1337.3544      189.07515      1.0458976      57548.044    
   3300000   571.11538      13839.973     -549.01947      568.90919      3659.4666      12576.46      -1296.7209      209.9926       1.0368385      58050.851    
   3320000   560.45312      13805.97      -500.14674      560.80262      3682.3629      12456.954     -1253.4939      189.20283      1.0523034      57197.726    
   3340000   560.71453      13816.012     -540.00317      572.04155      3727.081       12595.989     -1387.1293      177.27142      1.046855       57495.413    
   3360000   563.02389      13763.731     -573.39016      589.73717      3751.9689      12537.483     -1407.6497      194.44054      1.0474929      57460.396    
   3380000   559.82655      13939.595     -431.18407      575.22731      3748.679       12580.155     -1400.3366      196.60279      1.018639       59088.018    
   3400000   564.9861       13913.203     -548.56611      543.49524      3812.3086      12592.936     -1337.1655      179.54027      1.0394884      57902.868    
   3420000   562.1417       13952.928     -509.63887      596.44109      3790.6275      12489.722     -1270.6857      186.71993      1.036873       58048.919    
   3440000   555.86173      13897.502     -518.69901      574.70287      3802.7586      12433.262     -1262.7305      196.32033      1.0568055      56954.056    
   3460000   562.71014      13728.634     -418.39338      603.97013      3677.4316      12403.633     -1390.0594      180.9734       1.0276096      58572.206    
   3480000   553.57642      13805.869     -494.99736      570.1448       3686.0257      12537.549     -1359.946       195.60591      1.0415652      57787.415    
   3500000   567.3841       13972.264     -533.97798      560.38668      3782.6078      12563.988     -1273.4582      200.62653      1.0418418      57772.07     
   3520000   560.04329      13793.979     -600.005        545.75944      3762.4686      12492.988     -1265.9808      189.70932      1.0449496      57600.249    
   3540000   558.57657      13965.621     -547.30725      542.72168      3736.6956      12738.913     -1361.3946      185.95805      1.0578088      56900.034    
   3560000   553.92776      13900.181     -561.15035      591.65196      3695.1988      12612.264     -1298.6971      189.81112      1.0419439      57766.412    
   3580000   551.91369      13743.76      -532.04945      536.21604      3671.0252      12654.756     -1436.8011      179.39953      1.0404715      57848.158    
   3600000   552.56615      13886.952     -568.25547      581.72422      3798.5282      12500.97      -1291.5836      194.05757      1.0435834      57675.659    
   3600103   563.50962      13732.739     -515.11177      575.41709      3622.8693      12592.06      -1398.7223      184.71259      1.041642       57783.152    
Loop time of 3922.42 on 24 procs for 1200000 steps with 5000 atoms

Performance: 6.608 ns/day, 3.632 hours/ns, 305.933 timesteps/s, 1.530 Matom-step/s
99.5% CPU use with 24 MPI tasks x no OpenMP threads

MPI task timing breakdown:
Section |  min time  |  avg time  |  max time  |%varavg| %total
---------------------------------------------------------------
Pair    | 1803.3     | 2056.9     | 2458.4     | 341.4 | 52.44
Bond    | 633.57     | 673.63     | 739.02     | 104.2 | 17.17
Kspace  | 492.76     | 960.99     | 1248.9     | 559.1 | 24.50
Neigh   | 52.003     | 52.131     | 52.27      |   1.5 |  1.33
Comm    | 126.62     | 130.68     | 135.11     |  22.5 |  3.33
Output  | 0.0038477  | 0.0041977  | 0.011694   |   2.4 |  0.00
Modify  | 33.248     | 35.422     | 36.702     |  19.2 |  0.90
Other   |            | 12.66      |            |       |  0.32

Nlocal:        208.333 ave         229 max         187 min
Histogram: 1 1 4 2 3 5 4 0 3 1
Nghost:        4435.17 ave        4494 max        4369 min
Histogram: 2 2 2 3 2 0 5 4 2 2
Neighs:        65194.7 ave       77758 max       54932 min
Histogram: 1 2 5 5 2 3 2 1 2 1

Total # of neighbors = 1564673
Ave neighs/atom = 312.9346
Ave special neighs/atom = 5.8564
Neighbor list builds = 17676
Dangerous builds = 0
unfix           fNPT
unfix           fMOM
next            a
jump            SELF loop
variable        a loop 26
variable        b equal 600-20*($a-1)
variable        b equal 600-20*(4-1)
fix             fMOM all momentum 100 linear 1 1 1 angular
fix             fNPT all npt temp $b $b $(100.0*dt) iso 1 1 $(100.0*dt)
fix             fNPT all npt temp 540 $b $(100.0*dt) iso 1 1 $(100.0*dt)
fix             fNPT all npt temp 540 540 $(100.0*dt) iso 1 1 $(100.0*dt)
fix             fNPT all npt temp 540 540 25 iso 1 1 $(100.0*dt)
fix             fNPT all npt temp 540 540 25 iso 1 1 25
run             1200000
PPPM initialization ...
  using 12-bit tables for long-range coulomb (../kspace.cpp:342)
  G vector (1/distance) = 0.11500454
  grid = 4 4 4
  stencil order = 5
  estimated absolute RMS force accuracy = 0.28828243
  estimated relative force accuracy = 0.00086815397
  using double precision KISS FFT
  3d grid and FFT values/proc = 294 4
Generated 36 of 36 mixed pair_coeff terms from sixthpower/sixthpower mixing rule
WARNING: Inconsistent image flags (../domain.cpp:815)
Per MPI rank memory allocation (min/avg/max) = 15.04 | 15.04 | 15.05 Mbytes
   Step          Temp          PotEng         E_vdwl         E_coul         E_bond        E_angle        E_dihed        E_impro        Density         Volume    
   3600103   563.50962      13732.834     -515.11177      577.31176      3622.8693      12592.06      -1398.7223      184.71259      1.041642       57783.152    
   3620000   537.54999      13310.667     -558.75235      562.52205      3548.3652      12365.256     -1441.7642      166.27512      1.0456083      57563.963    
   3640000   538.61433      13540.656     -588.08778      563.28495      3605.9959      12527.356     -1419.1058      183.01729      1.062566       56645.288    
   3660000   545.46054      13587.071     -543.44352      571.80432      3617.5687      12489.167     -1397.5233      180.95672      1.0535076      57132.342    
   3680000   540.93377      13443.504     -614.68224      570.85008      3628.2977      12479.64      -1454.7694      166.36246      1.0498605      57330.816    
   3700000   532.09014      13634.46      -524.3803       563.60344      3658.0485      12488.354     -1390.9444      170.83235      1.0488669      57385.123    
   3720000   530.46546      13345.464     -578.73744      554.46595      3562.4639      12424.655     -1476.9671      191.91112      1.0500154      57322.357    
   3740000   543.68534      13465.709     -591.92759      564.07628      3633.0037      12370.596     -1355.7735      178.01116      1.0676626      56374.889    
   3760000   539.21295      13434.74      -597.67181      543.02596      3677.3721      12506.022     -1543.7226      181.92292      1.0510517      57265.838    
   3780000   547.88646      13451.368     -515.98817      575.82027      3550.0974      12386.584     -1383.7799      169.88597      1.0325846      58290        
   3800000   543.14843      13473.268     -578.09925      572.69438      3601.3621      12405.18      -1365.0367      168.57178      1.0497702      57335.747    
   3820000   534.35544      13383.119     -607.07574      580.14578      3627.2237      12562.421     -1592.6093      144.94681      1.0567106      56959.171    
   3840000   533.53495      13479.112     -548.4314       575.64869      3609.9388      12386.673     -1388.4191      175.19053      1.0438933      57658.537    
   3860000   536.05582      13491.862     -503.48447      576.20933      3482.7806      12519.642     -1427.6255      175.95867      1.0466481      57506.777    
   3880000   531.65923      13694.926     -638.99802      571.32567      3642.3566      12600.038     -1329.5719      180.16777      1.0338824      58216.833    
   3900000   530.07024      13623.473     -545.24741      564.99102      3614.426       12567.429     -1422.2255      175.50666      1.0455045      57569.678    
   3920000   534.10197      13556.961     -614.67017      557.75049      3676.3977      12445.365     -1336.1459      160.44403      1.0485335      57403.375    
   3940000   540.45869      13506.986     -552.31005      538.93715      3660.9808      12373.865     -1366.9301      184.27516      1.0468135      57497.693    
   3960000   533.26607      13743.344     -494.00424      572.20844      3619.6043      12583.033     -1394.2647      188.5026       1.0387518      57943.925    
   3980000   543.01543      13572.543     -652.71337      577.2259       3666.1418      12573.582     -1449.439       189.51835      1.050601       57290.406    
   4000000   538.66447      13656.898     -590.10604      611.46493      3600.9653      12636.818     -1443.215       172.86112      1.0425497      57732.841    
   4020000   540.32424      13613.883     -585.08286      545.98614      3662.9127      12588.415     -1442.9188      176.09671      1.0499329      57326.861    
   4040000   540.72774      13648.062     -594.92284      577.67582      3662.451       12507         -1351.8645      178.22693      1.0400138      57873.615    
   4060000   538.42392      13612.177     -608.18644      580.97139      3688.8964      12470.101     -1388.252       200.33045      1.0505649      57292.373    
   4080000   538.90684      13472.081     -596.64652      584.1659       3580.2663      12468.853     -1400.6713      167.88053      1.0413995      57796.61     
   4100000   525.46285      13505.588     -527.61847      566.15067      3724.325       12463.836     -1553.5088      163.29206      1.0407253      57834.049    
   4120000   533.99632      13601.622     -525.36423      533.79523      3629.014       12439.203     -1326.9505      182.59021      1.0428404      57716.748    
   4140000   544.28098      13497.393     -548.07188      557.17142      3548.3507      12517.769     -1433.1676      185.75622      1.0485739      57401.16     
   4160000   545.52011      13385.268     -531.86779      549.92619      3523.5444      12395.023     -1394.9823      174.37592      1.0560815      56993.098    
   4180000   541.21445      13512.605     -675.24998      538.05931      3540.2932      12580.78      -1323.5208      183.22399      1.0625058      56648.501    
   4200000   545.40041      13483.522     -521.94725      556.24174      3547.1736      12584.152     -1496.0654      145.4188       1.0504055      57301.067    
   4220000   528.16127      13589.734     -604.9337       538.02889      3667.6276      12604.998     -1455.6781      170.92624      1.0523865      57193.208    
   4240000   541.73253      13493         -645.56666      551.98077      3618.3961      12514.211     -1391.0876      174.79055      1.0504528      57298.487    
   4260000   525.48708      13424.712     -648.643        538.81794      3621.3288      12441.781     -1379.0237      180.68403      1.0696007      56272.734    
   4280000   549.88569      13464.116     -548.96894      526.78793      3580.4971      12460.741     -1399.6981      175.07341      1.0493166      57360.533    
   4300000   546.45785      13397.817     -640.62611      578.48856      3608.7764      12455.124     -1447.7789      174.71148      1.0586075      56857.108    
   4320000   544.60992      13535.441     -577.8131       536.51519      3602.9411      12399.101     -1284.1138      189.99049      1.0546656      57069.612    
   4340000   527.5698       13483.796     -515.0273       586.11315      3582.3558      12500.833     -1514.7459      175.99204      1.043253       57693.923    
   4360000   542.81695      13655.85      -549.70587      592.88445      3645.0726      12549.992     -1440.3009      189.02965      1.0534915      57133.217    
   4380000   530.62772      13538.52      -620.48305      542.19385      3599.6987      12371.325     -1216.7243      193.27786      1.049253       57364.011    
   4400000   539.95039      13396.25      -577.54669      555.61117      3548.1554      12481.698     -1440.0423      159.80963      1.0465912      57509.902    
   4420000   544.19092      13585.174     -560.42357      553.67794      3642.6585      12444.979     -1355.0356      189.07227      1.0540774      57101.46     
   4440000   547.1052       13362.9       -581.15515      539.27791      3540.6793      12304.897     -1306.7722      196.60642      1.0648652      56522.983    
   4460000   547.17611      13589.047     -482.48334      566.587        3651.7804      12476.235     -1470.6017      178.22749      1.0463242      57524.578    
   4480000   539.85376      13537.384     -536.63382      527.93061      3593.1148      12398.655     -1295.1491      180.56279      1.0484378      57408.61     
   4500000   542.737        13507.129     -555.19207      555.35097      3594.1766      12413.105     -1338.2242      169.28376      1.0520889      57209.384    
   4520000   533.45173      13532.306     -589.73876      563.48122      3635.1265      12379.028     -1304.3147      180.90987      1.0457853      57554.222    
   4540000   542.20731      13410.849     -592.26769      535.81802      3453.927       12442.92      -1279.0822      179.72992      1.0498073      57333.723    
   4560000   537.44512      13342.431     -580.69963      556.43238      3700.6905      12373.006     -1549.7539      173.26512      1.0424251      57739.743    
   4580000   542.84416      13627.91      -512.80495      552.94139      3554.1276      12512.036     -1340.6154      192.7212       1.031093       58374.327    
   4600000   545.20121      13567.005     -587.71124      553.72532      3587.7969      12458.944     -1289.276       174.14043      1.0407414      57833.158    
   4620000   536.03737      13659.993     -617.71985      574.28169      3710.0517      12493.482     -1347.4884      177.66678      1.0569383      56946.898    
   4640000   547.49808      13604.1       -581.65116      559.64225      3583.7207      12614.196     -1402.765       161.79054      1.0491102      57371.819    
   4660000   524.57499      13431.898     -614.13182      574.32445      3636.6691      12472.161     -1479.991       175.00578      1.0491047      57372.119    
   4680000   534.01395      13644.598     -531.9431       552.44373      3714.7451      12486.412     -1425.8301      178.49667      1.0490133      57377.114    
   4700000   559.89951      13437.525     -667.051        546.88647      3644.6245      12527.117     -1469.9026      185.43289      1.0498822      57329.632    
   4720000   544.84335      13545.277     -504.3549       574.66942      3633.0809      12285.22      -1277.1393      165.43711      1.0460907      57537.42     
   4740000   543.2258       13579.572     -627.4831       558.47915      3646.7211      12554.437     -1401.7128      180.47048      1.0638359      56577.67     
   4760000   540.82274      13327.404     -617.826        535.66387      3661.5999      12400.288     -1499.8586      179.23617      1.0594078      56814.155    
   4780000   538.6672       13552.216     -571.53277      553.95301      3652.5847      12527.857     -1454.3079      174.504        1.05221        57202.8      
   4800000   538.79118      13443.244     -579.32754      545.15349      3658.8485      12276.345     -1303.6909      177.45927      1.0428926      57713.862    
   4800103   543.69424      13599.349     -557.88468      543.7844       3574.5464      12506.08      -1326.2885      190.47837      1.0469676      57489.229    
Loop time of 3942.51 on 24 procs for 1200000 steps with 5000 atoms

Performance: 6.574 ns/day, 3.650 hours/ns, 304.375 timesteps/s, 1.522 Matom-step/s
99.5% CPU use with 24 MPI tasks x no OpenMP threads

MPI task timing breakdown:
Section |  min time  |  avg time  |  max time  |%varavg| %total
---------------------------------------------------------------
Pair    | 1811.7     | 2064.3     | 2475.9     | 328.4 | 52.36
Bond    | 626.82     | 673.62     | 747.8      | 109.1 | 17.09
Kspace  | 488.34     | 975.39     | 1277.1     | 536.5 | 24.74
Neigh   | 49.898     | 50.068     | 50.243     |   1.9 |  1.27
Comm    | 127.15     | 131.12     | 135.32     |  23.0 |  3.33
Output  | 0.0040241  | 0.0044874  | 0.014632   |   3.2 |  0.00
Modify  | 33.366     | 35.546     | 36.889     |  18.5 |  0.90
Other   |            | 12.46      |            |       |  0.32

Nlocal:        208.333 ave         239 max         187 min
Histogram: 1 3 4 5 4 2 3 0 1 1
Nghost:        4458.46 ave        4516 max        4405 min
Histogram: 1 1 5 3 6 0 3 2 2 1
Neighs:          65683 ave       81246 max       55453 min
Histogram: 4 3 1 4 4 3 2 2 0 1

Total # of neighbors = 1576392
Ave neighs/atom = 315.2784
Ave special neighs/atom = 5.8564
Neighbor list builds = 16905
Dangerous builds = 0
unfix           fNPT
unfix           fMOM
next            a
jump            SELF loop
variable        a loop 26
variable        b equal 600-20*($a-1)
variable        b equal 600-20*(5-1)
fix             fMOM all momentum 100 linear 1 1 1 angular
fix             fNPT all npt temp $b $b $(100.0*dt) iso 1 1 $(100.0*dt)
fix             fNPT all npt temp 520 $b $(100.0*dt) iso 1 1 $(100.0*dt)
fix             fNPT all npt temp 520 520 $(100.0*dt) iso 1 1 $(100.0*dt)
fix             fNPT all npt temp 520 520 25 iso 1 1 $(100.0*dt)
fix             fNPT all npt temp 520 520 25 iso 1 1 25
run             1200000
PPPM initialization ...
  using 12-bit tables for long-range coulomb (../kspace.cpp:342)
  G vector (1/distance) = 0.1151472
  grid = 4 4 4
  stencil order = 5
  estimated absolute RMS force accuracy = 0.28807104
  estimated relative force accuracy = 0.00086751738
  using double precision KISS FFT
  3d grid and FFT values/proc = 294 4
Generated 36 of 36 mixed pair_coeff terms from sixthpower/sixthpower mixing rule
WARNING: Inconsistent image flags (../domain.cpp:815)
Per MPI rank memory allocation (min/avg/max) = 15.04 | 15.04 | 15.05 Mbytes
   Step          Temp          PotEng         E_vdwl         E_coul         E_bond        E_angle        E_dihed        E_impro        Density         Volume    
   4800103   543.69424      13599.464     -557.88468      545.54669      3574.5464      12506.08      -1326.2885      190.47837      1.0469676      57489.229    
   4820000   521.25208      12935.023     -659.99269      578.24133      3481.2441      12219.142     -1511.0345      160.3739       1.054698       57067.86     
   4840000   515.43552      13200.68      -569.55421      569.07303      3495.8932      12267.155     -1421.4336      192.1733       1.057483       56917.565    
   4860000   516.84528      13016.21      -700.81536      550.23386      3464.925       12243.531     -1384.7655      175.28896      1.0612289      56716.658    
   4880000   515.13063      13035.766     -630.69992      575.05504      3462.1117      12292.825     -1488.1393      157.17339      1.0629121      56626.846    
   4900000   522.28008      13013.33      -618.41357      548.07328      3406.3389      12280.95      -1441.0092      170.52595      1.0654683      56490.989    
   4920000   521.92396      13248.088     -638.94326      576.70377      3554.4516      12415.431     -1500.7627      173.02067      1.0682769      56342.469    
   4940000   519.49972      13319.514     -592.73276      534.29285      3510.7556      12373.691     -1347.0004      172.84829      1.0513114      57251.696    
   4960000   529.552        13286.97      -571.47822      569.06406      3558.2618      12338.101     -1459.1798      184.60411      1.049532       57348.759    
   4980000   527.01427      13163.954     -635.97546      561.42782      3489.1231      12351.984     -1430.0763      160.66415      1.0603257      56764.97     
   5000000   512.46735      13155.626     -609.33033      561.02832      3535.6809      12169.237     -1338.5063      171.65462      1.0523292      57196.322    
   5020000   526.18284      13029.227     -661.45646      566.87047      3450.5692      12176.37      -1340.0416      168.58054      1.0638326      56577.847    
   5040000   512.17484      13076.698     -649.3434       572.33906      3515.3077      12229.167     -1421.4603      163.35067      1.0642339      56556.511    
   5060000   515.98218      13084.455     -687.84303      576.76681      3523.7714      12316.045     -1472.9031      161.53989      1.0653789      56495.728    
   5080000   517.22618      13147.57      -624.41577      598.58504      3508.9733      12334.221     -1506.9448      169.49068      1.0524569      57189.38     
   5100000   516.62542      13049.748     -675.89952      547.93522      3527.5849      12312.076     -1493.8338      165.30035      1.0552967      57035.483    
   5120000   514.23591      13224.141     -667.08658      549.31113      3521.5909      12365.563     -1392.3323      180.57914      1.0685234      56329.472    
   5140000   516.63524      13177.807     -699.98441      583.0427       3526.3978      12359.293     -1447.1998      190.09984      1.0597396      56796.364    
   5160000   520.75737      13426.903     -563.73823      600.18077      3623.2705      12510.311     -1571.3717      160.68205      1.0633792      56601.972    
   5180000   513.69522      13004.183     -616.89094      546.09193      3445.3014      12192.587     -1395.5523      166.85563      1.0617792      56687.267    
   5200000   516.55793      13170.869     -603.23912      555.77829      3460.201       12372.256     -1456.8431      175.65044      1.0515825      57236.932    
   5220000   513.86748      13080.339     -604.09898      566.84218      3496.7517      12267.451     -1482.034       168.6005       1.0664369      56439.679    
   5240000   518.41683      13189.389     -676.23828      552.05551      3497.7696      12378.109     -1409.0664      180.19086      1.0560437      56995.139    
   5260000   526.48915      13342.93      -568.55113      592.77596      3509.3721      12364.267     -1402.5514      181.36847      1.0640601      56565.754    
   5280000   513.16967      12982.638     -697.51611      562.6512       3544.1725      12263.63      -1521.0793      163.7704       1.0593263      56818.525    
   5300000   522.56315      13125.658     -705.87923      558.88649      3593.7735      12328.557     -1481.1265      164.37459      1.0721828      56137.22     
   5320000   520.66908      13086.195     -684.14281      562.06822      3522.4611      12372.926     -1525.3903      169.51629      1.0631273      56615.383    
   5340000   523.19125      13131.977     -702.58906      573.86713      3530.3         12337.491     -1440.0739      165.49356      1.0596879      56799.137    
   5360000   529.77067      13209.623     -659.35925      563.8861       3570.9488      12413.55      -1514.1547      167.64926      1.057366       56923.866    
   5380000   528.10321      13283.205     -655.07948      586.54782      3477.7775      12546.391     -1522.5457      183.53651      1.0602494      56769.057    
   5400000   519.08341      13234.17      -579.30497      567.21588      3529.3654      12362.863     -1468.7485      156.47869      1.0478085      57443.093    
   5420000   517.31287      13159.906     -612.40728      562.45327      3536.7517      12312.371     -1488.8472      182.66085      1.0595389      56807.125    
   5440000   518.97546      13169.726     -648.11768      541.35869      3442.6746      12557.103     -1538.8024      149.2894       1.0626193      56642.449    
   5460000   515.76631      13108.158     -638.16448      586.94287      3400.2555      12355.451     -1434.5397      172.25231      1.0521353      57206.863    
   5480000   511.81169      13316.944     -573.58918      570.81844      3563.9112      12321.302     -1404.5427      173.05924      1.0305652      58404.221    
   5500000   525.20281      13226.972     -650.44433      556.69496      3561.3715      12373.181     -1456.5317      176.39503      1.0591833      56826.198    
   5520000   514.96687      13249.462     -627.70048      557.90218      3539.8198      12426.78      -1483.483       169.36065      1.0513574      57249.19     
   5540000   527.98904      13109.979     -707.02037      573.20813      3523.8417      12341.354     -1451.1162      162.72536      1.0699849      56252.531    
   5560000   517.88074      12925.56      -668.13572      571.27538      3499.6523      12278.058     -1580.286       157.47286      1.0647991      56526.494    
   5580000   528.23945      13121.599     -675.83989      576.01324      3467.2648      12348.724     -1426.5361      164.36679      1.0634601      56597.668    
   5600000   527.0335       13038.362     -697.90632      561.88937      3486.3355      12276.899     -1409.1631      153.37938      1.0681614      56348.562    
   5620000   520.53759      13043.365     -681.68843      565.07073      3469.7858      12261.526     -1396.1924      158.30659      1.0598489      56790.508    
   5640000   521.77305      12895.535     -781.57603      521.13839      3415.8375      12405.671     -1497.7225      165.1322       1.0719619      56148.786    
   5660000   516.51859      13129.956     -642.01245      564.54697      3575.8809      12235.672     -1428.1462      157.25775      1.0632552      56608.57     
   5680000   517.67945      13094.983     -678.93447      559.45916      3497.4381      12313.268     -1434.7522      171.10043      1.0682691      56342.881    
   5700000   521.61858      13052.463     -707.10491      559.30369      3455.5928      12307.324     -1399.952       170.50344      1.0599303      56786.148    
   5720000   515.17551      13377.836     -614.20871      557.65108      3534.5442      12344.856     -1278.0838      166.64116      1.0459103      57547.345    
   5740000   523.74434      13184.764     -671.16938      539.53378      3458.3731      12378.099     -1359.5484      171.70785      1.0655265      56487.902    
   5760000   511.71915      13178.438     -541.63432      552.88818      3553.8187      12257.963     -1486.9677      175.75281      1.0559217      57001.726    
   5780000   523.95496      12944.789     -670.50179      559.12334      3396.4264      12299.293     -1482.2766      176.57261      1.0555431      57022.17     
   5800000   512.76211      13228.462     -631.75739      591.49547      3599.6912      12332.858     -1485.8352      155.69119      1.061678       56692.668    
   5820000   524.96459      13244.157     -554.95421      558.01306      3516.4743      12380.465     -1486.8503      163.98299      1.0584011      56868.191    
   5840000   518.27725      13230.224     -617.82607      538.44572      3496.7323      12436.935     -1452.2052      160.27103      1.0415531      57788.082    
   5860000   517.41035      13383.101     -532.16251      558.30045      3605.1057      12236.83      -1312.3463      160.64332      1.0467199      57502.83     
   5880000   511.37478      13159.271     -627.15773      568.24486      3459.3696      12407.1       -1485.7283      171.65126      1.0537089      57121.432    
   5900000   530.0216       13265.37      -578.80431      571.51008      3550.8072      12325.281     -1440.312       169.10034      1.0632191      56610.496    
   5920000   520.01446      13165.109     -601.31133      565.4586       3558.0611      12274.692     -1463.8726      164.76207      1.0495088      57350.03     
   5940000   518.17295      13254.545     -665.687        552.6997       3540.6857      12381.596     -1393.1424      169.56534      1.0547608      57064.465    
   5960000   510.70832      13236.172     -571.13633      571.82102      3538.6697      12263.442     -1410.6553      176.50094      1.0483008      57416.114    
   5980000   512.38533      13194.131     -659.5909       569.00949      3542.2703      12334.085     -1420.1766      162.25316      1.0608825      56735.178    
   6000000   516.30889      13108.08      -551.50917      557.03363      3399.8558      12342.262     -1481.8786      174.91663      1.0628563      56629.82     
   6000103   522.1597       13122.495     -570.78142      555.16892      3414.4791      12358.766     -1469.3102      167.13252      1.0588462      56844.29     
Loop time of 3942.6 on 24 procs for 1200000 steps with 5000 atoms

Performance: 6.574 ns/day, 3.651 hours/ns, 304.367 timesteps/s, 1.522 Matom-step/s
99.5% CPU use with 24 MPI tasks x no OpenMP threads

MPI task timing breakdown:
Section |  min time  |  avg time  |  max time  |%varavg| %total
---------------------------------------------------------------
Pair    | 1847.7     | 2093.3     | 2478.1     | 331.2 | 53.09
Bond    | 623.71     | 673.66     | 736.14     | 112.8 | 17.09
Kspace  | 500.44     | 949.06     | 1246.7     | 546.3 | 24.07
Neigh   | 47.3       | 47.417     | 47.571     |   1.5 |  1.20
Comm    | 127.25     | 131.37     | 135.65     |  23.1 |  3.33
Output  | 0.0040274  | 0.0044989  | 0.014144   |   3.0 |  0.00
Modify  | 33.103     | 35.143     | 36.36      |  18.5 |  0.89
Other   |            | 12.67      |            |       |  0.32

Nlocal:        208.333 ave         225 max         179 min
Histogram: 1 0 0 1 2 8 3 2 4 3
Nghost:        4475.29 ave        4517 max        4401 min
Histogram: 2 0 1 1 2 4 4 3 1 6
Neighs:        66230.8 ave       73911 max       54615 min
Histogram: 1 1 1 2 1 6 4 2 1 5

Total # of neighbors = 1589540
Ave neighs/atom = 317.908
Ave special neighs/atom = 5.8564
Neighbor list builds = 16031
Dangerous builds = 0
unfix           fNPT
unfix           fMOM
next            a
jump            SELF loop
variable        a loop 26
variable        b equal 600-20*($a-1)
variable        b equal 600-20*(6-1)
fix             fMOM all momentum 100 linear 1 1 1 angular
fix             fNPT all npt temp $b $b $(100.0*dt) iso 1 1 $(100.0*dt)
fix             fNPT all npt temp 500 $b $(100.0*dt) iso 1 1 $(100.0*dt)
fix             fNPT all npt temp 500 500 $(100.0*dt) iso 1 1 $(100.0*dt)
fix             fNPT all npt temp 500 500 25 iso 1 1 $(100.0*dt)
fix             fNPT all npt temp 500 500 25 iso 1 1 25
run             1200000
PPPM initialization ...
  using 12-bit tables for long-range coulomb (../kspace.cpp:342)
  G vector (1/distance) = 0.11546314
  grid = 4 4 4
  stencil order = 5
  estimated absolute RMS force accuracy = 0.28759757
  estimated relative force accuracy = 0.00086609153
  using double precision KISS FFT
  3d grid and FFT values/proc = 294 4
Generated 36 of 36 mixed pair_coeff terms from sixthpower/sixthpower mixing rule
WARNING: Inconsistent image flags (../domain.cpp:815)
Per MPI rank memory allocation (min/avg/max) = 15.04 | 15.04 | 15.05 Mbytes
   Step          Temp          PotEng         E_vdwl         E_coul         E_bond        E_angle        E_dihed        E_impro        Density         Volume    
   6000103   522.1597       13122.705     -570.78142      559.02926      3414.4791      12358.766     -1469.3102      167.13252      1.0588462      56844.29     
   6020000   499.11147      12900.199     -651.47385      573.4339       3487.8529      12251.546     -1570.7044      144.98351      1.0625689      56645.137    
   6040000   495.96449      12752.314     -677.12338      558.17082      3290.5818      12217.185     -1477.5874      177.06898      1.0606228      56749.07     
   6060000   509.86977      12881.908     -733.04943      592.80171      3471.0958      12273.611     -1545.5462      159.71275      1.0816759      55644.539    
   6080000   501.23895      12775.849     -695.79801      567.82857      3366.5869      12189.833     -1486.8881      171.12293      1.0589794      56837.136    
   6100000   503.50697      12801.091     -764.39084      561.09031      3397.1113      12286.868     -1508.2041      165.69186      1.0708064      56209.377    
   6120000   504.24562      12766.216     -697.87354      594.21644      3334.7162      12234.888     -1538.7888      174.66921      1.071303       56183.317    
   6140000   497.17126      12950.727     -745.96108      573.59631      3494.7023      12247.875     -1461.1314      177.09733      1.0664821      56437.291    
   6160000   501.54618      12808.095     -683.58126      566.68018      3271.8781      12279.449     -1454.6968      164.37402      1.0681642      56348.412    
   6180000   499.78958      12774.185     -691.5873       534.97852      3451.1771      12193.509     -1542.514       165.43991      1.0655896      56484.558    
   6200000   496.48703      12797.052     -678.83741      568.67776      3300.842       12269.905     -1478.6702      151.52712      1.0622845      56660.302    
   6220000   494.86201      12814.715     -653.29551      541.16323      3385.4035      12164.724     -1444.1612      157.6787       1.0648898      56521.676    
   6240000   505.32927      12904.648     -709.22433      570.06308      3429.1317      12331.023     -1555.9148      176.41021      1.0702432      56238.954    
   6260000   500.10517      12999.553     -637.61735      562.65327      3483.0947      12261.405     -1500.3439      165.43313      1.0578844      56895.97     
   6280000   501.09911      12811.624     -796.39139      542.13337      3503.0537      12256.982     -1526.6985      170.21673      1.0853514      55456.105    
   6300000   501.26715      12887.166     -644.8454       560.95269      3399.5631      12236.396     -1489.9287      162.30895      1.0672382      56397.304    
   6320000   502.07628      12911.818     -774.58118      567.31059      3519.0377      12310.543     -1525.7929      152.28886      1.0725468      56118.168    
   6340000   501.0993       12907.29      -726.91729      576.61622      3404.8774      12318.773     -1502.8454      173.55142      1.0648102      56525.904    
   6360000   511.92491      12785.854     -697.39261      563.19813      3536.4392      12037.643     -1466.1237      149.64666      1.0769238      55890.081    
   6380000   498.07762      12732.533     -663.16865      556.41468      3347.632       12172.092     -1510.3846      166.25268      1.0838866      55531.046    
   6400000   504.65576      12748.696     -731.85788      560.26602      3472.2368      12156.197     -1538.7979      167.71439      1.0737675      56054.367    
   6420000   509.89023      12742.423     -767.17575      576.11032      3366.6005      12256.866     -1518.0518      164.51517      1.0778571      55841.688    
   6440000   498.21829      12888.308     -648.11905      580.61553      3314.9779      12259.807     -1436.6967      154.99519      1.0676832      56373.802    
   6460000   511.02064      12761.208     -650.67546      564.20686      3460.7138      12127.367     -1564.7368      161.68645      1.0780002      55834.272    
   6480000   498.04308      12809.756     -633.19433      536.64603      3429.2487      12162.282     -1498.7473      150.34338      1.0682743      56342.609    
   6500000   494.05223      12841.207     -704.3212       549.13602      3379.4734      12254.118     -1488.0254      188.70481      1.0719055      56151.739    
   6520000   513.72852      12722.535     -703.81404      561.36154      3371.3631      12070.502     -1401.5609      161.77436      1.085475       55449.788    
   6540000   505.76141      12713.54      -711.26409      580.04841      3309.426       12157.784     -1460.9035      174.45295      1.0791288      55775.882    
   6560000   488.73165      12798.98      -751.03248      559.30981      3498.5009      12247.56      -1582.7061      164.03086      1.0693584      56285.487    
   6580000   495.99828      12689.582     -679.54426      572.35124      3302.9571      12177.338     -1509.3747      162.30849      1.0714402      56176.125    
   6600000   503.82349      12809.587     -636.69836      584.63769      3328.0689      12198.241     -1480.6029      152.59916      1.0705978      56220.33     
   6620000   510.56025      12779.152     -697.51899      569.20911      3415.7649      12254.368     -1577.0652      151.71211      1.0664548      56438.735    
   6640000   502.63108      12823.458     -679.70149      567.82648      3413.412       12258.425     -1563.0604      163.53448      1.0677113      56372.314    
   6660000   502.98064      12646.256     -675.08104      568.00636      3310.0724      12176.431     -1557.9048      161.48077      1.0796072      55751.164    
   6680000   496.43886      12773.335     -667.69043      577.46687      3327.6794      12247.827     -1547.0367      171.73567      1.0732207      56082.929    
   6700000   489.91136      12849.909     -728.40036      575.10119      3435.3664      12267.799     -1532.5193      168.49625      1.0659372      56466.139    
   6720000   502.43113      12709.179     -695.42948      564.50769      3338.6152      12146.312     -1470.0459      161.66222      1.0724149      56125.065    
   6740000   502.55257      12803.234     -722.48023      555.98424      3396.8283      12214.588     -1466.6352      162.06793      1.0729999      56094.469    
   6760000   507.39652      12925.122     -693.8964       562.87225      3349.393       12406.732     -1534.7836      172.06971      1.0682279      56345.053    
   6780000   503.98978      12712.058     -762.89366      555.31766      3390.0346      12174.392     -1465.209       158.09362      1.0801438      55723.466    
   6800000   500.83995      12988.713     -677.85627      553.44412      3466.3119      12292.304     -1479.9905      170.78411      1.0843821      55505.674    
   6820000   496.64621      12677.204     -667.90772      565.5463       3280.694       12170.008     -1504.3713      170.11754      1.0717946      56157.552    
   6840000   501.59769      12878.001     -757.24198      558.58633      3461.4657      12247.198     -1458.9964      164.7482       1.0771783      55876.874    
   6860000   496.51601      12772.547     -725.47157      515.88532      3316.3407      12262.829     -1421.7102      161.7072       1.0789424      55785.518    
   6880000   497.76409      12733.005     -765.4089       543.53941      3331.16        12375.733     -1572.3222      157.80713      1.0728499      56102.309    
   6900000   504.40969      12721.314     -726.02039      535.91624      3411.0498      12199.504     -1524.4901      162.52593      1.0670041      56409.678    
   6920000   499.52581      12944.977     -665.44801      538.84819      3436.4461      12363.278     -1566.6583      173.10321      1.0824061      55607.001    
   6940000   505.91844      12869.802     -632.59519      547.78275      3328.8379      12328.815     -1522.9712      156.72018      1.0563171      56980.388    
   6960000   495.70444      12790.836     -637.15713      545.03765      3470.8959      12131.103     -1526.1039      144.10204      1.0744572      56018.386    
   6980000   497.21969      12797.122     -619.21736      569.8429       3392.9894      12172.822     -1550.0479      167.2196       1.0655317      56487.629    
   7000000   494.65622      12911.746     -690.27998      569.58525      3372.7657      12348.836     -1518.9559      166.66117      1.0612863      56713.594    
   7020000   491.34512      12900.131     -685.13839      566.8693       3456.8479      12206.845     -1477.364       169.38937      1.0703125      56235.311    
   7040000   490.80004      12955.28      -671.34055      549.32665      3449.2391      12242.441     -1433.5988      156.53078      1.0698255      56260.913    
   7060000   495.79817      12952.724     -742.10656      565.55546      3495.1013      12235.26      -1415.9369      152.34933      1.0673399      56391.932    
   7080000   495.56272      12940.493     -678.27622      513.98135      3459.6265      12271.851     -1453.5248      163.63624      1.0711935      56189.063    
   7100000   501.318        12825.789     -751.95351      582.84897      3414.0992      12319.943     -1545.6808      143.97381      1.0629457      56625.057    
   7120000   501.80754      12842.862     -647.11804      581.46413      3459.5883      12296.249     -1667.1858      157.50841      1.0673407      56391.888    
   7140000   501.0089       12764.726     -755.77411      566.06088      3325.9239      12297.845     -1498.7814      165.61363      1.0785243      55807.141    
   7160000   493.49413      12857.243     -745.15955      558.45275      3308.4961      12308.532     -1408.8435      173.26654      1.0728088      56104.458    
   7180000   495.07318      12710.886     -726.3956       537.19933      3404.9614      12166.451     -1488.145       153.6563       1.068548       56328.177    
   7200000   490.06293      12943.304     -676.10273      564.07323      3415.3677      12285.254     -1472.7305      164.25296      1.0808354      55687.814    
   7200103   504.19222      12742.901     -725.16594      581.74165      3427.9326      12177.193     -1530.4127      148.59031      1.073927       56046.043    
Loop time of 4021.76 on 24 procs for 1200000 steps with 5000 atoms

Performance: 6.445 ns/day, 3.724 hours/ns, 298.377 timesteps/s, 1.492 Matom-step/s
99.5% CPU use with 24 MPI tasks x no OpenMP threads

MPI task timing breakdown:
Section |  min time  |  avg time  |  max time  |%varavg| %total
---------------------------------------------------------------
Pair    | 1863.6     | 2112       | 2557.8     | 343.6 | 52.51
Bond    | 602        | 673.7      | 748.37     | 131.4 | 16.75
Kspace  | 486.6      | 1008.5     | 1329.1     | 575.5 | 25.08
Neigh   | 46.326     | 46.451     | 46.614     |   1.6 |  1.15
Comm    | 127.97     | 132.71     | 137.07     |  23.9 |  3.30
Output  | 0.0040176  | 0.0045499  | 0.016048   |   3.6 |  0.00
Modify  | 33.128     | 35.463     | 36.918     |  19.3 |  0.88
Other   |            | 12.97      |            |       |  0.32

Nlocal:        208.333 ave         228 max         177 min
Histogram: 1 1 0 2 4 1 7 3 3 2
Nghost:        4520.29 ave        4569 max        4486 min
Histogram: 4 0 5 6 0 3 3 1 1 1
Neighs:        67311.4 ave       78727 max       52618 min
Histogram: 1 0 2 3 4 4 2 4 3 1

Total # of neighbors = 1615474
Ave neighs/atom = 323.0948
Ave special neighs/atom = 5.8564
Neighbor list builds = 15313
Dangerous builds = 0
unfix           fNPT
unfix           fMOM
next            a
jump            SELF loop
variable        a loop 26
variable        b equal 600-20*($a-1)
variable        b equal 600-20*(7-1)
fix             fMOM all momentum 100 linear 1 1 1 angular
fix             fNPT all npt temp $b $b $(100.0*dt) iso 1 1 $(100.0*dt)
fix             fNPT all npt temp 480 $b $(100.0*dt) iso 1 1 $(100.0*dt)
fix             fNPT all npt temp 480 480 $(100.0*dt) iso 1 1 $(100.0*dt)
fix             fNPT all npt temp 480 480 25 iso 1 1 $(100.0*dt)
fix             fNPT all npt temp 480 480 25 iso 1 1 25
run             1200000
PPPM initialization ...
  using 12-bit tables for long-range coulomb (../kspace.cpp:342)
  G vector (1/distance) = 0.11585983
  grid = 4 4 4
  stencil order = 5
  estimated absolute RMS force accuracy = 0.28699276
  estimated relative force accuracy = 0.00086427017
  using double precision KISS FFT
  3d grid and FFT values/proc = 294 4
Generated 36 of 36 mixed pair_coeff terms from sixthpower/sixthpower mixing rule
WARNING: Inconsistent image flags (../domain.cpp:815)
Per MPI rank memory allocation (min/avg/max) = 15.04 | 15.05 | 15.05 Mbytes
   Step          Temp          PotEng         E_vdwl         E_coul         E_bond        E_angle        E_dihed        E_impro        Density         Volume    
   7200103   504.19222      12742.881     -725.16594      586.30572      3427.9326      12177.193     -1530.4127      148.59031      1.073927       56046.043    
   7220000   484.88586      12488.446     -755.49333      579.92234      3282.8321      12148.806     -1575.884       149.18893      1.076682       55902.631    
   7240000   488.25076      12434.88      -755.6244       519.6652       3187.2551      12229.393     -1581.8129      177.90349      1.0834294      55554.48     
   7260000   488.9506       12478.25      -732.87122      546.98607      3329.8872      12179.019     -1657.4745      153.48529      1.0814364      55656.862    
   7280000   483.18565      12389.226     -770.55775      539.1995       3181.525       12095.606     -1461.1967      146.46499      1.0878451      55328.978    
   7300000   486.73217      12502.028     -742.30296      550.69505      3358.0073      12125.126     -1604.0652      155.65528      1.0829225      55580.485    
   7320000   483.91192      12568.506     -722.6677       558.12174      3331.1391      12154.786     -1574.1377      163.09756      1.0677309      56371.279    
   7340000   483.82781      12545.806     -763.23722      584.73112      3339.2524      12162.038     -1580.2641      144.30543      1.0668302      56418.875    
   7360000   482.39574      12408.798     -754.25483      580.747        3347.6233      12003.506     -1573.5166      147.0523       1.076963       55888.047    
   7380000   468.86683      12321.347     -834.44814      557.76415      3284.6308      12040.214     -1536.4811      152.06628      1.0803858      55710.986    
   7400000   476.5358       12538.77      -744.30221      554.3195       3269.2416      12171.553     -1530.053       160.51824      1.0662876      56447.586    
   7420000   491.90015      12554.444     -731.97438      552.00961      3271.5334      12128.701     -1492.517       168.20722      1.0737091      56057.416    
   7440000   486.43464      12580.132     -713.02849      548.33259      3391.0571      12183.536     -1650.6943      162.64691      1.0814763      55654.811    
   7460000   489.96223      12407.747     -790.69259      544.49692      3309.5615      12142.926     -1617.6175      160.52191      1.0819619      55629.831    
   7480000   479.38221      12163.751     -808.70019      547.62831      3255.0462      12071.682     -1720.1523      159.44574      1.0990093      54766.926    
   7500000   482.64891      12353.395     -758.05128      549.58441      3311.143       12112.02      -1672.4984      152.79804      1.0853244      55457.48     
   7520000   483.26211      12496.139     -777.49537      571.86344      3337.3315      12215.337     -1645.4534      135.98303      1.0794752      55757.981    
   7540000   471.32979      12509.404     -771.40961      532.23436      3296.3738      12198.395     -1564.0034      159.41627      1.089552       55242.301    
   7560000   482.86868      12554.857     -709.21242      547.41882      3354.7988      12150.991     -1604.4368      156.382        1.0772122      55875.117    
   7580000   481.47381      12579.307     -773.60519      534.46388      3349.9182      12092.353     -1438.3107      154.88674      1.0780905      55829.597    
   7600000   481.54569      12486.709     -717.4834       543.22339      3257.3752      12144.762     -1561.5166      162.45385      1.0665732      56432.47     
   7620000   494.49159      12631.964     -659.05341      560.08725      3252.6786      12264.723     -1602.8719      158.89047      1.0637761      56580.853    
   7640000   479.6833       12440.065     -742.79773      559.60043      3370.4674      12005.016     -1555.8263      144.32663      1.0810489      55676.815    
   7660000   489.67665      12505.253     -693.06444      573.90684      3252.2617      12180.169     -1614.3004      148.12536      1.0712179      56187.781    
   7680000   481.41494      12390.726     -765.53552      555.43651      3274.6941      12122.293     -1605.0681      149.4318       1.0862589      55409.77     
   7700000   488.92173      12371.935     -789.92449      567.4865       3287.8258      12091.231     -1590.5248      148.16584      1.0921707      55109.847    
   7720000   476.63057      12447.725     -814.29333      547.32339      3287.5877      12136.144     -1537.6697      171.21583      1.0874674      55348.196    
   7740000   489.79824      12472.742     -753.06486      578.00572      3233.226       12148.322     -1555.007       162.45533      1.074751       56003.071    
   7760000   470.91651      12738.065     -750.29382      576.50582      3406.2494      12227.383     -1541.8013      161.38391      1.0702189      56240.231    
   7780000   478.11719      12503.416     -725.99702      559.60711      3294.3605      12171.71      -1614.144       159.10218      1.0755989      55958.925    
   7800000   487.34355      12528.969     -725.54289      579.08298      3276.9798      12156.105     -1583.0489      167.35914      1.0820189      55626.899    
   7820000   480.55801      12555.396     -787.3254       524.46792      3363.7364      12248.86      -1611.4315      159.28592      1.0852257      55462.526    
   7840000   486.80738      12658.625     -733.32602      576.27481      3301.2153      12169.547     -1482.0092      169.35515      1.0780387      55832.283    
   7860000   491.48723      12569.103     -760.64156      580.17391      3370.4232      12136.141     -1584.9388      169.91528      1.0663308      56445.298    
   7880000   472.88541      12485.475     -719.6049       547.31329      3281.7121      12112.43      -1565.1968      171.00853      1.0793287      55765.55     
   7900000   480.69976      12454.461     -737.11039      540.16603      3303.1489      12084.53      -1537.5827      142.99206      1.0694286      56281.792    
   7920000   477.85548      12514.786     -721.41294      578.59577      3241.05        12137.168     -1522.8712      143.59805      1.0734794      56069.411    
   7940000   483.2097       12617.64      -726.60631      538.04751      3437.4664      12116.911     -1556.697       150.11436      1.082402       55607.215    
   7960000   482.14086      12523.358     -786.17379      543.68961      3382.7088      12110.842     -1527.0329      140.4344       1.0736545      56060.268    
   7980000   478.13468      12469.55      -727.24677      565.77526      3325.2939      12080.187     -1587.4501      155.47998      1.0755106      55963.522    
   8000000   475.53771      12333.142     -782.71933      562.54729      3152.9425      12124.448     -1544.3271      162.05841      1.0799369      55734.144    
   8020000   467.50424      12422.378     -688.96954      571.55068      3285.4225      12061.579     -1607.3913      141.46235      1.0694526      56280.529    
   8040000   476.02795      12440.155     -791.98797      552.36631      3291.8117      12118.003     -1522.4701      134.46491      1.0723558      56128.163    
   8060000   484.30309      12407.145     -826.72515      564.80723      3346.0934      12100.437     -1567.4546      131.61198      1.0880296      55319.595    
   8080000   490.0972       12556.135     -733.63341      554.06616      3289.8101      12103.128     -1484.899       169.61941      1.0763728      55918.689    
   8100000   477.14729      12471.718     -732.10094      563.0565       3260.9673      12044.781     -1460.9563      137.67907      1.0765249      55910.793    
   8120000   485.37527      12489.908     -717.89355      594.4318       3321.1299      12022.735     -1539.2948      150.64562      1.0752572      55976.708    
   8140000   486.00535      12502.101     -642.10562      572.25069      3227.8875      11989.094     -1462.8214      160.52809      1.0764053      55917.001    
   8160000   476.48702      12435.405     -770.50143      571.55826      3290.5211      12069.464     -1549.9013      165.51006      1.0746006      56010.91     
   8180000   483.51798      12388.021     -723.27649      563.14254      3282.2783      12053.512     -1592.4217      145.81499      1.0723771      56127.048    
   8200000   482.59998      12431.943     -730.19441      555.84224      3201.5413      12093.819     -1490.9907      143.64871      1.0735892      56063.679    
   8220000   480.52577      12460.206     -813.68637      566.59222      3287.2768      12156.24      -1545.7338      151.10288      1.0749081      55994.889    
   8240000   482.74468      12495.246     -738.38425      546.16543      3230.684       12187.353     -1551.7681      161.98446      1.0867587      55384.287    
   8260000   485.98199      12548.102     -650.3          549.25677      3356.8901      12028.921     -1559.2856      164.15581      1.0807272      55693.387    
   8280000   478.94786      12600.839     -664.8902       540.4302       3324.336       12169.793     -1588.2494      160.86394      1.0688456      56312.493    
   8300000   486.50757      12465.353     -750.22238      553.73398      3272.9082      12187.235     -1600.6309      143.49601      1.0641951      56558.578    
   8320000   478.10088      12529.787     -722.16246      511.38859      3396.0236      12135.479     -1591.0893      142.45684      1.0760088      55937.606    
   8340000   486.58307      12455.97      -752.1833       576.38079      3241.0512      12182.103     -1608.983       159.0862       1.0817937      55638.483    
   8360000   481.08699      12559.523     -735.39627      541.50851      3280.5519      12154.278     -1488.0195      148.41032      1.0710754      56195.256    
   8380000   477.13147      12439.291     -744.93629      541.79531      3255.8221      12101.821     -1541.0875      168.41105      1.0757672      55950.173    
   8400000   476.27223      12441.466     -784.04707      573.17715      3248.92        12070.584     -1470.0978      145.73808      1.0722436      56134.035    
   8400103   478.9216       12362.548     -751.32586      559.35223      3264.4522      12006.355     -1525.7751      151.81416      1.074974       55991.455    
Loop time of 4031.22 on 24 procs for 1200000 steps with 5000 atoms

Performance: 6.430 ns/day, 3.733 hours/ns, 297.676 timesteps/s, 1.488 Matom-step/s
99.5% CPU use with 24 MPI tasks x no OpenMP threads

MPI task timing breakdown:
Section |  min time  |  avg time  |  max time  |%varavg| %total
---------------------------------------------------------------
Pair    | 1870.4     | 2126       | 2559.8     | 348.8 | 52.74
Bond    | 602.19     | 673.09     | 754.04     | 132.8 | 16.70
Kspace  | 490.37     | 1006.4     | 1333.6     | 582.7 | 24.97
Neigh   | 43.606     | 43.741     | 43.879     |   1.8 |  1.09
Comm    | 128.91     | 133.06     | 137.22     |  22.1 |  3.30
Output  | 0.00396    | 0.0045634  | 0.01775    |   4.1 |  0.00
Modify  | 33.945     | 36.208     | 37.452     |  19.1 |  0.90
Other   |            | 12.71      |            |       |  0.32

Nlocal:        208.333 ave         228 max         185 min
Histogram: 2 0 1 2 6 1 7 1 2 2
Nghost:        4552.21 ave        4592 max        4512 min
Histogram: 1 3 3 2 3 2 4 2 2 2
Neighs:        67050.2 ave       77726 max       56180 min
Histogram: 1 0 4 5 3 3 2 2 1 3

Total # of neighbors = 1609206
Ave neighs/atom = 321.8412
Ave special neighs/atom = 5.8564
Neighbor list builds = 14479
Dangerous builds = 0
unfix           fNPT
unfix           fMOM
next            a
jump            SELF loop
variable        a loop 26
variable        b equal 600-20*($a-1)
variable        b equal 600-20*(8-1)
fix             fMOM all momentum 100 linear 1 1 1 angular
fix             fNPT all npt temp $b $b $(100.0*dt) iso 1 1 $(100.0*dt)
fix             fNPT all npt temp 460 $b $(100.0*dt) iso 1 1 $(100.0*dt)
fix             fNPT all npt temp 460 460 $(100.0*dt) iso 1 1 $(100.0*dt)
fix             fNPT all npt temp 460 460 25 iso 1 1 $(100.0*dt)
fix             fNPT all npt temp 460 460 25 iso 1 1 25
run             1200000
PPPM initialization ...
  using 12-bit tables for long-range coulomb (../kspace.cpp:342)
  G vector (1/distance) = 0.11588718
  grid = 4 4 4
  stencil order = 5
  estimated absolute RMS force accuracy = 0.28695062
  estimated relative force accuracy = 0.00086414328
  using double precision KISS FFT
  3d grid and FFT values/proc = 294 4
Generated 36 of 36 mixed pair_coeff terms from sixthpower/sixthpower mixing rule
WARNING: Inconsistent image flags (../domain.cpp:815)
Per MPI rank memory allocation (min/avg/max) = 15.04 | 15.05 | 15.05 Mbytes
   Step          Temp          PotEng         E_vdwl         E_coul         E_bond        E_angle        E_dihed        E_impro        Density         Volume    
   8400103   478.9216       12362.571     -751.32586      559.69212      3264.4522      12006.355     -1525.7751      151.81416      1.074974       55991.455    
   8420000   457.17281      12233.374     -790.90045      558.56497      3193.4961      12031.257     -1569.9697      153.17083      1.077738       55847.856    
   8440000   457.787        12006.52      -796.03726      560.94788      3120.375       11988.915     -1658.7965      134.25248      1.0758103      55947.93     
   8460000   464.67445      12153.241     -785.63165      525.63693      3090.8558      12030.642     -1512.7343      146.5918       1.077765       55846.461    
   8480000   453.12212      12237.3       -815.55672      537.61517      3194.2593      12035.382     -1540.711       167.81437      1.0782412      55821.795    
   8500000   457.21406      12156.187     -820.28677      565.48174      3120.5352      12048.374     -1574.3204      157.89093      1.0836657      55542.366    
   8520000   463.05477      12015.407     -802.92536      551.6618       3008.6046      12047.901     -1602.6589      154.15968      1.094432       54995.98     
   8540000   456.09642      12096.576     -800.18458      563.43745      3192.1498      11986.134     -1651.2884      148.81616      1.0943995      54997.612    
   8560000   460.07243      12225.108     -781.42847      548.34475      3142.9664      12115.677     -1611.1443      153.75114      1.0868446      55379.914    
   8580000   465.97094      12073.864     -866.58731      529.0708       3098.7433      11932.182     -1420.8021      141.95079      1.0959636      54919.12     
   8600000   452.0597       12112.877     -869.03017      547.3808       3285.1214      12012.324     -1663.8308      143.33528      1.0996808      54733.484    
   8620000   456.72666      12103.904     -884.08862      559.31653      3184.5562      12130.723     -1683.1047      138.10198      1.089584       55240.678    
   8640000   468.67467      12134.452     -850.9865       569.78644      3216.9748      12048.176     -1653.397       145.3891       1.0958018      54927.23     
   8660000   461.19246      12134.21      -742.07972      558.1472       3066.383       11983.949     -1539.5105      149.71492      1.0776992      55849.867    
   8680000   454.39448      12159.673     -704.02962      545.21884      3127.3491      12084.593     -1689.6369      138.04798      1.0780059      55833.977    
   8700000   470.42395      11983.469     -732.0243       524.55558      3076.6299      11864.943     -1554.4247      146.40869      1.088112       55315.406    
   8720000   458.09947      12064.303     -765.41427      543.6354       3145.3373      12023.755     -1678.2396      137.26107      1.0928865      55073.75     
   8740000   457.18212      12296.28      -831.16162      537.39651      3272.1853      12154.751     -1653.5159      158.39841      1.0827496      55589.361    
   8760000   459.20031      12234.002     -738.60601      590.32779      3194.4904      12050.509     -1671.8263      151.3487       1.0870352      55370.203    
   8780000   465.53029      12197.66      -731.64389      553.98597      3117.5096      11980.604     -1539.2845      158.67609      1.0778147      55843.885    
   8800000   465.43893      12185.277     -785.76176      585.71808      3190.1013      12039.824     -1641.3982      137.77283      1.076391       55917.748    
   8820000   456.05893      12088.89      -789.66773      517.3568       3180.1015      12081.194     -1716.5142      158.44095      1.0914083      55148.345    
   8840000   462.77508      11949.992     -825.321        536.58593      3134.8012      11975.157     -1672.6836      143.17151      1.0884503      55298.213    
   8860000   458.60417      12196.559     -712.93165      543.04356      3205.9588      11945.588     -1600.2501      156.97612      1.0791512      55774.722    
   8880000   460.85122      12177.511     -837.36517      548.22489      3211.8458      12098.332     -1653.0513      151.36314      1.0971659      54858.94     
   8900000   456.08047      12049.383     -856.59205      526.70217      3123.4959      12055.926     -1605.3225      146.82914      1.0847814      55485.244    
   8920000   460.8349       12171.217     -775.30956      529.46732      3285.8266      11998.661     -1669.7969      143.98014      1.0854096      55453.131    
   8940000   466.89397      12224.134     -801.69844      558.60307      3266.3295      12030.841     -1634.6524      146.17768      1.0849789      55475.141    
   8960000   463.05719      12123.546     -752.56687      531.832        3190.998       11971.045     -1618.5861      142.28918      1.0850508      55471.466    
   8980000   457.32618      12175.902     -792.60573      550.27002      3112.6153      12002.287     -1498.1091      143.24143      1.084606       55494.214    
   9000000   461.16381      12102.186     -724.27987      526.01747      3187.7821      12019.868     -1717.6457      152.39995      1.0801525      55723.019    
   9020000   455.62883      12195.611     -652.93883      579.05257      3108.02        11982.071     -1609.4376      130.28799      1.0758132      55947.779    
   9040000   457.00757      12143.443     -746.72354      565.79013      3271.9901      11951.797     -1694.7688      136.73492      1.0761116      55932.264    
   9060000   458.82424      12193.815     -775.32786      559.35911      3162.0003      12056.632     -1602.1574      135.99213      1.0870366      55370.132    
   9080000   459.51149      12358.646     -640.61383      562.23242      3289.0638      11973.722     -1643.3734      160.22855      1.0821076      55622.344    
   9100000   460.75554      12147.274     -791.72099      549.96981      3166.4939      12065.987     -1655.8876      154.17371      1.084496       55499.843    
   9120000   455.18584      12160.484     -786.6395       562.80724      3135.1458      12122.165     -1690.2325      158.46274      1.0849666      55475.769    
   9140000   452.24473      12239.714     -750.56137      560.57265      3231.9922      12016.166     -1624.1109      147.79758      1.0733888      56074.147    
   9160000   464.18344      12214.315     -755.54963      570.90672      3212.2215      11991.222     -1600.8474      137.23086      1.0782778      55819.899    
   9180000   450.52525      12274.092     -710.72634      528.24091      3154.2039      12157.64      -1661.4161      148.44676      1.0796616      55748.355    
   9200000   455.12617      12071.663     -770.7199       562.58125      3048.1658      11975.23      -1540.5678      138.49626      1.0822511      55614.966    
   9220000   459.26988      12211.197     -788.57067      567.09285      3164.1061      12022.086     -1556.6711      145.96776      1.075602       55958.765    
   9240000   459.70291      12122.533     -819.58826      543.81085      3203.9521      12037.542     -1638.401       138.22747      1.074749       56003.18     
   9260000   466.01911      12230.39      -746.25148      544.71064      3134.0854      12051.503     -1555.4067      143.96304      1.0794375      55759.93     
   9280000   454.47849      12121.651     -755.88219      528.63061      3078.4986      12102.774     -1629.3866      139.56077      1.0882738      55307.183    
   9300000   458.5361       12210.003     -712.915        557.3791       3196.9735      11986.829     -1622.9531      146.83688      1.08375        55538.046    
   9320000   462.13048      12310.821     -728.64389      534.38859      3143.1719      12033.855     -1479.1721      148.74694      1.0809106      55683.94     
   9340000   464.39879      12201.521     -755.76692      549.76776      3140.2809      11980.004     -1524.5408      154.5713       1.0801038      55725.534    
   9360000   460.07841      12215.265     -722.70242      550.18637      3201.5534      12063.729     -1682.6973      147.14938      1.0751757      55980.954    
   9380000   467.81699      12078.081     -802.08043      525.14622      3140.0084      12123.606     -1710.4408      143.78175      1.0831397      55569.342    
   9400000   459.33285      12177.695     -763.7217       545.29909      3222.3831      12054.918     -1686.1253      146.83632      1.080189       55721.136    
   9420000   458.71781      12199.937     -770.20706      558.80326      3292.3787      12035.847     -1718.332       143.5943       1.0739828      56043.13     
   9440000   461.45761      12227.661     -779.13438      552.94         3222.0442      12133.147     -1697.0919      137.82154      1.0746875      56006.384    
   9460000   465.80465      12091.144     -778.89835      529.26924      3201.5117      11965.306     -1635.9425      152.15191      1.0859896      55423.512    
   9480000   457.82539      12185.877     -860.21698      550.55426      3235.5868      12094.071     -1636.8842      145.23246      1.0875774      55342.598    
   9500000   460.17495      12118.24      -729.43361      549.93193      3107.413       11910.53      -1535.4185      156.66175      1.087828       55329.848    
   9520000   471.74283      12111.008     -821.43765      566.46797      3084.778       12029.621     -1543.4215      137.61445      1.0827191      55590.929    
   9540000   458.43482      12182.061     -813.90341      565.74603      3106.5823      12105.61      -1587.0194      145.99217      1.0955954      54937.578    
   9560000   461.01408      12012.523     -860.19034      563.27259      3112.8742      12173.801     -1768.4165      132.41247      1.0800258      55729.554    
   9580000   460.19393      12152.008     -779.40122      547.49612      3145.5364      12033.378     -1616.8187      162.93258      1.0855728      55444.791    
   9600000   465.03614      12267.101     -775.94267      564.82452      3165.3356      12096.841     -1592.1979      149.75832      1.0836284      55544.28     
   9600103   468.55385      12231.639     -764.89109      577.43475      3121.122       12071.799     -1592.2514      160.37433      1.0834797      55551.901    
Loop time of 3966.24 on 24 procs for 1200000 steps with 5000 atoms

Performance: 6.535 ns/day, 3.672 hours/ns, 302.553 timesteps/s, 1.513 Matom-step/s
99.5% CPU use with 24 MPI tasks x no OpenMP threads

MPI task timing breakdown:
Section |  min time  |  avg time  |  max time  |%varavg| %total
---------------------------------------------------------------
Pair    | 1897.2     | 2140.7     | 2474.3     | 317.9 | 53.97
Bond    | 620.94     | 672.51     | 744.6      | 132.6 | 16.96
Kspace  | 536.47     | 932.54     | 1224.2     | 554.7 | 23.51
Neigh   | 40.458     | 40.563     | 40.677     |   1.5 |  1.02
Comm    | 128.05     | 132.21     | 136.09     |  21.7 |  3.33
Output  | 0.0039978  | 0.0043262  | 0.011477   |   2.3 |  0.00
Modify  | 32.667     | 35.025     | 36.241     |  19.1 |  0.88
Other   |            | 12.71      |            |       |  0.32

Nlocal:        208.333 ave         223 max         195 min
Histogram: 1 4 3 1 1 5 4 2 2 1
Nghost:        4570.58 ave        4613 max        4531 min
Histogram: 1 1 4 4 1 6 3 2 0 2
Neighs:        67841.4 ave       75811 max       59665 min
Histogram: 1 3 1 4 3 3 2 2 2 3

Total # of neighbors = 1628194
Ave neighs/atom = 325.6388
Ave special neighs/atom = 5.8564
Neighbor list builds = 13630
Dangerous builds = 0
unfix           fNPT
unfix           fMOM
next            a
jump            SELF loop
variable        a loop 26
variable        b equal 600-20*($a-1)
variable        b equal 600-20*(9-1)
fix             fMOM all momentum 100 linear 1 1 1 angular
fix             fNPT all npt temp $b $b $(100.0*dt) iso 1 1 $(100.0*dt)
fix             fNPT all npt temp 440 $b $(100.0*dt) iso 1 1 $(100.0*dt)
fix             fNPT all npt temp 440 440 $(100.0*dt) iso 1 1 $(100.0*dt)
fix             fNPT all npt temp 440 440 25 iso 1 1 $(100.0*dt)
fix             fNPT all npt temp 440 440 25 iso 1 1 25
run             1200000
PPPM initialization ...
  using 12-bit tables for long-range coulomb (../kspace.cpp:342)
  G vector (1/distance) = 0.11610859
  grid = 4 4 4
  stencil order = 5
  estimated absolute RMS force accuracy = 0.28660766
  estimated relative force accuracy = 0.00086311046
  using double precision KISS FFT
  3d grid and FFT values/proc = 294 4
Generated 36 of 36 mixed pair_coeff terms from sixthpower/sixthpower mixing rule
WARNING: Inconsistent image flags (../domain.cpp:815)
Per MPI rank memory allocation (min/avg/max) = 15.04 | 15.05 | 15.05 Mbytes
   Step          Temp          PotEng         E_vdwl         E_coul         E_bond        E_angle        E_dihed        E_impro        Density         Volume    
   9600103   468.55385      12231.695     -764.89109      580.04729      3121.122       12071.799     -1592.2514      160.37433      1.0834797      55551.901    
   9620000   439.4489       11866.02      -826.09322      552.1683       3128.284       12021.135     -1799.2241      134.22515      1.0982137      54806.598    
   9640000   444.72225      11786.264     -819.56436      541.49015      3071.9978      11900.543     -1713.0558      149.58045      1.091682       55134.516    
   9660000   450.891        11655.671     -889.54291      542.04828      3088.1826      11827.97      -1709.0947      139.64856      1.1002431      54705.507    
   9680000   441.57092      11693.362     -862.14986      521.92691      3062.6755      11930.196     -1739.6659      125.23261      1.0987032      54782.18     
   9700000   441.13446      11966.19      -780.54852      544.57217      3137.2416      12014.846     -1757.3891      150.87832      1.0875416      55344.421    
   9720000   437.51007      11758.899     -843.5382       533.06762      3096.9808      11953.812     -1762.6212      123.97794      1.0949858      54968.162    
   9740000   441.26024      11713.079     -895.5337       540.77106      3078.3315      11874.521     -1680.9136      139.61144      1.0919865      55119.141    
   9760000   438.95212      11843.742     -840.86343      545.35718      3115.2692      11903.625     -1681.0484      143.75363      1.0920818      55114.33     
   9780000   439.31202      11775.561     -885.89701      523.03148      3040.6509      11945.062     -1630.976       128.48597      1.0895072      55244.572    
   9800000   443.6391       11714.267     -876.1172       546.85401      2990.7363      11903.265     -1635.8073      130.24418      1.0870081      55371.582    
   9820000   432.41735      11816.184     -797.3574       570.54573      3051.8587      11902.714     -1723.0422      156.37428      1.0924626      55095.122    
   9840000   443.3541       11839.9       -795.7201       553.61089      3104.3789      11882.221     -1691.8554      130.36782      1.0890831      55266.084    
   9860000   442.20996      11845.645     -850.42811      542.42658      3066.7824      11896.567     -1600.6088      135.59172      1.0946724      54983.9      
   9880000   439.61113      11992.637     -749.00567      558.85249      3197.6013      11967.728     -1791.124       152.28142      1.0913309      55152.255    
   9900000   437.80227      11720.621     -859.54124      530.07549      3131.8296      11795.797     -1676.69        141.84122      1.0873928      55351.994    
   9920000   425.74287      11724.688     -835.75327      542.48072      3053.3453      11866.742     -1691.8927      133.40076      1.0870526      55369.315    
   9940000   436.8971       11815.839     -792.29484      529.30284      3048.4649      11885.091     -1652.7834      142.30191      1.0811846      55669.826    
   9960000   441.58823      11775.285     -805.91184      534.37736      3047.1513      11851.475     -1646.8576      139.33109      1.0911618      55160.799    
   9980000   442.25119      11877.321     -799.96607      543.32711      3032.4359      11889.94      -1599.947       155.5338       1.0824528      55604.603    
  10000000   438.11162      11737.589     -806.96842      547.18228      3084.9252      11788.416     -1662.2334      130.38959      1.084572       55495.957    
  10020000   444.84101      11857.519     -819.21962      545.8534       3193.9153      11878.287     -1739.1579      142.20485      1.0785445      55806.097    
  10040000   436.75241      11965.774     -734.6982       541.6394       3172.0578      11909.182     -1706.3124      127.90707      1.0877917      55331.694    
  10060000   438.87385      11717.455     -815.98953      575.96545      2901.4134      11975.191     -1716.1848      141.84662      1.0870884      55367.494    
  10080000   438.41522      11798.059     -858.69882      533.12395      3084.2428      11994.281     -1744.7667      135.01865      1.0852042      55463.626    
  10100000   442.16186      11799.086     -851.3868       541.68876      3051.9179      12044.359     -1769.7346      127.09736      1.0888261      55279.13     
  10120000   438.54363      11783.355     -873.07756      566.70183      3034.6738      11934.333     -1673.8405      138.70459      1.0918703      55125.007    
  10140000   442.45127      11810.245     -861.3854       551.44769      3063.0949      11938.279     -1671.6615      134.93161      1.0942142      55006.926    
  10160000   442.48263      11642.889     -893.48242      518.63201      3079.4355      11883.213     -1739.8888      140.07893      1.1064377      54399.232    
  10180000   440.94909      11801.912     -874.92085      534.43664      2916.6028      12071.333     -1646.5854      145.88434      1.1007711      54679.269    
  10200000   444.2408       11693.126     -880.62667      533.59214      2999.0014      11937.628     -1691.4827      139.85586      1.0955804      54938.333    
  10220000   444.40508      11740.313     -790.62607      536.1151       3092.6449      11871.491     -1779.2138      154.76009      1.0902052      55209.202    
  10240000   431.50343      11784.898     -781.16009      571.09374      3133.5979      11903.93      -1821.2426      123.22823      1.0903456      55202.094    
  10260000   440.31024      11908.418     -849.13149      564.37368      3080.4882      11947.02      -1643.3801      152.57788      1.0916368      55136.801    
  10280000   432.41475      11743.803     -926.86839      503.28903      2991.6298      11942.859     -1565.1364      142.81308      1.0997168      54731.688    
  10300000   441.94098      11912.624     -860.27026      563.51641      3107.7053      11939.257     -1638.3946      145.74384      1.0949465      54970.136    
  10320000   436.80944      11824.617     -898.56405      559.00626      3029.6408      12091.918     -1740.9563      128.49697      1.0990108      54766.849    
  10340000   441.40664      11897.402     -842.98153      554.94619      3165.4005      11907.329     -1673.0962      130.48809      1.0847187      55488.449    
  10360000   437.18592      11809.183     -804.65661      552.01373      3013.7154      11936.79      -1683.7724      138.70074      1.0889622      55272.219    
  10380000   439.72261      11810.658     -828.91139      542.10958      3156.0588      11888.899     -1728.4065      125.96706      1.0845453      55497.321    
  10400000   436.25511      11866.391     -790.7821       540.48659      3103.7067      11887.298     -1675.5137      145.60878      1.0936117      55037.232    
  10420000   444.6451       11717.104     -884.86122      548.75667      3047.975       11955.255     -1733.1649      128.26676      1.1017039      54632.97     
  10440000   445.71942      11835.357     -769.79396      532.99385      3122.779       11835.121     -1668.6534      127.82436      1.0847998      55484.299    
  10460000   438.33984      11790.957     -850.81595      556.50762      3044.7519      11942.48      -1709.1374      151.9029       1.0869614      55373.963    
  10480000   442.3864       11811.314     -824.94355      526.60807      3046.0088      11983.672     -1712.467       137.38535      1.0933525      55050.28     
  10500000   437.52564      11733.726     -866.99634      529.09218      3010.2022      11887.092     -1620.8239      139.76498      1.0994714      54743.905    
  10520000   440.79088      11804.828     -887.54061      522.69786      3121.8897      11876.708     -1621.4451      137.68686      1.1020692      54614.862    
  10540000   436.96861      11678.435     -766.04353      542.48686      3118.6464      11865.799     -1866.5575      127.72399      1.0932697      55054.447    
  10560000   431.49245      11759.741     -855.57192      530.5651       3037.8305      11931.616     -1677.1489      136.92694      1.0973455      54849.96     
  10580000   442.11001      11747.237     -851.02349      554.08859      3077.5525      11911.595     -1742.458       141.7769       1.099034       54765.692    
  10600000   436.64611      11728.768     -816.14015      504.50768      3114.8746      11871.241     -1749.9451      148.14322      1.0972114      54856.667    
  10620000   440.60625      11853.402     -858.69945      556.29075      3004.129       11928.393     -1580.7781      149.33721      1.0955688      54938.914    
  10640000   440.91269      11823.666     -830.22174      547.32194      3094.8212      11983.753     -1773.1346      145.71533      1.0954338      54945.686    
  10660000   439.20687      11776.899     -786.37297      544.61811      3080.0947      11812.65      -1664.637       133.82044      1.0903302      55202.874    
  10680000   440.20017      11796.909     -847.27261      526.45223      3007.8258      11875.603     -1555.6477      134.5725       1.0957072      54931.972    
  10700000   431.83874      11710.217     -773.64269      523.193        3011.5043      11895.933     -1730.3608      128.90449      1.0949085      54972.046    
  10720000   436.57438      11890.404     -764.53413      538.16597      3136.242       11931.096     -1731.8967      126.17382      1.0801226      55724.565    
  10740000   428.65039      11817.279     -805.0809       556.20052      3052.846       11922.328     -1704.3681      139.88741      1.0764262      55915.917    
  10760000   443.46059      11786.289     -848.63371      551.81498      3091.8578      11815.127     -1604.6239      125.56244      1.0826215      55595.938    
  10780000   434.45776      11967.239     -790.18483      554.55115      3155.221       11930.084     -1676.0371      138.88459      1.0799216      55734.932    
  10800000   434.68851      11849.495     -811.06852      537.46374      3018.5705      11836.655     -1549.1857      162.69479      1.0967187      54881.309    
  10800103   439.16897      11618.378     -834.93519      522.6773       2954.9488      11876.361     -1691.2405      136.14428      1.1019136      54622.576    
Loop time of 3978.52 on 24 procs for 1200000 steps with 5000 atoms

Performance: 6.515 ns/day, 3.684 hours/ns, 301.620 timesteps/s, 1.508 Matom-step/s
99.5% CPU use with 24 MPI tasks x no OpenMP threads

MPI task timing breakdown:
Section |  min time  |  avg time  |  max time  |%varavg| %total
---------------------------------------------------------------
Pair    | 1978       | 2160.2     | 2470.5     | 304.6 | 54.30
Bond    | 613.71     | 672.12     | 750.32     | 123.2 | 16.89
Kspace  | 537.12     | 926.95     | 1151       | 527.8 | 23.30
Neigh   | 37.942     | 38.046     | 38.154     |   1.4 |  0.96
Comm    | 128.98     | 133.19     | 137.2      |  22.5 |  3.35
Output  | 0.0042735  | 0.0046728  | 0.013475   |   2.7 |  0.00
Modify  | 32.911     | 35.279     | 36.541     |  19.1 |  0.89
Other   |            | 12.73      |            |       |  0.32

Nlocal:        208.333 ave         223 max         194 min
Histogram: 2 3 3 2 1 5 2 1 1 4
Nghost:        4610.25 ave        4645 max        4567 min
Histogram: 2 1 2 5 0 1 4 4 2 3
Neighs:        68857.8 ave       78633 max       59939 min
Histogram: 2 3 2 1 4 5 3 1 1 2

Total # of neighbors = 1652586
Ave neighs/atom = 330.5172
Ave special neighs/atom = 5.8564
Neighbor list builds = 12795
Dangerous builds = 0
unfix           fNPT
unfix           fMOM
next            a
jump            SELF loop
variable        a loop 26
variable        b equal 600-20*($a-1)
variable        b equal 600-20*(10-1)
fix             fMOM all momentum 100 linear 1 1 1 angular
fix             fNPT all npt temp $b $b $(100.0*dt) iso 1 1 $(100.0*dt)
fix             fNPT all npt temp 420 $b $(100.0*dt) iso 1 1 $(100.0*dt)
fix             fNPT all npt temp 420 420 $(100.0*dt) iso 1 1 $(100.0*dt)
fix             fNPT all npt temp 420 420 25 iso 1 1 $(100.0*dt)
fix             fNPT all npt temp 420 420 25 iso 1 1 25
run             1200000
PPPM initialization ...
  using 12-bit tables for long-range coulomb (../kspace.cpp:342)
  G vector (1/distance) = 0.11658328
  grid = 4 4 4
  stencil order = 5
  estimated absolute RMS force accuracy = 0.28586053
  estimated relative force accuracy = 0.00086086049
  using double precision KISS FFT
  3d grid and FFT values/proc = 294 4
Generated 36 of 36 mixed pair_coeff terms from sixthpower/sixthpower mixing rule
WARNING: Inconsistent image flags (../domain.cpp:815)
Per MPI rank memory allocation (min/avg/max) = 15.04 | 15.05 | 15.05 Mbytes
   Step          Temp          PotEng         E_vdwl         E_coul         E_bond        E_angle        E_dihed        E_impro        Density         Volume    
  10800103   439.16897      11618.77      -834.93519      528.56228      2954.9488      11876.361     -1691.2405      136.14428      1.1019136      54622.576    
  10820000   422.05503      11309.673     -861.11981      576.83162      2911.0431      11750.328     -1835.3216      118.30306      1.0890963      55265.415    
  10840000   419.60571      11486.633     -859.52115      546.70636      2956.0998      11781.721     -1731.443       143.50376      1.0996901      54733.018    
  10860000   426.41384      11372.739     -821.18497      525.86788      2913.5533      11667.982     -1694.2882      130.82293      1.1017596      54630.209    
  10880000   418.60005      11398.193     -878.02612      553.43741      2934.2312      11674.217     -1667.081       131.53397      1.0959196      54921.327    
  10900000   410.78722      11421.916     -838.36703      546.44203      3012.8187      11748.128     -1828.0745      131.86009      1.1000968      54712.784    
  10920000   423.70895      11426.188     -891.83392      549.36567      2964.1765      11739.913     -1716.6834      131.62027      1.0945871      54988.186    
  10940000   413.27441      11363.595     -869.38004      542.23241      2970.5697      11684.28      -1740.4628      126.39413      1.0943168      55001.767    
  10960000   422.35718      11327.797     -898.18458      546.3566       2897.4404      11778.366     -1779.783       134.04329      1.1024893      54594.055    
  10980000   418.93512      11592.956     -842.02015      581.61657      3071.5923      11835.482     -1825.764       122.59134      1.1023247      54602.206    
  11000000   427.72652      11502.861     -849.87559      555.29734      2875.0982      11835.833     -1691.4882      128.14243      1.0969227      54871.105    
  11020000   410.8198       11414.439     -926.38166      546.43421      2985.7923      11774.949     -1737.9155      121.89079      1.1000457      54715.327    
  11040000   420.75222      11399.736     -773.29549      534.64739      2914.2903      11721.967     -1777.5549      130.14551      1.0968262      54875.929    
  11060000   421.40066      11512.587     -829.81256      580.19863      2967.8748      11788.022     -1774.7429      131.64013      1.094448       54995.176    
  11080000   420.82211      11490.41      -821.85479      567.05737      2968.139       11763.664     -1771.2277      134.5954       1.08698        55373.014    
  11100000   417.71107      11217.89      -949.67342      541.28669      2883.3515      11619.314     -1648.3654      122.33029      1.0984997      54792.332    
  11120000   421.07559      11454.702     -913.32761      546.95826      2933.9581      11829.799     -1732.7375      138.94015      1.1002822      54703.564    
  11140000   422.96652      11319.468     -887.10574      568.88319      2907.1601      11745.849     -1790.3434      125.44413      1.1062955      54406.223    
  11160000   426.22338      11526.981     -894.57515      574.14439      2992.8663      11783.09      -1716.6591      137.49138      1.0954797      54943.381    
  11180000   418.78372      11454.086     -818.10153      576.53859      2984.7454      11672.55      -1739.6486      128.23308      1.0929095      55072.593    
  11200000   421.28124      11505.221     -887.41891      583.72747      2984.9806      11871.793     -1822.9324      125.48772      1.1006535      54685.11     
  11220000   417.58873      11478.515     -831.47575      556.92581      2950.0961      11806.055     -1783.075       130.28394      1.0961882      54907.871    
  11240000   421.60632      11441.994     -806.61002      531.31246      2900.2262      11738.53      -1696.378       125.2462       1.0951187      54961.492    
  11260000   426.52473      11530.102     -871.10833      521.49225      3027.2049      11909.744     -1833.0571      125.97096      1.1000271      54716.251    
  11280000   421.93967      11565.282     -847.94346      560.47436      3026.4279      11715.647     -1664.7402      125.49546      1.0989876      54768.007    
  11300000   422.3763       11529.913     -839.47792      557.22412      2946.6567      11786.869     -1701.2281      131.0828       1.0933699      55049.402    
  11320000   418.45103      11396.975     -845.77314      546.0186       2884.9931      11772.339     -1741.976       130.78756      1.0947725      54978.875    
  11340000   420.79144      11403.082     -871.99708      549.23018      2941.888       11804.972     -1801.2717      129.27411      1.0846773      55490.566    
  11360000   425.36682      11469.716     -851.87924      545.46029      2920.9932      11799.828     -1736.0997      140.30222      1.0913455      55151.515    
  11380000   413.22828      11472.357     -879.1084       535.73905      2955.0862      11851.951     -1773.7992      132.47377      1.0943627      54999.459    
  11400000   416.84772      11479.407     -829.34426      550.07563      2975.2034      11760.503     -1748.517       121.86993      1.0921676      55110.002    
  11420000   420.53189      11300.883     -883.48506      543.62029      2985.849       11769.179     -1899.6498      134.71135      1.0937136      55032.104    
  11440000   428.49479      11534.045     -837.25802      540.93607      2949.7953      11843.986     -1759.6077      146.65731      1.0968552      54874.481    
  11460000   422.74947      11417.026     -851.09199      535.01458      2975.1252      11823.299     -1852.759       137.77822      1.1043614      54501.505    
  11480000   421.75456      11449.288     -897.06715      529.81983      2943.898       11842.597     -1750.5936      130.27351      1.0961224      54911.164    
  11500000   414.61827      11547.426     -851.46786      545.48476      3057.8096      11743.396     -1727.9118      129.5099       1.0930222      55066.913    
  11520000   416.2912       11398.766     -870.02821      534.56531      2901.9538      11743.41      -1688.3862      126.0523       1.1059954      54420.986    
  11540000   414.02742      11439.159     -917.55403      560.08573      2963.7886      11797.35      -1745.7812      130.93109      1.0959555      54919.526    
  11560000   432.87201      11551.618     -902.30223      582.93518      2942.5301      11802.486     -1653.2921      129.4197       1.09558        54938.352    
  11580000   425.27578      11504.361     -920.31269      552.61491      3009.2323      11844.842     -1762.558       130.98279      1.0991208      54761.366    
  11600000   419.64553      11538.295     -831.71137      544.11516      2998.8679      11837.363     -1786.0499      125.6738       1.103261       54555.863    
  11620000   423.2989       11395.583     -854.33564      556.74193      2945.2387      11748.213     -1777.209       126.99942      1.0887788      55281.529    
  11640000   419.91345      11509.116     -850.64087      542.27342      2964.057       11796.817     -1722.3366      129.55284      1.0940166      55016.858    
  11660000   421.61465      11509.016     -835.14927      532.17597      2957.4213      11852.388     -1779.2335      131.64384      1.0942039      55007.441    
  11680000   416.56226      11480.836     -827.10964      547.96903      2939.9965      11757.726     -1721.9229      134.55682      1.0940525      55015.055    
  11700000   417.11968      11401.766     -817.77983      574.22104      2916.0251      11745.181     -1792.8979      127.07047      1.0887171      55284.663    
  11720000   425.9672       11445.125     -808.3781       551.48013      2924.6381      11756.863     -1758.4353      129.57752      1.0901942      55209.757    
  11740000   420.63726      11464.21      -903.47827      550.8839       2964.8916      11866.497     -1792.8407      128.59333      1.1002222      54706.546    
  11760000   426.86797      11382.045     -849.81336      528.36596      2934.106       11800.014     -1804.2609      124.10921      1.0913635      55150.607    
  11780000   419.6795       11436.059     -911.05878      570.40714      2915.4642      11789.513     -1706.1505      126.93022      1.0961718      54908.689    
  11800000   413.30546      11491.774     -866.03191      557.00854      2916.3688      11837.355     -1740.1325      137.44309      1.0984642      54794.103    
  11820000   410.29371      11364.938     -908.46544      531.63863      2871.4289      11789.087     -1706.4234      137.46837      1.1019957      54618.504    
  11840000   419.44532      11459.323     -869.96926      525.03695      3060.0387      11829.963     -1861.5633      126.39905      1.0981377      54810.395    
  11860000   421.74366      11451.935     -873.73349      525.1872       2899.3012      11664.509     -1556.7889      143.84228      1.1075945      54342.414    
  11880000   418.73284      11322.892     -903.16029      543.37073      2860.3627      11810.899     -1757.9828      119.22156      1.1022901      54603.918    
  11900000   425.98047      11448.486     -908.66558      559.44613      2844.164       11894.398     -1721.6828      130.49432      1.0950788      54963.496    
  11920000   416.25177      11493.347     -885.82791      539.78198      2877.8247      11921.01      -1742.9613      133.43952      1.101791       54628.652    
  11940000   426.57627      11495.642     -883.20989      582.05964      2939.1983      11737.96      -1654.3152      123.77614      1.096532       54890.655    
  11960000   414.71705      11396.239     -819.72344      542.41876      2852.4702      11738.022     -1693.0116      126.34523      1.1037287      54532.748    
  11980000   426.00634      11567.812     -869.82964      580.52983      3000.296       11822.698     -1747.5615      131.04829      1.0996117      54736.922    
  12000000   416.02024      11594.755     -823.43609      594.11392      2916.4727      11827.253     -1700.8503      131.93745      1.0983325      54800.673    
  12000103   420.29598      11548.466     -806.53079      579.08411      2934.5027      11776.377     -1714.3209      130.25909      1.0977318      54830.659    
Loop time of 3975.19 on 24 procs for 1200000 steps with 5000 atoms

Performance: 6.520 ns/day, 3.681 hours/ns, 301.873 timesteps/s, 1.509 Matom-step/s
99.5% CPU use with 24 MPI tasks x no OpenMP threads

MPI task timing breakdown:
Section |  min time  |  avg time  |  max time  |%varavg| %total
---------------------------------------------------------------
Pair    | 1934       | 2161.3     | 2510.8     | 327.0 | 54.37
Bond    | 611.28     | 671.4      | 746.3      | 127.3 | 16.89
Kspace  | 529.15     | 925.3      | 1209.1     | 568.4 | 23.28
Neigh   | 35.815     | 35.935     | 36.055     |   1.6 |  0.90
Comm    | 128.03     | 132.86     | 136.96     |  23.3 |  3.34
Output  | 0.0046278  | 0.0051387  | 0.01649    |   3.3 |  0.00
Modify  | 33.064     | 35.637     | 37.004     |  18.8 |  0.90
Other   |            | 12.72      |            |       |  0.32

Nlocal:        208.333 ave         229 max         187 min
Histogram: 2 0 3 3 2 7 3 0 2 2
Nghost:        4614.88 ave        4636 max        4586 min
Histogram: 1 1 3 1 2 5 2 1 6 2
Neighs:        68940.8 ave       80632 max       57347 min
Histogram: 2 0 2 4 3 7 0 3 2 1

Total # of neighbors = 1654579
Ave neighs/atom = 330.9158
Ave special neighs/atom = 5.8564
Neighbor list builds = 12010
Dangerous builds = 0
unfix           fNPT
unfix           fMOM
next            a
jump            SELF loop
variable        a loop 26
variable        b equal 600-20*($a-1)
variable        b equal 600-20*(11-1)
fix             fMOM all momentum 100 linear 1 1 1 angular
fix             fNPT all npt temp $b $b $(100.0*dt) iso 1 1 $(100.0*dt)
fix             fNPT all npt temp 400 $b $(100.0*dt) iso 1 1 $(100.0*dt)
fix             fNPT all npt temp 400 400 $(100.0*dt) iso 1 1 $(100.0*dt)
fix             fNPT all npt temp 400 400 25 iso 1 1 $(100.0*dt)
fix             fNPT all npt temp 400 400 25 iso 1 1 25
run             1200000
PPPM initialization ...
  using 12-bit tables for long-range coulomb (../kspace.cpp:342)
  G vector (1/distance) = 0.1164762
  grid = 4 4 4
  stencil order = 5
  estimated absolute RMS force accuracy = 0.28603046
  estimated relative force accuracy = 0.00086137223
  using double precision KISS FFT
  3d grid and FFT values/proc = 294 4
Generated 36 of 36 mixed pair_coeff terms from sixthpower/sixthpower mixing rule
WARNING: Inconsistent image flags (../domain.cpp:815)
Per MPI rank memory allocation (min/avg/max) = 15.04 | 15.05 | 15.05 Mbytes
   Step          Temp          PotEng         E_vdwl         E_coul         E_bond        E_angle        E_dihed        E_impro        Density         Volume    
  12000103   420.29598      11548.444     -806.53079      577.82357      2934.5027      11776.377     -1714.3209      130.25909      1.0977318      54830.659    
  12020000   406.29063      11124.43      -854.55253      571.61219      2893.1058      11493.618     -1768.2268      137.73208      1.1063956      54401.302    
  12040000   398.18834      11218.459     -953.85529      510.02222      2837.8611      11749.963     -1710.7799      134.55566      1.1050136      54469.336    
  12060000   402.70746      11186.183     -927.22883      548.6846       2879.5615      11675.181     -1768.1678      126.62252      1.1129646      54080.211    
  12080000   389.8388       11298.034     -972.86375      538.07496      2956.8946      11739.553     -1741.4379      127.72142      1.1175116      53860.165    
  12100000   396.08843      11094.159     -903.99801      536.32278      2920.2341      11614.957     -1851.7496      127.49062      1.1090216      54272.487    
  12120000   402.1381       11146.019     -943.87951      556.89931      2866.0115      11702.962     -1808.2563      120.67211      1.1156559      53949.751    
  12140000   403.87918      11224.268     -959.01804      514.95176      2950.5196      11761.625     -1826.9117      131.53318      1.1109489      54178.332    
  12160000   398.44667      11256.582     -898.36081      551.66662      2874.7516      11664.43      -1719.781       131.74682      1.1065995      54391.274    
  12180000   398.92715      11056.264     -949.31225      541.37075      2876.2125      11609.262     -1780.8175      107.31123      1.1073495      54354.439    
  12200000   396.18189      11122.636     -961.07154      545.5722       2816.3146      11747.503     -1785.3983      107.66916      1.1005725      54689.135    
  12220000   398.84422      11064.44      -890.06152      526.00807      2832.2075      11631.63      -1804.8878      117.45688      1.1041414      54512.365    
  12240000   401.3          11048.938     -889.03964      561.63726      2778.2594      11674.94      -1850.3436      121.28675      1.0997234      54731.359    
  12260000   402.84421      11051.256     -897.51288      552.18402      2872.5024      11649.163     -1893.7152      116.78519      1.1084695      54299.518    
  12280000   393.30641      11118.056     -957.77915      536.89879      2829.9602      11644.437     -1711.9843      125.16768      1.1210925      53688.129    
  12300000   400.19253      11123.66      -979.14945      556.00168      2839.3489      11678.495     -1756.046       133.96485      1.1102845      54210.755    
  12320000   407.96338      11098.822     -927.17852      549.95675      2857.7967      11683.026     -1824.9464      109.84346      1.1019168      54622.418    
  12340000   395.33526      11271.844     -867.28659      552.12489      2876.4995      11631.333     -1709.6573      137.4958       1.0993884      54748.041    
  12360000   397.12677      11104.496     -884.91008      552.37469      2872.509       11622.855     -1837.5374      128.50027      1.1101821      54215.754    
  12380000   403.09456      11105.386     -883.58344      527.67348      2902.1557      11696.775     -1909.5438      121.32869      1.1115089      54151.036    
  12400000   404.94289      11170.47      -924.38947      538.0153       2863.4682      11562.87      -1654.7533      133.08637      1.1069957      54371.808    
  12420000   392.72271      11282.451     -907.58995      570.14676      2951.8733      11665.582     -1773.7187      124.21829      1.1086379      54291.271    
  12440000   404.6966       11120.989     -962.98797      555.31627      2949.8154      11591.427     -1780.6022      116.28316      1.1088902      54278.915    
  12460000   408.16396      11149.987     -874.03955      531.0535       2889.3407      11664.258     -1834.4887      122.66013      1.1057953      54430.831    
  12480000   400.09841      11108.738     -907.69005      551.67365      2887.9351      11562.257     -1767.0834      129.72247      1.1097156      54238.544    
  12500000   397.86024      11161.187     -864.86448      582.74296      2762.6633      11687.167     -1791.7302      133.32077      1.1011028      54662.799    
  12520000   411.71817      11162.754     -902.82358      555.28455      2821.2354      11669.413     -1756.9861      125.40831      1.0994464      54745.149    
  12540000   399.74804      11056.807     -891.23201      543.63125      2861.033       11586.735     -1814.1338      119.93301      1.0971403      54860.222    
  12560000   404.36736      10998.355     -929.38557      550.07727      2775.1446      11655.335     -1820.198       116.30588      1.1028394      54576.721    
  12580000   405.42788      11190.942     -853.25081      572.59693      2883.3146      11661.032     -1843.3074      118.89509      1.1048218      54478.794    
  12600000   390.57316      10924.896     -860.855        527.06502      2801.5752      11567.624     -1888.575       125.31032      1.1071056      54366.414    
  12620000   401.06037      11071.909     -873.34718      531.92655      2903.9012      11590.731     -1846.3121      114.06026      1.1083145      54307.109    
  12640000   397.72944      11023.858     -943.92619      519.44053      2807.8549      11710.406     -1836.5548      114.72342      1.1025337      54591.855    
  12660000   402.24984      11234.243     -905.78931      546.99258      2944.9879      11721.825     -1848.4983      122.5343       1.0991973      54757.559    
  12680000   398.36401      11013.738     -955.66784      547.04046      2924.6369      11618.888     -1890.2277      115.22919      1.1086112      54292.576    
  12700000   395.08186      11218.775     -891.09087      568.16235      2797.4947      11684.215     -1727.3399      135.94459      1.1018553      54625.464    
  12720000   407.82488      11175.725     -928.91372      534.07213      2914.0522      11702.011     -1819.3798      122.41583      1.1108052      54185.343    
  12740000   398.49205      11112.066     -939.85546      541.12659      2847.9994      11792.417     -1909.1749      127.74299      1.1060098      54420.278    
  12760000   399.01986      10980.939     -935.27123      550.67909      2817.4627      11651.767     -1883.3216      128.00783      1.1096655      54240.995    
  12780000   398.83429      11075.36      -995.7094       529.25216      2859.9711      11760.768     -1850.4023      119.83558      1.1084616      54299.905    
  12800000   400.47871      11045.405     -947.10294      543.13403      2807.3635      11754.318     -1875.9883      111.37407      1.1069351      54374.787    
  12820000   401.69881      11003.915     -998.15207      572.44601      2802.2734      11641.979     -1770.4085      105.15424      1.1148903      53986.801    
  12840000   401.08692      11158.857     -936.64693      533.63373      2943.2425      11659.245     -1822.0552      130.00288      1.1157916      53943.191    
  12860000   399.04885      10959.006     -982.18391      545.69067      2851.3689      11535.919     -1769.0169      124.74645      1.1143857      54011.244    
  12880000   402.9184       11048.517     -967.58836      552.65084      2791.7875      11748.351     -1839.4028      111.58683      1.1126782      54094.132    
  12900000   402.96112      11101.229     -953.24533      539.70568      2808.8408      11628.779     -1703.6294      129.96692      1.1074952      54347.284    
  12920000   396.84744      11125.898     -868.20656      512.33301      2804.0305      11705.67      -1791.5265      113.13399      1.1068524      54378.849    
  12940000   400.42572      10971.211     -951.12257      539.14737      2742.8591      11747.897     -1871.2317      112.98123      1.108266       54309.487    
  12960000   399.23951      10879.835     -917.90023      545.84853      2771.1418      11655.746     -1941.4765      114.89622      1.1144111      54010.013    
  12980000   404.9839       11094.438     -913.9652       575.75966      2818.6051      11648.208     -1822.4789      137.80599      1.1066272      54389.912    
  13000000   400.04878      11042.567     -1009.3088      562.86666      2770.3937      11703.682     -1756.479       119.27066      1.1101052      54219.508    
  13020000   396.90722      11068.189     -966.42596      553.63038      2801.3122      11689.805     -1787.731       125.67634      1.114784       53991.949    
  13040000   396.16174      11026.103     -961.45031      575.93816      2755.0448      11658.458     -1777.6548      125.10243      1.109522       54248.01     
  13060000   395.44269      11174.844     -909.7683       551.0356       2913.8346      11657.407     -1815.3612      127.25419      1.1058887      54426.238    
  13080000   392.71513      10981.765     -930.01031      559.85476      2805.8012      11605.373     -1843.5578      133.08428      1.1032127      54558.255    
  13100000   397.61123      11047.097     -926.1098       547.22283      2774.258       11625.823     -1750.685       125.35221      1.1139987      54030.006    
  13120000   402.57419      11126.059     -897.63753      561.16196      2859.5997      11683.999     -1848.1546      116.59522      1.1084148      54302.197    
  13140000   408.78824      11184.508     -914.93068      544.95662      2895.2935      11660.205     -1767.2701      113.79923      1.1069774      54372.71     
  13160000   396.39237      11123.661     -942.40846      568.08975      2858.6194      11596.45      -1737.837       129.7053       1.1036954      54534.392    
  13180000   396.94231      11133.465     -964.21866      542.99654      2886.6676      11749.963     -1849.6711      115.64016      1.1191463      53781.492    
  13200000   392.805        11150.951     -980.45341      533.72062      2899.67        11688.182     -1771.5743      128.92386      1.112517       54101.968    
  13200103   399.38914      11106.752     -919.23001      543.92059      2876.7839      11664.034     -1833.3721      122.35561      1.1176632      53852.857    
Loop time of 4010.86 on 24 procs for 1200000 steps with 5000 atoms

Performance: 6.462 ns/day, 3.714 hours/ns, 299.188 timesteps/s, 1.496 Matom-step/s
99.5% CPU use with 24 MPI tasks x no OpenMP threads

MPI task timing breakdown:
Section |  min time  |  avg time  |  max time  |%varavg| %total
---------------------------------------------------------------
Pair    | 1957.4     | 2188.1     | 2571       | 311.5 | 54.55
Bond    | 613.5      | 671.16     | 740.36     | 118.6 | 16.73
Kspace  | 481.4      | 934.45     | 1191.9     | 534.0 | 23.30
Neigh   | 33.759     | 33.86      | 33.964     |   1.3 |  0.84
Comm    | 129.19     | 134        | 137.88     |  21.7 |  3.34
Output  | 0.0036123  | 0.0039801  | 0.011936   |   2.6 |  0.00
Modify  | 34.136     | 36.413     | 37.574     |  18.1 |  0.91
Other   |            | 12.89      |            |       |  0.32

Nlocal:        208.333 ave         232 max         194 min
Histogram: 2 6 3 3 2 4 1 1 1 1
Nghost:        4651.54 ave        4697 max        4605 min
Histogram: 1 1 2 4 4 5 2 2 1 2
Neighs:        69835.9 ave       84882 max       62485 min
Histogram: 7 2 2 5 3 2 1 0 1 1

Total # of neighbors = 1676062
Ave neighs/atom = 335.2124
Ave special neighs/atom = 5.8564
Neighbor list builds = 11264
Dangerous builds = 0
unfix           fNPT
unfix           fMOM
next            a
jump            SELF loop
variable        a loop 26
variable        b equal 600-20*($a-1)
variable        b equal 600-20*(12-1)
fix             fMOM all momentum 100 linear 1 1 1 angular
fix             fNPT all npt temp $b $b $(100.0*dt) iso 1 1 $(100.0*dt)
fix             fNPT all npt temp 380 $b $(100.0*dt) iso 1 1 $(100.0*dt)
fix             fNPT all npt temp 380 380 $(100.0*dt) iso 1 1 $(100.0*dt)
fix             fNPT all npt temp 380 380 25 iso 1 1 $(100.0*dt)
fix             fNPT all npt temp 380 380 25 iso 1 1 25
run             1200000
PPPM initialization ...
  using 12-bit tables for long-range coulomb (../kspace.cpp:342)
  G vector (1/distance) = 0.11698337
  grid = 4 4 4
  stencil order = 5
  estimated absolute RMS force accuracy = 0.28521836
  estimated relative force accuracy = 0.00085892662
  using double precision KISS FFT
  3d grid and FFT values/proc = 294 4
Generated 36 of 36 mixed pair_coeff terms from sixthpower/sixthpower mixing rule
WARNING: Inconsistent image flags (../domain.cpp:815)
Per MPI rank memory allocation (min/avg/max) = 15.04 | 15.05 | 15.05 Mbytes
   Step          Temp          PotEng         E_vdwl         E_coul         E_bond        E_angle        E_dihed        E_impro        Density         Volume    
  13200103   399.38914      11106.911     -919.23001      549.93037      2876.7839      11664.034     -1833.3721      122.35561      1.1176632      53852.857    
  13220000   374.02309      10717.316     -991.17745      544.20593      2718.3541      11567.593     -1876.5478      108.54231      1.1105002      54200.223    
  13240000   386.09231      10785.136     -963.73888      569.67121      2776.0481      11492.904     -1852.2761      116.5782       1.1179575      53838.684    
  13260000   376.422        10785.361     -1003.9266      545.53904      2761.8491      11611.686     -1895.3633      119.41735      1.1102299      54213.417    
  13280000   376.41586      10631.091     -1000.8663      543.89524      2707.6503      11484.381     -1869.9236      120.62056      1.1199869      53741.127    
  13300000   376.58146      10742.355     -1007.7075      526.33371      2796.7806      11614.794     -1947.3383      113.75552      1.1176328      53854.322    
  13320000   382.02619      10703.492     -1003.5762      548.78855      2708.6363      11629.429     -1939.1155      113.99684      1.1266264      53424.419    
  13340000   392.99229      10748.601     -993.10944      552.07401      2671.7124      11653.114     -1900.1388      119.61257      1.1259992      53454.174    
  13360000   379.47532      10809.508     -974.47274      534.44343      2693.1067      11581.621     -1797.6502      126.46461      1.1128459      54085.978    
  13380000   378.27335      10685.955     -992.09559      553.90944      2669.0921      11618.234     -1909.5542      100.56645      1.1238918      53554.406    
  13400000   383.14399      10820.623     -968.40726      540.77213      2761.1555      11717.586     -1997.6082      119.33265      1.1175472      53858.45     
  13420000   377.86094      10711.199     -987.03174      531.65987      2716.0397      11500.104     -1824.9943      128.99691      1.1127955      54088.427    
  13440000   375.30511      10746.008     -1009.6137      533.70919      2761.7711      11552.278     -1846.9957      108.26812      1.1160083      53932.716    
  13460000   380.67354      10792.41      -1010.2535      559.13497      2698.6577      11595.634     -1819.3624      122.35681      1.1151155      53975.896    
  13480000   385.29026      10723.182     -1026.7609      546.85304      2755.9319      11546.467     -1855.4864      110.203        1.1131034      54073.467    
  13500000   382.66513      10856.45      -955.91502      538.12996      2723.6093      11607.28      -1834.9117      130.95381      1.1095002      54249.075    
  13520000   382.98885      10725.986     -988.49862      525.58786      2693.105       11617.873     -1890.5625      122.85303      1.1140217      54028.894    
  13540000   384.01402      10750.702     -971.06226      540.51311      2736.9084      11572.613     -1900.7605      127.52         1.1104812      54201.149    
  13560000   376.3648       10736.906     -937.80133      550.27241      2640.4071      11598.716     -1885.785       125.78986      1.1080739      54318.904    
  13580000   368.39972      10936.517     -965.04727      540.97294      2789.7972      11644.467     -1830.5629      111.07516      1.1183707      53818.79     
  13600000   379.9169       10841.733     -917.31714      563.53377      2784.3704      11569.222     -1913.4547      108.1389       1.1066472      54388.933    
  13620000   388.0235       10754.558     -941.70619      543.99374      2713.44        11535.262     -1854.7694      112.70909      1.1227979      53606.582    
  13640000   376.57442      10740.653     -969.62826      540.52027      2763.818       11549.909     -1910.1524      119.18878      1.1097954      54234.643    
  13660000   385.88196      10858.385     -990.98193      546.76523      2704.5936      11749.68      -1918.4197      119.43072      1.1063793      54402.099    
  13680000   383.09242      10757.708     -975.62088      549.15703      2756.0036      11583.66      -1918.6364      116.96853      1.1138578      54036.842    
  13700000   378.85871      10873.797     -959.92721      531.76397      2804.8589      11650.051     -1903.267       102.22097      1.1181745      53828.235    
  13720000   373.61138      10686.856     -956.31027      554.56798      2684.9547      11549.704     -1901.8174      109.04014      1.1163821      53914.659    
  13740000   372.42473      10758.385     -964.72398      550.47505      2690.4461      11562.604     -1837.7712      110.56839      1.1122311      54115.874    
  13760000   382.8512       10747.714     -907.68472      547.90113      2738.5463      11590.559     -1979.1733      112.2745       1.1049557      54472.189    
  13780000   386.94333      10821.664     -930.4417       520.48072      2738.8029      11577.325     -1849.3854      119.39661      1.1207535      53704.366    
  13800000   384.92502      10712.336     -995.45571      559.9104       2738.4593      11531.983     -1893.0641      124.39916      1.1058946      54425.947    
  13820000   382.1557       10720.32      -954.56747      561.99608      2712.3544      11650.183     -2013.4874      116.7392       1.1151029      53976.505    
  13840000   373.80035      10869.576     -962.12573      575.84864      2753.9253      11630.169     -1900.9245      126.33011      1.1077784      54333.392    
  13860000   373.26173      10795.212     -970.61621      565.63255      2778.8971      11616.979     -1952.2606      108.76463      1.1065823      54392.123    
  13880000   376.91411      10653.49      -1008.1248      535.27097      2653.5103      11636.697     -1936.6036      127.16109      1.1154307      53960.645    
  13900000   377.73576      10824.467     -994.90307      554.38986      2796.2484      11610.131     -1912.5099      124.768        1.1164424      53911.746    
  13920000   384.41919      10731.27      -983.08826      546.89771      2728.3761      11560.523     -1892.3711      123.25831      1.1110158      54175.069    
  13940000   384.88772      10705.572     -1001.514       528.82132      2688.5707      11524.679     -1805.3305      124.25427      1.1135171      54053.377    
  13960000   373.65652      10606.75      -1001.7679      540.2239       2690.9655      11512.257     -1894.3541      113.61045      1.116072       53929.64     
  13980000   379.36563      10729.235     -963.66976      516.54263      2733.9648      11569.686     -1884.0195      111.56588      1.1087383      54286.351    
  14000000   386.7458       10720.784     -993.90415      556.24427      2742.0673      11577.607     -1919.2327      112.61506      1.1116194      54145.652    
  14020000   391.69421      10638.948     -1028.3076      533.11807      2673.0409      11480.597     -1771.9452      106.9577       1.1199375      53743.5      
  14040000   384.5923       10702.374     -927.11269      559.11639      2804.3767      11491.402     -1977.3881      107.38691      1.1015113      54642.523    
  14060000   373.23606      10671.819     -1021.1745      533.14648      2688.7114      11516.144     -1798.5805      108.81038      1.1125617      54099.795    
  14080000   376.61541      10750.512     -1001.3545      537.03482      2728.2734      11609.275     -1896.3612      129.09218      1.1119937      54127.428    
  14100000   387.10768      10737.68      -1008.6708      535.48149      2803.8378      11544.956     -1883.5787      99.90174       1.1280941      53354.908    
  14120000   377.91725      10794.011     -989.26362      548.48255      2780.1819      11564.437     -1865.9399      111.14708      1.1196726      53756.214    
  14140000   384.45141      10816.886     -956.75729      575.06936      2717.5946      11649.757     -1937.7533      124.03601      1.1161665      53925.072    
  14160000   380.47774      10665.977     -1013.1833      549.4961       2683.8887      11607.259     -1915.5009      107.8941       1.119461       53766.375    
  14180000   375.51683      10796.57      -944.22461      558.24652      2755.7499      11572.16      -1911.4907      120.45335      1.12495        53504.028    
  14200000   387.05894      10588.077     -987.95022      579.17567      2659.9361      11548.913     -1967.2495      109.78034      1.119581       53760.612    
  14220000   385.07873      10768.007     -996.61429      555.03308      2692.8506      11639.104     -1886.7727      119.20717      1.1165866      53904.784    
  14240000   378.64166      10726.906     -1026.391       561.20034      2708.5031      11591.244     -1855.5887      102.46358      1.1265137      53429.763    
  14260000   383.56319      10715.427     -1035.8386      548.90104      2809.426       11474.533     -1851.5029      123.9975       1.1153267      53965.676    
  14280000   378.76405      10735.801     -1042.4309      556.35167      2685.4538      11646.184     -1884.5516      129.42462      1.1171447      53877.852    
  14300000   383.17219      10687.526     -980.33394      540.47327      2792.8394      11487.582     -1893.4048      94.598036      1.1320707      53167.49     
  14320000   382.14884      10885.721     -977.83974      542.46378      2785.9634      11656.169     -1888.6388      122.15038      1.1130709      54075.045    
  14340000   382.73992      10667.389     -911.53124      551.13081      2769.8553      11458.678     -1968.4707      121.50487      1.1142503      54017.81     
  14360000   378.43273      10802.496     -963.5572       544.78399      2719.0188      11581.76      -1838.328       112.71569      1.1147525      53993.475    
  14380000   381.0468       10764.044     -965.41923      554.7621       2825.8274      11495.694     -1909.7415      116.79865      1.1134429      54056.978    
  14400000   385.16486      10745.402     -971.45446      540.4226       2713.0031      11568.332     -1852.7444      101.8524       1.1189177      53792.479    
  14400103   375.23068      10814.123     -1016.7563      544.4955       2752.8931      11599.577     -1827.9679      115.7773       1.1156496      53950.056    
Loop time of 3995.37 on 24 procs for 1200000 steps with 5000 atoms

Performance: 6.488 ns/day, 3.699 hours/ns, 300.348 timesteps/s, 1.502 Matom-step/s
99.5% CPU use with 24 MPI tasks x no OpenMP threads

MPI task timing breakdown:
Section |  min time  |  avg time  |  max time  |%varavg| %total
---------------------------------------------------------------
Pair    | 2005.1     | 2203.5     | 2566.1     | 304.1 | 55.15
Bond    | 630.23     | 670.48     | 736.2      | 106.6 | 16.78
Kspace  | 477.84     | 907.27     | 1149.5     | 519.9 | 22.71
Neigh   | 31.154     | 31.237     | 31.347     |   1.4 |  0.78
Comm    | 129.14     | 134.04     | 138.32     |  22.9 |  3.35
Output  | 0.0039976  | 0.0043365  | 0.011651   |   2.3 |  0.00
Modify  | 33.241     | 35.681     | 36.987     |  18.7 |  0.89
Other   |            | 13.11      |            |       |  0.33

Nlocal:        208.333 ave         222 max         195 min
Histogram: 2 2 2 5 3 0 4 3 0 3
Nghost:        4648.21 ave        4679 max        4621 min
Histogram: 2 3 3 4 2 1 3 2 3 1
Neighs:        69973.8 ave       82882 max       60552 min
Histogram: 2 2 5 3 5 3 1 1 0 2

Total # of neighbors = 1679371
Ave neighs/atom = 335.8742
Ave special neighs/atom = 5.8564
Neighbor list builds = 10487
Dangerous builds = 0
unfix           fNPT
unfix           fMOM
next            a
jump            SELF loop
variable        a loop 26
variable        b equal 600-20*($a-1)
variable        b equal 600-20*(13-1)
fix             fMOM all momentum 100 linear 1 1 1 angular
fix             fNPT all npt temp $b $b $(100.0*dt) iso 1 1 $(100.0*dt)
fix             fNPT all npt temp 360 $b $(100.0*dt) iso 1 1 $(100.0*dt)
fix             fNPT all npt temp 360 360 $(100.0*dt) iso 1 1 $(100.0*dt)
fix             fNPT all npt temp 360 360 25 iso 1 1 $(100.0*dt)
fix             fNPT all npt temp 360 360 25 iso 1 1 25
run             1200000
PPPM initialization ...
  using 12-bit tables for long-range coulomb (../kspace.cpp:342)
  G vector (1/distance) = 0.11693249
  grid = 4 4 4
  stencil order = 5
  estimated absolute RMS force accuracy = 0.28530065
  estimated relative force accuracy = 0.00085917442
  using double precision KISS FFT
  3d grid and FFT values/proc = 294 4
Generated 36 of 36 mixed pair_coeff terms from sixthpower/sixthpower mixing rule
WARNING: Inconsistent image flags (../domain.cpp:815)
Per MPI rank memory allocation (min/avg/max) = 15.04 | 15.05 | 15.05 Mbytes
   Step          Temp          PotEng         E_vdwl         E_coul         E_bond        E_angle        E_dihed        E_impro        Density         Volume    
  14400103   375.23068      10814.081     -1016.7563      543.86586      2752.8931      11599.577     -1827.9679      115.7773       1.1156496      53950.056    
  14420000   359.86768      10364.121     -1052.658       546.73428      2586.1433      11483.86      -1943.299       97.150468      1.1291003      53307.361    
  14440000   365.60919      10425.832     -1029.3128      566.58026      2565.6915      11433.872     -1870.5992      112.33636      1.1209712      53693.938    
  14460000   354.19267      10373.714     -1029.8941      531.76469      2537.2752      11467.552     -1886.2609      106.17874      1.1219421      53647.474    
  14480000   363.56446      10417.814     -1031.6937      531.34642      2607.7013      11509.769     -1953.1932      106.81448      1.1230167      53596.139    
  14500000   355.08         10396.908     -1044.8646      553.01783      2629.8195      11401.447     -1885.9796      96.518589      1.1286132      53330.371    
  14520000   362.84606      10457.203     -1049.5191      531.88134      2643.9616      11494.8       -1920.9185      110.57296      1.1278588      53366.042    
  14540000   368.84041      10439.39      -1002.7914      526.32626      2690.8623      11478.678     -2003.6137      103.43679      1.1279017      53364.013    
  14560000   356.04385      10409.781     -1031.3361      570.04276      2643.6373      11472.714     -2000.6944      109.03469      1.1340421      53075.067    
  14580000   369.4579       10446.28      -1025.9737      564.30697      2627.8234      11429.739     -1909.9913      112.97638      1.1131244      54072.443    
  14600000   358.24356      10498.063     -1043.3719      573.28309      2597.5903      11562.803     -1958.436       119.93772      1.1357467      52995.408    
  14620000   365.64954      10276.119     -1087.0225      555.80483      2606.4128      11453.899     -2001.3195      101.84732      1.1290356      53310.419    
  14640000   361.19625      10391.407     -1059.7347      537.97361      2615.3845      11472.117     -1922.6531      101.98253      1.1317007      53184.872    
  14660000   353.74768      10424.292     -1026.449       524.135        2667.0742      11377.071     -1876.4343      112.21924      1.1163597      53915.739    
  14680000   369.60277      10328.75      -1063.2694      532.71494      2610.8287      11453.075     -1946.8529      96.514703      1.1259154      53458.155    
  14700000   361.74395      10448.6       -1048.389       538.35805      2593.279       11512.452     -1917.504       123.70197      1.1217847      53655.003    
  14720000   363.00066      10408.355     -1042.6782      527.86629      2607.3887      11515.038     -1953.0625      107.62765      1.1348039      53039.435    
  14740000   360.13266      10248.799     -1068.1043      549.58236      2612.9599      11350.958     -1936.4193      92.795246      1.1209367      53695.59     
  14760000   363.64153      10456.394     -1005.3343      542.6855       2686.6876      11479.824     -2013.4515      118.86076      1.1226165      53615.245    
  14780000   362.24828      10444.052     -1008.0609      551.94479      2596.0135      11463.924     -1929.4958      123.56453      1.1259025      53458.766    
  14800000   355.86119      10497.982     -1027.8236      568.4581       2693.4231      11464.582     -1956.8497      110.15414      1.125468       53479.405    
  14820000   363.54341      10414.57      -1080.197       567.06511      2583.7779      11483.439     -1908.6514      122.99077      1.1247072      53515.581    
  14840000   359.44165      10466.98      -1055.9596      541.40734      2615.8598      11473.626     -1864.3551      109.91781      1.12053        53715.081    
  14860000   358.63241      10475.646     -1030.2396      542.29967      2629.8766      11477.875     -1900.7363      110.40401      1.1259642      53455.836    
  14880000   360.9693       10356.755     -1055.4738      583.08147      2611.9128      11362.822     -1907.8405      114.79911      1.1246177      53519.838    
  14900000   358.83694      10483.073     -1022.0798      561.60081      2666.9621      11516.588     -1993.6722      107.17672      1.1246525      53518.182    
  14920000   362.5067       10467.838     -1007.1404      545.89588      2678.4105      11404.846     -1912.1386      112.68221      1.1272517      53394.784    
  14940000   358.45038      10410.725     -1025.993       558.8718       2638.4783      11502.044     -2012.6309      103.81027      1.1306874      53232.537    
  14960000   370.28454      10333.004     -1023.1592      575.957        2604.376       11356         -1928.5606      102.661        1.1216595      53660.99     
  14980000   357.47942      10505.057     -1034.6555      547.85732      2657.042       11478.841     -1896.0192      106.64912      1.1248299      53509.742    
  15000000   358.72554      10497.501     -1053.7349      560.8333       2668.2214      11486.611     -1917.6906      108.31817      1.1266749      53422.117    
  15020000   361.8396       10458.692     -1030.5308      561.30144      2611.1518      11401.148     -1847.4163      116.84222      1.1250273      53500.352    
  15040000   355.17395      10295.802     -1072.4623      544.85025      2656.621       11474.537     -2041.7362      87.765347      1.120599       53711.774    
  15060000   353.61436      10464.046     -1067.5414      544.10693      2684.8732      11503.666     -1954.3019      107.34888      1.1227976      53606.598    
  15080000   353.79052      10413.452     -1017.9256      541.56905      2712.8812      11453.785     -2020.0038      97.219497      1.1333481      53107.566    
  15100000   348.64892      10468.299     -1049.3074      547.42913      2658.8177      11472.94      -1915.4478      107.94571      1.1276008      53378.25     
  15120000   356.12757      10386.895     -1044.5616      562.89417      2593.8146      11436.496     -1917.4967      109.79481      1.1302806      53251.697    
  15140000   362.00864      10436.542     -1066.8761      531.21716      2715.1488      11420.152     -1916.7036      107.96241      1.1340847      53073.071    
  15160000   349.77257      10378.516     -1035.5878      547.86167      2658.6332      11523.293     -2064.2754      103.19641      1.1276003      53378.273    
  15180000   364.82324      10384.768     -1025.7448      545.29107      2573.2579      11503.347     -1940.1364      82.778624      1.1230977      53592.275    
  15200000   359.67552      10356.11      -1054.3495      546.74354      2511.2796      11506.373     -1904.4565      103.77347      1.1339859      53077.698    
  15220000   365.35289      10355.6       -1042.7785      524.72388      2629.3332      11418.633     -1938.1968      117.63555      1.1264902      53430.877    
  15240000   357.84997      10430.744     -1059.7945      554.21644      2619.0554      11506.631     -1956.6887      120.92308      1.1222085      53634.739    
  15260000   364.2714       10365.362     -1052.5747      543.28899      2628.5471      11495.126     -2003.8988      108.99669      1.1233243      53581.46     
  15280000   354.8509       10378.718     -1024.2888      537.32362      2617.7227      11428.506     -1932.3422      105.8731       1.1236807      53564.467    
  15300000   360.17237      10401.772     -1012.7808      525.60998      2657.1748      11514.081     -2026.5022      98.914786      1.1285264      53334.469    
  15320000   351.46017      10403.406     -1062.9932      547.94997      2568.4613      11406.037     -1813.6494      112.68922      1.1257976      53463.75     
  15340000   360.03822      10434.875     -1096.578       548.13805      2643.2947      11515.458     -1930.7848      110.12167      1.12703        53405.283    
  15360000   357.55235      10341.373     -1046.7368      518.99836      2649.9617      11356.326     -1886.7527      104.28588      1.1284566      53337.768    
  15380000   369.69942      10435.407     -980.80299      531.59569      2575.0132      11489.319     -1926.1843      100.54843      1.1228519      53604.005    
  15400000   360.54701      10433.27      -1052.9936      557.34829      2624.9835      11542.095     -1989.5169      104.71111      1.1204859      53717.194    
  15420000   365.05499      10387.618     -963.46519      533.18279      2605.213       11466.417     -2010.0799      109.98         1.1210481      53690.258    
  15440000   369.88148      10466.571     -975.96344      539.31691      2643.7722      11487.432     -1978.6782      105.22517      1.124829       53509.786    
  15460000   359.99654      10316.893     -1022.1861      540.56375      2499.7713      11457.525     -1923.5555      119.30679      1.1163032      53918.468    
  15480000   360.7418       10402.391     -1056.7438      545.75263      2583.1429      11459.216     -1876.4272      101.56289      1.1264079      53434.778    
  15500000   358.93135      10403.169     -1059.5322      540.62603      2577.7794      11449.976     -1861.281       110.27911      1.1233316      53581.112    
  15520000   353.12624      10467.742     -1009.5407      552.77841      2646.7463      11391.978     -1863.1374      102.6276       1.1223574      53627.622    
  15540000   363.32099      10511.331     -1029.1367      549.04129      2716.4011      11510.697     -1994.9731      112.00363      1.1281844      53350.639    
  15560000   356.43351      10385.674     -984.92205      555.79103      2639.6282      11430.958     -2014.1264      112.28669      1.1347213      53043.297    
  15580000   361.59767      10377.937     -1047.6178      507.38754      2569.5775      11587.264     -1977.943       93.077743      1.1273577      53389.762    
  15600000   360.9416       10362.365     -1101.4179      529.25896      2648.7484      11440.882     -1906.2847      105.25962      1.1247261      53514.683    
  15600103   358.33045      10404.871     -1049.661       519.88714      2629.4069      11452.813     -1888.0553      94.486667      1.1276974      53373.677    
Loop time of 3980.64 on 24 procs for 1200000 steps with 5000 atoms

Performance: 6.512 ns/day, 3.686 hours/ns, 301.459 timesteps/s, 1.507 Matom-step/s
99.5% CPU use with 24 MPI tasks x no OpenMP threads

MPI task timing breakdown:
Section |  min time  |  avg time  |  max time  |%varavg| %total
---------------------------------------------------------------
Pair    | 1949.4     | 2219.5     | 2549.1     | 322.6 | 55.76
Bond    | 613.79     | 670.33     | 722.91     | 108.7 | 16.84
Kspace  | 496.7      | 880.16     | 1206.9     | 560.2 | 22.11
Neigh   | 28.79      | 28.865     | 28.956     |   1.3 |  0.73
Comm    | 128.93     | 133.64     | 137.54     |  22.6 |  3.36
Output  | 0.0036915  | 0.0041121  | 0.01345    |   3.0 |  0.00
Modify  | 33.003     | 35.343     | 36.727     |  18.3 |  0.89
Other   |            | 12.76      |            |       |  0.32

Nlocal:        208.333 ave         225 max         192 min
Histogram: 2 2 2 3 4 3 2 2 2 2
Nghost:        4679.04 ave        4728 max        4632 min
Histogram: 2 0 3 2 4 5 3 4 0 1
Neighs:        70394.7 ave       80036 max       60286 min
Histogram: 1 3 1 4 3 2 5 1 2 2

Total # of neighbors = 1689473
Ave neighs/atom = 337.8946
Ave special neighs/atom = 5.8564
Neighbor list builds = 9701
Dangerous builds = 0
unfix           fNPT
unfix           fMOM
next            a
jump            SELF loop
variable        a loop 26
variable        b equal 600-20*($a-1)
variable        b equal 600-20*(14-1)
fix             fMOM all momentum 100 linear 1 1 1 angular
fix             fNPT all npt temp $b $b $(100.0*dt) iso 1 1 $(100.0*dt)
fix             fNPT all npt temp 340 $b $(100.0*dt) iso 1 1 $(100.0*dt)
fix             fNPT all npt temp 340 340 $(100.0*dt) iso 1 1 $(100.0*dt)
fix             fNPT all npt temp 340 340 25 iso 1 1 $(100.0*dt)
fix             fNPT all npt temp 340 340 25 iso 1 1 25
run             1200000
PPPM initialization ...
  using 12-bit tables for long-range coulomb (../kspace.cpp:342)
  G vector (1/distance) = 0.11723571
  grid = 4 4 4
  stencil order = 5
  estimated absolute RMS force accuracy = 0.28480756
  estimated relative force accuracy = 0.0008576895
  using double precision KISS FFT
  3d grid and FFT values/proc = 294 4
Generated 36 of 36 mixed pair_coeff terms from sixthpower/sixthpower mixing rule
WARNING: Inconsistent image flags (../domain.cpp:815)
Per MPI rank memory allocation (min/avg/max) = 15.04 | 15.05 | 15.05 Mbytes
   Step          Temp          PotEng         E_vdwl         E_coul         E_bond        E_angle        E_dihed        E_impro        Density         Volume    
  15600103   358.33045      10405.039     -1049.661       523.5563       2629.4069      11452.813     -1888.0553      94.486667      1.1276974      53373.677    
  15620000   333.41129      10059.803     -1083.2218      541.134        2513.3034      11285.624     -1944.3198      105.3125       1.135026       53029.057    
  15640000   332.90205      10153.259     -1061.9928      551.14898      2529.4808      11364.24      -1975.2605      103.75837      1.1256452      53470.987    
  15660000   341.76686      10141.675     -1054.7089      544.17994      2601.4615      11362.509     -2046.6948      93.189935      1.1282756      53346.326    
  15680000   338.78617      10160.5       -1112.7025      525.64956      2531.7244      11384.322     -1908.201       97.758185      1.1206191      53710.81     
  15700000   346.11833      10032.275     -1054.7786      546.01453      2536.1982      11205.411     -1945.2165      101.98418      1.1297791      53275.333    
  15720000   338.21297      10135.235     -1119.1189      539.09948      2536.9298      11422.132     -1989.0775      103.69795      1.1255982      53473.217    
  15740000   340.19358      10098.044     -1077.1631      565.84627      2553.8647      11245.846     -1930.2984      97.356611      1.1223531      53627.828    
  15760000   341.04767      10153.001     -1068.9564      568.493        2565.7805      11348.575     -1996.3411      93.077712      1.1236834      53564.339    
  15780000   339.52943      10224.95      -1113.6299      547.56073      2592.2042      11448.759     -1998.5851      106.56847      1.1332498      53112.172    
  15800000   338.69386      10164.378     -1031.827       527.21372      2592.5761      11365.2       -2031.7461      100.12252      1.1267134      53420.29     
  15820000   338.31449      10168.372     -1061.5703      542.97607      2508.4863      11408.623     -1974.071       102.06277      1.1412577      52739.498    
  15840000   338.46455      10245.798     -1084.3447      560.96831      2610.6148      11438.529     -2020.6201      98.354141      1.1232287      53586.024    
  15860000   335.89755      10057.894     -1146.2806      558.7746       2527.7058      11391.04      -2007.4227      91.287721      1.1304372      53244.319    
  15880000   343.78947      9990.5153     -1072.3835      533.12874      2475.1357      11375.85      -2053.8316      90.489519      1.1229479      53599.423    
  15900000   332.1819       10051.129     -1185.0594      536.75527      2485.3026      11408.039     -1936.5264      99.751515      1.1387117      52857.415    
  15920000   352.90945      10126.911     -1094.739       562.22755      2505.341       11315.47      -1907.6279      104.03535      1.1355933      53002.566    
  15940000   338.37024      9952.5797     -1044.8147      515.30915      2431.9388      11215.072     -1909.1797      101.9248       1.124483       53526.248    
  15960000   345.09234      10142.168     -1097.4271      579.11303      2528.4632      11347.062     -1966.5733      108.84463      1.1301445      53258.107    
  15980000   349.43076      10053.254     -1045.2727      543.37367      2506.4465      11305.324     -1994.5517      96.419632      1.1360465      52981.421    
  16000000   340.69662      10022.64      -1046.1855      558.5306       2576.222       11337.925     -2143.4656      97.264228      1.1264185      53434.277    
  16020000   342.29637      10204.795     -1075.3007      557.64261      2569.2171      11472.929     -2066.248       103.65973      1.1305706      53238.035    
  16040000   336.92574      10086.87      -1129.99        536.16485      2516.0968      11391.569     -1976.4146      106.11039      1.1315727      53190.889    
  16060000   336.82191      10055.417     -1017.4856      521.29942      2435.8346      11401.226     -2024.7542      96.544868      1.1273676      53389.293    
  16080000   340.48768      10115.236     -1082.4271      533.11355      2524.2135      11395.237     -2000.2571      102.31839      1.1328566      53130.606    
  16100000   342.55061      10206.033     -1094.5063      528.10178      2539.3959      11389.575     -1899.1852      99.935433      1.1344355      53056.66     
  16120000   341.49212      10051.912     -1072.9481      541.58905      2495.3344      11336.036     -1988.838       97.612929      1.1366078      52955.259    
  16140000   336.44423      10054.772     -1069.1534      527.04562      2495.3876      11305.995     -1957.5719      110.64911      1.1302809      53251.681    
  16160000   341.95081      10084.311     -1116.552       526.45436      2547.0362      11361.791     -1973.2859      96.53097       1.1279234      53362.985    
  16180000   343.49402      10179.379     -1070.1382      552.86263      2535.5291      11402.669     -1988.0065      103.54535      1.1207478      53704.642    
  16200000   337.48345      10091.403     -1039.1694      516.82029      2549.2655      11377.832     -2072.5157      117.02573      1.132024       53169.683    
  16220000   332.48441      10027.556     -1072.0876      540.65056      2507.2708      11311.274     -2007.0403      103.99974      1.1193117      53773.545    
  16240000   341.3242       10167.885     -1035.5453      548.17852      2442.1653      11342.901     -1865.2124      93.095567      1.1379522      52892.694    
  16260000   343.77459      10004.339     -1069.5439      536.70214      2499.269       11377.832     -2080.0231      97.761178      1.1310942      53213.394    
  16280000   341.58752      10081.378     -1068.1275      554.64964      2530.9684      11405.677     -2077.2211      93.034551      1.1371078      52931.974    
  16300000   338.77424      10027.661     -1026.5507      543.57263      2567.7872      11213.916     -1999.145       85.345163      1.1296481      53281.512    
  16320000   334.15834      10133.478     -1110.6868      550.9076       2492.6649      11322.473     -1859.0084      94.849363      1.1281265      53353.375    
  16340000   341.05102      10141.885     -1053.6581      521.32698      2418.3196      11382.877     -1870.7606      101.27567      1.1347441      53042.232    
  16360000   342.07012      10119.156     -1061.2746      540.99444      2456.8438      11392.951     -1959.6247      106.29173      1.1233197      53581.681    
  16380000   340.03134      10136.979     -1132.0639      554.39839      2431.2598      11500.737     -1960.5226      100.80798      1.1266303      53424.23     
  16400000   337.26314      10207.077     -1051.296       552.51671      2522.6303      11390.684     -1942.3273      93.103603      1.1334185      53104.267    
  16420000   348.22996      10177.104     -1125.7587      524.98382      2515.9181      11471.341     -1956.2811      104.44452      1.131051       53215.422    
  16440000   339.56405      10186.883     -1068.3817      539.80587      2586.5492      11354.919     -1973.9859      105.86287      1.1260835      53450.176    
  16460000   341.67008      10202.136     -1086.0635      532.73415      2539.5527      11424.528     -1960.0686      109.55101      1.1181302      53830.367    
  16480000   347.79058      10125.214     -1053.3259      552.07628      2545.0635      11345.382     -2004.3704      98.487209      1.1288922      53317.187    
  16500000   342.31651      10026.874     -1062.4328      542.55322      2417.6152      11365.419     -1976.2305      97.173879      1.124163       53541.489    
  16520000   346.10361      10144.349     -1100.1998      546.31645      2440.0181      11358.548     -1848.9103      105.80601      1.1297638      53276.053    
  16540000   344.97468      10111.188     -1001.5791      546.45472      2551.412       11345.097     -2075.9886      102.9949       1.1276883      53374.108    
  16560000   343.65145      10094.471     -1080.9758      550.8076       2531.151       11332.207     -1985.6752      104.08964      1.1301886      53256.029    
  16580000   338.40086      10130.546     -1030.6665      519.84845      2605.6272      11323.464     -2021.5794      90.71033       1.1273302      53391.064    
  16600000   337.22466      10098.021     -1068.4075      518.71393      2553.2991      11337.801     -1991.1467      105.30095      1.1247475      53513.662    
  16620000   331.90335      10166.991     -1041.8726      534.70503      2532.8105      11376.187     -1976.4078      98.77256       1.1224949      53621.052    
  16640000   334.44787      10188.155     -1023.4747      516.91248      2570.1711      11342.573     -1964.6121      103.57157      1.1210177      53691.711    
  16660000   340.94912      10236.593     -1026.7665      572.16942      2570.208       11322.888     -1948.8827      104.11171      1.1279125      53363.499    
  16680000   337.56112      10126.577     -1037.0358      530.15224      2507.9509      11400.612     -2017.6447      99.804961      1.1237249      53562.359    
  16700000   338.55544      10135.676     -1047.833       544.8069       2512.9319      11394.187     -2012.6729      101.36528      1.1278135      53368.185    
  16720000   341.79812      10121.142     -1116.6493      546.94833      2490.4638      11426.074     -1981.6362      113.76547      1.1341108      53071.851    
  16740000   336.78315      10201.485     -1027.6398      545.33569      2574.8357      11432.822     -2058.4775      92.856835      1.128528       53334.396    
  16760000   333.82845      10036.391     -1114.2397      530.73824      2515.1445      11342.174     -1981.575       101.29073      1.1247822      53512.012    
  16780000   344.04169      10110.005     -1088.0019      522.35936      2486.8836      11396.631     -1945.8735      93.775153      1.1212378      53681.169    
  16800000   341.15384      10134.325     -1091.2423      510.64888      2557.1089      11333.864     -1923.0204      104.58107      1.1186294      53806.347    
  16800103   335.79648      10268.673     -1038.5561      537.32092      2632.4601      11389.232     -1993.026       99.054499      1.1221168      53639.12     
Loop time of 4021.16 on 24 procs for 1200000 steps with 5000 atoms

Performance: 6.446 ns/day, 3.723 hours/ns, 298.421 timesteps/s, 1.492 Matom-step/s
99.5% CPU use with 24 MPI tasks x no OpenMP threads

MPI task timing breakdown:
Section |  min time  |  avg time  |  max time  |%varavg| %total
---------------------------------------------------------------
Pair    | 1998.3     | 2227.6     | 2592       | 328.0 | 55.40
Bond    | 623.18     | 669.77     | 728.68     | 115.2 | 16.66
Kspace  | 489.02     | 913.46     | 1190       | 570.7 | 22.72
Neigh   | 27.219     | 27.3       | 27.378     |   1.2 |  0.68
Comm    | 129.64     | 134.23     | 138.27     |  22.2 |  3.34
Output  | 0.0038162  | 0.0044039  | 0.017611   |   4.1 |  0.00
Modify  | 33.532     | 35.71      | 37.056     |  18.2 |  0.89
Other   |            | 13.14      |            |       |  0.33

Nlocal:        208.333 ave         223 max         185 min
Histogram: 1 0 1 2 3 5 2 4 3 3
Nghost:         4654.5 ave        4697 max        4586 min
Histogram: 2 0 2 2 2 2 3 3 3 5
Neighs:        70032.9 ave       77390 max       61804 min
Histogram: 2 4 1 2 1 4 1 4 0 5

Total # of neighbors = 1680790
Ave neighs/atom = 336.158
Ave special neighs/atom = 5.8564
Neighbor list builds = 9145
Dangerous builds = 0
unfix           fNPT
unfix           fMOM
next            a
jump            SELF loop
variable        a loop 26
variable        b equal 600-20*($a-1)
variable        b equal 600-20*(15-1)
fix             fMOM all momentum 100 linear 1 1 1 angular
fix             fNPT all npt temp $b $b $(100.0*dt) iso 1 1 $(100.0*dt)
fix             fNPT all npt temp 320 $b $(100.0*dt) iso 1 1 $(100.0*dt)
fix             fNPT all npt temp 320 320 $(100.0*dt) iso 1 1 $(100.0*dt)
fix             fNPT all npt temp 320 320 25 iso 1 1 $(100.0*dt)
fix             fNPT all npt temp 320 320 25 iso 1 1 25
run             1200000
PPPM initialization ...
  using 12-bit tables for long-range coulomb (../kspace.cpp:342)
  G vector (1/distance) = 0.11709561
  grid = 4 4 4
  stencil order = 5
  estimated absolute RMS force accuracy = 0.28503618
  estimated relative force accuracy = 0.000858378
  using double precision KISS FFT
  3d grid and FFT values/proc = 294 4
Generated 36 of 36 mixed pair_coeff terms from sixthpower/sixthpower mixing rule
WARNING: Inconsistent image flags (../domain.cpp:815)
Per MPI rank memory allocation (min/avg/max) = 15.04 | 15.05 | 15.05 Mbytes
   Step          Temp          PotEng         E_vdwl         E_coul         E_bond        E_angle        E_dihed        E_impro        Density         Volume    
  16800103   335.79648      10268.571     -1038.5561      535.60141      2632.4601      11389.232     -1993.026       99.054499      1.1221168      53639.12     
  16820000   323.01558      9827.0077     -1105.6412      535.69823      2445.5537      11309.273     -2096.0001      93.975025      1.1301649      53257.149    
  16840000   316.18483      9737.1419     -1120.1545      535.50368      2439.3022      11206.078     -2049.6968      81.505683      1.1375525      52911.278    
  16860000   319.28548      9740.1794     -1125.4552      503.42231      2365.772       11300.528     -2028.7735      81.299323      1.1330965      53119.36     
  16880000   327.5137       9814.8237     -1078.6156      518.3085       2462.1999      11308.396     -2134.2472      94.955418      1.1282514      53347.469    
  16900000   323.62228      9884.7229     -1060.1797      514.19486      2472.3523      11254.2       -2043.0149      103.4625       1.1370242      52935.863    
  16920000   317.41798      9723.4951     -1071.1762      531.36115      2415.5776      11225.747     -2103.5312      81.662559      1.1272053      53396.98     
  16940000   317.76153      9825.4858     -1135.4108      514.22305      2464.9488      11310.821     -2063.1694      90.461372      1.126478       53431.456    
  16960000   320.01821      9798.1331     -1084.5706      522.5759       2445.2388      11226.854     -2047.8198      92.23327       1.1354543      53009.055    
  16980000   315.14557      9751.3495     -1113.2557      517.28024      2360.0097      11287.706     -2018.2294      74.136301      1.1295002      53288.491    
  17000000   317.62305      9725.3447     -1059.1497      521.27901      2403.5092      11110.315     -1971.4563      76.7966        1.130575       53237.827    
  17020000   315.73117      9700.6853     -1090.8085      507.72684      2387.6316      11304.526     -2141.3455      88.785259      1.13524        53019.062    
  17040000   317.88751      9805.7647     -1063.6882      527.45405      2404.089       11261.085     -2055.8043      88.554058      1.1313249      53202.542    
  17060000   319.99227      9811.6409     -1077.6636      524.87888      2465.2707      11196.841     -2046.0506      104.57687      1.1213605      53675.297    
  17080000   328.25709      9745.1519     -1113.995       530.47873      2404.0557      11206.948     -2018.6542      92.366976      1.1321618      53163.211    
  17100000   320.2143       9770.7948     -1100.5466      541.31087      2445.9162      11289.638     -2146.967       97.493685      1.1268563      53413.518    
  17120000   316.60187      9695.2655     -1101.5322      527.70502      2364.5613      11218.483     -2052.7612      94.985543      1.1357725      52994.204    
  17140000   321.60634      9667.1597     -1088.8709      491.40059      2399.7445      11269.85      -2135.4481      86.864265      1.1273971      53387.895    
  17160000   322.51696      9789.3826     -1068.0441      532.42429      2352.3062      11259.841     -2015.3714      84.196725      1.1272364      53395.506    
  17180000   322.35887      9822.8462     -1060.52        537.05699      2385.0613      11255.674     -2035.653       96.482491      1.1264532      53432.629    
  17200000   325.90405      9737.9613     -1103.8122      515.80222      2411.6866      11266.471     -2082.4314      85.930247      1.1427207      52671.979    
  17220000   323.24081      9842.7638     -1072.9288      523.70726      2447.974       11202.219     -1996.3898      93.425749      1.130937       53220.787    
  17240000   319.7547       9829.2302     -1078.061       525.4178       2407.8318      11257.079     -2035.5233      107.77927      1.1348256      53038.423    
  17260000   313.49286      9744.1926     -1058.4002      519.00994      2419.5537      11237.802     -2107.3675      88.822912      1.1311928      53208.755    
  17280000   323.71542      9794.9327     -1132.9702      542.28386      2424.5932      11334.808     -2110.287       92.196916      1.1418923      52710.19     
  17300000   319.58285      9841.5125     -1035.4271      526.72492      2432.1422      11256.275     -2075.0802      91.832613      1.1345812      53049.848    
  17320000   323.35351      9740.2868     -1087.4842      529.06139      2360.8654      11282.283     -2080.0537      91.654532      1.1355018      53006.839    
  17340000   312.22538      9731.4556     -1121.6488      528.98213      2352.4486      11194.245     -1959.2211      93.170448      1.1338771      53082.787    
  17360000   320.54314      9771.8819     -1107.5053      530.81613      2357.6017      11272.804     -2017.544       91.679314      1.1428206      52667.374    
  17380000   325.4479       9757.2556     -1079.4197      509.55895      2341.0534      11279.888     -2022.0686      83.479302      1.1315009      53194.263    
  17400000   323.31621      9729.542      -1109.4795      508.11735      2329.4611      11282.179     -2006.5465      81.512435      1.1314243      53197.865    
  17420000   318.89321      9810.7934     -1107.1768      517.49205      2403.9126      11274.095     -2023.4036      100.80799      1.1289859      53312.763    
  17440000   315.95303      9687.0758     -1089.9352      524.9295       2323.7886      11201.335     -2008.7166      91.871702      1.1334578      53102.424    
  17460000   323.32185      9844.6955     -1073.9479      498.43957      2419.5893      11323.095     -2063.6319      96.855766      1.125392       53483.017    
  17480000   317.90217      9800.0326     -1107.329       517.67035      2376.6471      11311.684     -2036.9275      93.647344      1.1245129      53524.828    
  17500000   322.8405       9834.2618     -1097.1862      540.43383      2437.1194      11311.311     -2097.6497      96.334674      1.1273266      53391.235    
  17520000   316.85786      9827.3317     -1139.0687      540.61663      2466.8924      11250.041     -2023.3981      87.802226      1.1307265      53230.694    
  17540000   327.6913       9801.0352     -1096.8215      543.88848      2433.3797      11199.447     -2028.9347      105.42551      1.138151       52883.456    
  17560000   313.37595      9800.0422     -1070.4695      528.09349      2391.1153      11280.419     -2058.2996      85.144902      1.1320802      53167.044    
  17580000   314.43627      9913.4348     -1089.4777      524.22884      2409.327       11317.033     -1982.4517      91.791409      1.1318126      53179.616    
  17600000   323.48071      9698.5803     -1127.4819      519.03031      2375.8448      11242.133     -2040.3478      85.626213      1.1368624      52943.4      
  17620000   319.69925      9750.3143     -1111.8627      531.61059      2395.3164      11295.368     -2101.8589      97.700339      1.1406001      52769.903    
  17640000   328.67448      9756.0648     -1123.7005      515.60122      2388.1492      11257.078     -2029.3155      103.99441      1.135738       52995.814    
  17660000   315.42348      9733.6893     -1165.5298      524.38057      2400.5113      11275.814     -2037.1038      91.559749      1.1321257      53164.908    
  17680000   324.15905      9849.058      -1079.9398      549.84532      2499.9147      11204.324     -2076.5325      107.82946      1.1394599      52822.708    
  17700000   318.70419      9778.5767     -1115.4084      511.55427      2363.5128      11273.402     -1987.8427      88.93707       1.1395962      52816.391    
  17720000   320.29519      9717.48       -1074.0578      510.781        2419.8111      11218.624     -2093.894       91.029141      1.1279625      53361.137    
  17740000   325.77161      9880.4905     -1119.2258      531.65284      2535.1301      11216.037     -2015.6325      88.869601      1.1320701      53167.52     
  17760000   317.28067      9799.0257     -1107.445       498.88575      2452.0564      11286.806     -2064.0482      88.577813      1.1360924      52979.282    
  17780000   318.01297      9853.3541     -1116.9863      508.98259      2448.9627      11274.694     -2006.5557      100.11909      1.1335432      53098.424    
  17800000   321.33471      9672.3601     -1090.8882      525.69504      2417.5834      11139.854     -2056.6412      92.372537      1.1310547      53215.25     
  17820000   322.81158      9937.5726     -1124.8877      534.66424      2472.3794      11340.036     -2033.0877      103.96178      1.1279875      53359.951    
  17840000   321.03182      9787.2463     -1046.6835      529.60687      2423.693       11192.364     -2046.5407      89.789837      1.1306041      53236.458    
  17860000   313.92914      9817.2998     -1118.8303      505.06732      2442.6371      11321.108     -2066.8084      90.101044      1.1323688      53153.494    
  17880000   320.86771      9844.3739     -1058.0102      534.21546      2494.4015      11236.26      -2083.3634      77.082545      1.1384069      52871.571    
  17900000   321.38757      9742.0297     -1107.2429      532.05165      2393.2638      11241.411     -2041.3376      80.116922      1.1324394      53150.181    
  17920000   316.74271      9895.7923     -1102.347       528.32086      2481.2936      11311.349     -2058.7047      91.205023      1.1287387      53324.437    
  17940000   321.87021      9777.4504     -1026.1989      513.28066      2325.6454      11266.89      -2030.4799      83.77663       1.1313139      53203.056    
  17960000   322.87989      9700.2926     -1129.8337      528.64691      2383.1169      11203.479     -2011.1189      81.628954      1.1303144      53250.105    
  17980000   319.35826      9829.842      -1071.5778      535.64318      2376.4901      11289.897     -2033.7488      89.034142      1.1297167      53278.277    
  18000000   316.56523      9771.1876     -1084.9143      517.14412      2406.1494      11275.612     -2074.6452      88.267073      1.1282454      53347.755    
  18000103   317.44307      9798.5045     -1075.3519      525.6597       2395.2069      11298.445     -2079.0339      89.806176      1.1308742      53223.745    
Loop time of 3992.2 on 24 procs for 1200000 steps with 5000 atoms

Performance: 6.493 ns/day, 3.696 hours/ns, 300.586 timesteps/s, 1.503 Matom-step/s
99.5% CPU use with 24 MPI tasks x no OpenMP threads

MPI task timing breakdown:
Section |  min time  |  avg time  |  max time  |%varavg| %total
---------------------------------------------------------------
Pair    | 2002.6     | 2240.7     | 2525       | 327.4 | 56.13
Bond    | 619.77     | 669.39     | 724.63     | 105.0 | 16.77
Kspace  | 537.49     | 874.66     | 1146.8     | 579.9 | 21.91
Neigh   | 25.46      | 25.521     | 25.594     |   1.0 |  0.64
Comm    | 128.79     | 133.73     | 137.83     |  22.9 |  3.35
Output  | 0.0043111  | 0.004849   | 0.016799   |   3.6 |  0.00
Modify  | 33.039     | 35.369     | 36.744     |  18.3 |  0.89
Other   |            | 12.84      |            |       |  0.32

Nlocal:        208.333 ave         225 max         195 min
Histogram: 2 2 2 6 0 5 1 4 1 1
Nghost:        4688.79 ave        4727 max        4638 min
Histogram: 2 1 1 2 2 3 5 3 2 3
Neighs:        70577.1 ave       78965 max       61641 min
Histogram: 2 3 2 3 2 1 4 2 1 4

Total # of neighbors = 1693851
Ave neighs/atom = 338.7702
Ave special neighs/atom = 5.8564
Neighbor list builds = 8529
Dangerous builds = 0
unfix           fNPT
unfix           fMOM
next            a
jump            SELF loop
variable        a loop 26
variable        b equal 600-20*($a-1)
variable        b equal 600-20*(16-1)
fix             fMOM all momentum 100 linear 1 1 1 angular
fix             fNPT all npt temp $b $b $(100.0*dt) iso 1 1 $(100.0*dt)
fix             fNPT all npt temp 300 $b $(100.0*dt) iso 1 1 $(100.0*dt)
fix             fNPT all npt temp 300 300 $(100.0*dt) iso 1 1 $(100.0*dt)
fix             fNPT all npt temp 300 300 25 iso 1 1 $(100.0*dt)
fix             fNPT all npt temp 300 300 25 iso 1 1 25
run             1200000
PPPM initialization ...
  using 12-bit tables for long-range coulomb (../kspace.cpp:342)
  G vector (1/distance) = 0.11731519
  grid = 4 4 4
  stencil order = 5
  estimated absolute RMS force accuracy = 0.28467725
  estimated relative force accuracy = 0.00085729708
  using double precision KISS FFT
  3d grid and FFT values/proc = 294 4
Generated 36 of 36 mixed pair_coeff terms from sixthpower/sixthpower mixing rule
WARNING: Inconsistent image flags (../domain.cpp:815)
Per MPI rank memory allocation (min/avg/max) = 15.04 | 15.05 | 15.05 Mbytes
   Step          Temp          PotEng         E_vdwl         E_coul         E_bond        E_angle        E_dihed        E_impro        Density         Volume    
  18000103   317.44307      9798.6397     -1075.3519      528.33157      2395.2069      11298.445     -2079.0339      89.806176      1.1308742      53223.745    
  18020000   296.33875      9494.5079     -1116.9623      516.18957      2380.8517      11119.945     -2132.4107      85.317562      1.1312914      53204.116    
  18040000   298.95454      9466.5469     -1081.1066      524.71168      2266.8632      11106.61      -2069.8481      77.88123       1.1338724      53083.007    
  18060000   299.4707       9426.4706     -1150.7012      515.27431      2278.3154      11147.664     -2084.7091      79.089267      1.1355128      53006.325    
  18080000   303.29271      9368.8558     -1122.3905      507.29568      2249.2794      11195.718     -2176.5855      74.216783      1.139672       52812.879    
  18100000   304.91354      9503.4484     -1115.6389      533.05819      2301.1214      11171.713     -2102.3787      73.271174      1.1364261      52963.725    
  18120000   298.49556      9498.8382     -1087.1666      535.80858      2259.2347      11161.956     -2093.5604      81.164712      1.1407459      52763.159    
  18140000   297.88054      9342.5221     -1152.5469      512.2633       2254.2738      11099.58      -2098.8251      86.365316      1.1425149      52681.466    
  18160000   294.9761       9511.6448     -1144.0363      536.98075      2265.3927      11233.985     -2099.5681      77.942791      1.1367063      52950.667    
  18180000   300.08185      9379.9763     -1157.4192      514.90283      2331.9415      11137.1       -2168.0557      80.108144      1.1390076      52843.686    
  18200000   304.02579      9418.1197     -1117.8911      520.03141      2297.6317      11068.519     -2078.5675      86.549742      1.1397781      52807.961    
  18220000   299.22353      9381.5227     -1161.5455      550.75768      2266.5738      11065.783     -2059.6754      78.51507       1.1369103      52941.17     
  18240000   296.43292      9499.0715     -1080.8773      524.34384      2331.4705      11117.676     -2118.1432      83.443162      1.1327454      53135.821    
  18260000   298.51199      9552.7111     -1156.7912      533.34081      2283.4494      11235.028     -2060.382       75.600402      1.1354649      53008.558    
  18280000   299.8517       9462.9495     -1144.6887      509.58911      2304.0199      11132.54      -2066.8974      86.753965      1.1353805      53012.501    
  18300000   292.01762      9529.9202     -1175.6568      532.5176       2330.5452      11223.1       -2107.114       85.473021      1.1468696      52481.43     
  18320000   303.25364      9519.8909     -1141.4848      529.97475      2257.4054      11197.383     -2052.4671      87.65788       1.1381682      52882.656    
  18340000   294.85906      9484.5118     -1137.8904      526.21135      2198.8988      11215.961     -2043.5543      83.871153      1.1376172      52908.27     
  18360000   301.39996      9532.5675     -1113.6832      532.35715      2315.9272      11137.462     -2060.061       79.03801       1.1457804      52531.321    
  18380000   300.63905      9469.4132     -1113.1869      507.21536      2322.0125      11135.157     -2107.794       84.74086       1.1432095      52649.456    
  18400000   303.31797      9460.5482     -1140.6905      517.02492      2251.574       11117.975     -2017.8849      91.508298      1.1389082      52848.296    
  18420000   301.97259      9436.3912     -1128.8598      523.51071      2296.1546      11144.09      -2126.649       87.514459      1.1386921      52858.325    
  18440000   293.61586      9530.0139     -1140.9588      500.47256      2315.057       11237.635     -2110.3606      87.164535      1.1416645      52720.707    
  18460000   301.19927      9514.5517     -1126.3404      534.27627      2419.2142      11116.309     -2153.3814      82.728121      1.1434958      52636.275    
  18480000   299.00169      9475.648      -1125.2492      519.91037      2336.8994      11155.768     -2145.1448      91.528645      1.1368307      52944.873    
  18500000   301.39465      9398.3732     -1105.3326      505.08981      2317.2459      11020.268     -2062.4088      82.836001      1.135104       53025.414    
  18520000   303.80884      9491.2514     -1134.2412      504.38147      2252.4631      11185.309     -2041.528       83.46106       1.1382531      52878.715    
  18540000   300.97383      9463.097      -1148.5512      517.53512      2286.8658      11105.868     -2025.1484      86.053509      1.1397824      52807.765    
  18560000   299.40019      9482.3964     -1163.6138      522.18077      2416.0794      11107.939     -2128.0158      86.847531      1.1447027      52580.78     
  18580000   299.55315      9393.9333     -1184.5581      509.99176      2261.4709      11214.125     -2127.9189      79.654738      1.1363503      52967.259    
  18600000   303.46939      9378.0395     -1139.5971      528.93684      2292.4669      11076.137     -2113.4904      92.038496      1.1404942      52774.803    
  18620000   303.05394      9431.4414     -1185.1382      510.48849      2251.8169      11187.56      -2055.8874      81.052321      1.1404079      52778.797    
  18640000   305.27998      9350.2718     -1158.8954      536.04684      2298.0162      11061.282     -2108.8997      81.362252      1.1340616      53074.151    
  18660000   297.87367      9459.3036     -1154.0286      548.14664      2285.7894      11147.144     -2100.3092      90.796535      1.1294066      53292.903    
  18680000   299.06246      9403.2016     -1078.6424      511.38722      2246.9492      11085.375     -2078.9505      75.431162      1.134863       53036.674    
  18700000   301.28994      9419.1007     -1199.3873      524.69891      2319.3001      11129.741     -2079.5969      83.345984      1.1371969      52927.827    
  18720000   301.02703      9518.5708     -1127.0709      548.44687      2376.3398      11088.037     -2078.8117      70.649347      1.1414943      52728.568    
  18740000   301.31287      9515.3503     -1171.0351      523.63982      2316.2372      11221.438     -2096.8695      81.05018       1.139109       52838.98     
  18760000   299.71172      9306.7405     -1144.4417      509.41927      2229.4728      11097.116     -2114.1523      88.316382      1.1424259      52685.567    
  18780000   301.45128      9528.3713     -1151.44        532.73094      2354.9863      11190.32      -2124.2134      84.598502      1.1286588      53328.215    
  18800000   302.40326      9496.7462     -1155.3478      530.66856      2331.1779      11130.7       -2068.0235      86.123778      1.1451483      52560.317    
  18820000   296.23061      9455.7482     -1152.5719      528.90742      2277.1957      11159.83      -2082.7869      82.724921      1.1370578      52934.3      
  18840000   300.38476      9291.0418     -1140.4946      499.89565      2212.1546      11094.38      -2093.9426      76.47428       1.1427357      52671.285    
  18860000   307.77643      9498.4674     -1175.5841      515.8111       2305.5104      11249.063     -2126.863       88.673038      1.1397664      52808.505    
  18880000   303.64971      9391.1858     -1136.3878      518.37796      2226.8953      11208.795     -2156.1199      88.276117      1.1301424      53258.208    
  18900000   301.90328      9339.0885     -1134.5973      524.12565      2237.8394      11103.129     -2112.5445      79.311433      1.1422696      52692.779    
  18920000   296.18537      9429.0949     -1122.4793      497.33096      2308.2336      11153.088     -2133.8706      85.165396      1.1386207      52861.639    
  18940000   296.19945      9482.1464     -1160.4744      541.31804      2295.34        11158.736     -2072.8256      77.995891      1.1366058      52955.352    
  18960000   296.2661       9394.4249     -1163.3637      536.66547      2260.0398      11223.567     -2185.3517      81.235932      1.1474927      52452.935    
  18980000   297.79318      9381.8804     -1140.1814      542.58048      2279.0783      11172.614     -2195.284       81.711874      1.1403243      52782.666    
  19000000   299.36189      9448.9473     -1203.4792      544.17436      2307.9872      11151.616     -2074.9155      81.50396       1.142839       52666.526    
  19020000   301.84386      9508.3526     -1102.8399      528.66729      2296.8519      11110.35      -2054.3245      88.038258      1.1348948      53035.189    
  19040000   290.64774      9466.5762     -1120.1332      504.57806      2346.8591      11128.956     -2118.8862      83.528296      1.1401794      52789.373    
  19060000   296.30379      9470.2092     -1143.1455      522.06351      2272.926       11134.619     -2048.6516      91.094192      1.1469415      52478.142    
  19080000   303.46641      9416.6618     -1142.2215      539.62215      2284.1614      11131.216     -2122.3721      84.181459      1.1429416      52661.799    
  19100000   298.38979      9542.8638     -1170.9537      523.36282      2295.9194      11169.566     -2002.5055      85.195409      1.1382545      52878.647    
  19120000   309.35311      9464.0155     -1157.3433      559.76966      2321.4169      11048.313     -2038.9932      89.322722      1.14367        52628.255    
  19140000   299.91039      9520.6652     -1115.1797      549.72984      2275.1798      11208.385     -2118.9513      80.097407      1.1465295      52497.001    
  19160000   302.09243      9480.7616     -1176.4705      522.23197      2286.5738      11215.921     -2085.465       75.98394       1.1420936      52700.897    
  19180000   299.51328      9534.1567     -1191.2372      532.13944      2327.4057      11210.601     -2077.6684      91.464283      1.1400349      52796.068    
  19200000   303.35964      9505.1497     -1112.7547      547.63629      2272.2775      11161.113     -2085.2623      81.14549       1.1480617      52426.939    
  19200103   300.27759      9411.0204     -1135.8135      543.13172      2300.1815      11092.78      -2105.631       75.204445      1.1461933      52512.398    
Loop time of 4018.34 on 24 procs for 1200000 steps with 5000 atoms

Performance: 6.450 ns/day, 3.721 hours/ns, 298.631 timesteps/s, 1.493 Matom-step/s
99.5% CPU use with 24 MPI tasks x no OpenMP threads

MPI task timing breakdown:
Section |  min time  |  avg time  |  max time  |%varavg| %total
---------------------------------------------------------------
Pair    | 2020.2     | 2250.2     | 2547.4     | 331.3 | 56.00
Bond    | 614.08     | 668.52     | 725.86     | 104.5 | 16.64
Kspace  | 536.09     | 891.8      | 1155.4     | 585.5 | 22.19
Neigh   | 24.124     | 24.207     | 24.303     |   1.4 |  0.60
Comm    | 129.89     | 134.78     | 138.67     |  22.0 |  3.35
Output  | 0.0034104  | 0.0040593  | 0.018696   |   4.8 |  0.00
Modify  | 33.492     | 35.925     | 37.278     |  18.8 |  0.89
Other   |            | 12.89      |            |       |  0.32

Nlocal:        208.333 ave         223 max         193 min
Histogram: 2 0 2 3 5 3 4 2 1 2
Nghost:        4729.46 ave        4787 max        4681 min
Histogram: 2 2 4 3 4 3 1 2 0 3
Neighs:        71782.5 ave       79638 max       61111 min
Histogram: 1 0 4 2 4 2 2 2 2 5

Total # of neighbors = 1722781
Ave neighs/atom = 344.5562
Ave special neighs/atom = 5.8564
Neighbor list builds = 8018
Dangerous builds = 0
unfix           fNPT
unfix           fMOM
next            a
jump            SELF loop
variable        a loop 26
variable        b equal 600-20*($a-1)
variable        b equal 600-20*(17-1)
fix             fMOM all momentum 100 linear 1 1 1 angular
fix             fNPT all npt temp $b $b $(100.0*dt) iso 1 1 $(100.0*dt)
fix             fNPT all npt temp 280 $b $(100.0*dt) iso 1 1 $(100.0*dt)
fix             fNPT all npt temp 280 280 $(100.0*dt) iso 1 1 $(100.0*dt)
fix             fNPT all npt temp 280 280 25 iso 1 1 $(100.0*dt)
fix             fNPT all npt temp 280 280 25 iso 1 1 25
run             1200000
PPPM initialization ...
  using 12-bit tables for long-range coulomb (../kspace.cpp:342)
  G vector (1/distance) = 0.11769573
  grid = 4 4 4
  stencil order = 5
  estimated absolute RMS force accuracy = 0.28404724
  estimated relative force accuracy = 0.00085539983
  using double precision KISS FFT
  3d grid and FFT values/proc = 294 4
Generated 36 of 36 mixed pair_coeff terms from sixthpower/sixthpower mixing rule
WARNING: Inconsistent image flags (../domain.cpp:815)
Per MPI rank memory allocation (min/avg/max) = 15.04 | 15.05 | 15.05 Mbytes
   Step          Temp          PotEng         E_vdwl         E_coul         E_bond        E_angle        E_dihed        E_impro        Density         Volume    
  19200103   300.27759      9411.1507     -1135.8135      547.65912      2300.1815      11092.78      -2105.631       75.204445      1.1461933      52512.398    
  19220000   280.62048      9124.3353     -1144.3906      522.64339      2181.9864      11063.656     -2208.7143      71.465678      1.1483431      52414.092    
  19240000   279.17015      9150.1949     -1215.5809      507.55994      2262.8137      11078.478     -2192.1006      71.770403      1.1497154      52351.531    
  19260000   278.25017      9199.4603     -1153.7308      525.16307      2206.7783      11012.543     -2108.4566      79.752435      1.14514        52560.698    
  19280000   282.2411       9166.4499     -1190.4756      507.85127      2248.3431      11029.191     -2138.1445      72.20615       1.1456548      52537.079    
  19300000   275.22013      9133.6885     -1204.1294      534.65506      2162.6056      11020.4       -2089.4367      72.660955      1.1407681      52762.136    
  19320000   279.88267      9239.6879     -1177.0746      518.90504      2242.9116      11050.175     -2114.8623      82.628527      1.1441471      52606.31     
  19340000   281.56507      9094.6904     -1205.1103      503.17954      2208.2746      11069.568     -2197.0898      78.297199      1.1496708      52353.561    
  19360000   277.63073      9230.4994     -1190.1019      525.96952      2260.8228      11080.629     -2169.422       84.902836      1.1411712      52743.496    
  19380000   279.4765       9134.8872     -1152.4811      559.41027      2192.1986      10973.776     -2152.8291      77.981571      1.1459741      52522.443    
  19400000   281.71591      9113.1514     -1187.3756      518.33495      2145.643       11108.052     -2187.5907      79.089622      1.1474961      52452.778    
  19420000   280.76925      9074.978      -1205.95        527.78223      2159.3426      11067.649     -2190.5823      79.590503      1.144972       52568.413    
  19440000   284.03829      9152.1719     -1172.255       532.51186      2187.2202      11050.902     -2166.166       82.362736      1.1477751      52440.029    
  19460000   282.00883      9169.3651     -1145.4214      532.96182      2169.7507      11091.144     -2188.8461      72.380552      1.1432446      52647.838    
  19480000   274.67221      9211.8913     -1188.1897      541.72183      2269.4894      11021.337     -2146.1374      76.115754      1.1480503      52427.459    
  19500000   279.99238      9036.2573     -1258.2169      538.05894      2185.9235      11036.408     -2173.9612      71.387493      1.1479878      52430.314    
  19520000   282.58279      9157.3657     -1208.4954      514.24121      2151.7158      11056.367     -2068.931       75.801671      1.1420246      52704.081    
  19540000   280.45215      9221.0707     -1212.5116      517.17208      2249.5906      11125.834     -2176.84        81.267858      1.1463418      52505.595    
  19560000   280.97396      9228.3287     -1164.502       522.21495      2263.2406      11029.803     -2133.1968      73.301687      1.1387658      52854.905    
  19580000   276.86992      9162.2339     -1165.3594      533.78083      2202.2188      11009.852     -2135.3503      79.513424      1.14956        52358.608    
  19600000   286.11379      9111.2322     -1205.0862      522.3191       2165.4312      11048.945     -2133.9925      76.378785      1.1505111      52315.323    
  19620000   286.58967      9172.8827     -1220.4985      515.07994      2171.7993      11058.474     -2073.0038      84.461515      1.1483505      52413.752    
  19640000   279.91839      9204.1478     -1190.2834      534.71402      2123.9836      11078.083     -2060.3395      81.075466      1.1462162      52511.347    
  19660000   278.90668      9113.8969     -1190.6999      515.44117      2203.4189      11046.737     -2178.5277      79.605725      1.1450778      52563.552    
  19680000   276.5851       9133.2557     -1222.9321      528.63157      2189.1342      10953.696     -2024.7816      71.889995      1.1434574      52638.041    
  19700000   277.4817       9051.5472     -1187.5347      515.77422      2188.8283      10930.981     -2118.0571      84.423901      1.1503401      52323.1      
  19720000   282.58292      9146.5564     -1229.5772      527.6261       2214.2027      11067.029     -2148.3782      78.2376        1.1509818      52293.926    
  19740000   278.48341      9006.2886     -1211.9293      534.00203      2156.5005      11040.378     -2231.2333      81.197565      1.1565239      52043.332    
  19760000   280.96459      9192.6646     -1149.773       501.16539      2173.7679      11078.307     -2130.0416      81.458249      1.1461641      52513.738    
  19780000   278.73728      9055.1421     -1149.0692      510.90692      2121.8304      11014.865     -2160.1766      79.019686      1.1507044      52306.532    
  19800000   281.19094      9105.838      -1135.0866      522.58416      2164.9935      11048.8       -2211.45        78.134022      1.1411428      52744.807    
  19820000   281.11004      9133.7776     -1212.7463      523.91795      2192.4242      11050.58      -2130.7434      72.699466      1.1463168      52506.743    
  19840000   279.8669       9067.6073     -1187.9554      505.95636      2188.5298      11025.115     -2173.079       71.499154      1.1460334      52519.725    
  19860000   278.87873      8957.653      -1208.7652      506.53347      2164.8989      10934.688     -2153.7311      76.430469      1.1478075      52438.546    
  19880000   285.09559      9191.6928     -1180.8676      521.88099      2231.6002      11082.048     -2178.5674      78.461656      1.1478195      52438.001    
  19900000   281.16468      9113.3641     -1178.8445      509.3598       2239.9884      11095.85      -2266.8984      77.226359      1.1466964      52489.358    
  19920000   280.1571       9180.8969     -1170.4998      509.5503       2214.4866      11039.836     -2126.8111      77.817828      1.1485076      52406.583    
  19940000   285.00501      9156.6216     -1156.8553      541.71309      2197.9947      11034.323     -2166.1413      69.060085      1.1416246      52722.549    
  19960000   278.4659       9092.4298     -1220.1822      521.70235      2159.7978      11047.642     -2128.1261      73.11837       1.1506703      52308.085    
  19980000   276.04625      9091.677      -1214.9095      525.4301       2200.722       11050.561     -2179.7924      72.732774      1.142324       52690.267    
  20000000   280.55784      9123.7949     -1147.2918      546.59015      2234.8636      11007.9       -2231.2833      76.00655       1.1420876      52701.174    
  20020000   276.33654      9088.0107     -1180.6         520.74602      2174.8731      11015.484     -2159.721       80.741985      1.1533491      52186.591    
  20040000   280.13305      9164.8393     -1212.035       526.75198      2194.9904      11052.465     -2113.3107      78.456398      1.1439281      52616.382    
  20060000   277.89921      9069.7993     -1198.1591      525.23011      2166.2339      11043.058     -2181.7637      78.135156      1.1584128      51958.47     
  20080000   279.83241      9072.851      -1167.876       519.55656      2163.9023      11030.619     -2176.9833      66.477675      1.1506858      52307.381    
  20100000   282.05139      9162.7016     -1194.8259      519.53838      2175.5753      11115.589     -2166.0784      75.928399      1.1483943      52411.753    
  20120000   279.43378      9178.2433     -1130.5396      504.02488      2156.8003      11009.664     -2077.1035      78.795811      1.1455434      52542.19     
  20140000   280.49109      9068.9079     -1239.8041      516.94488      2197.3097      11024.496     -2136.7324      70.075427      1.1458025      52530.308    
  20160000   277.73452      9095.5364     -1217.1511      521.76855      2220.0504      10977.408     -2103.3644      59.48452       1.1494256      52364.729    
  20180000   277.82163      9087.29       -1239.8284      528.68548      2137.9626      11074.216     -2115.8711      64.919465      1.1441851      52604.564    
  20200000   274.89379      9149.2546     -1244.1382      526.13737      2253.947       10953.912     -2048.3639      70.678635      1.1458929      52526.163    
  20220000   283.32443      9203.4489     -1244.5182      523.7875       2191.7987      11051.086     -2035.0242      78.827479      1.1465011      52498.3      
  20240000   281.106        9053.7152     -1173.0475      506.36325      2173.6617      11105.683     -2274.4353      78.021069      1.1520798      52244.087    
  20260000   285.80384      9149.0248     -1207.5598      513.57698      2186.6733      11033.722     -2086.0439      71.945022      1.1535695      52176.62     
  20280000   282.20845      9190.5364     -1223.7412      535.44422      2203.1682      11025.469     -2062.0613      74.820076      1.145951       52523.499    
  20300000   277.59193      9133.1552     -1180.9929      512.12282      2200.6013      10989.5       -2101.8734      77.637799      1.1388451      52851.223    
  20320000   286.39938      9143.0481     -1172.609       530.14238      2179.994       10993.717     -2105.3684      79.731265      1.1464535      52500.479    
  20340000   278.50013      9163.0218     -1201.5966      508.0915       2144.8926      11122.561     -2120.9783      72.614727      1.1381281      52884.522    
  20360000   281.32705      9147.6484     -1172.7394      538.08827      2138.1826      11066.121     -2133.2787      73.632344      1.142308       52691.006    
  20380000   280.66881      9239.0957     -1145.6088      507.43363      2183.7051      11086.406     -2110.7045      80.710859      1.1467943      52484.879    
  20400000   273.66654      9129.5908     -1180.9644      512.76269      2192.5514      11033.152     -2140.2413      74.788316      1.1452046      52557.735    
  20400103   279.69866      9124.1354     -1135.4064      515.51783      2194.6147      11018.793     -2179.3283      72.859301      1.1506665      52308.259    
Loop time of 4018.1 on 24 procs for 1200000 steps with 5000 atoms

Performance: 6.451 ns/day, 3.720 hours/ns, 298.648 timesteps/s, 1.493 Matom-step/s
99.5% CPU use with 24 MPI tasks x no OpenMP threads

MPI task timing breakdown:
Section |  min time  |  avg time  |  max time  |%varavg| %total
---------------------------------------------------------------
Pair    | 2014.5     | 2266.8     | 2569.5     | 332.4 | 56.41
Bond    | 619.61     | 668.28     | 729.1      | 104.2 | 16.63
Kspace  | 525.63     | 877.67     | 1165       | 595.7 | 21.84
Neigh   | 22.14      | 22.206     | 22.273     |   1.0 |  0.55
Comm    | 129.81     | 134.52     | 138.12     |  21.0 |  3.35
Output  | 0.0037327  | 0.0046409  | 0.025131   |   6.3 |  0.00
Modify  | 33.497     | 35.737     | 36.932     |  18.3 |  0.89
Other   |            | 12.93      |            |       |  0.32

Nlocal:        208.333 ave         223 max         194 min
Histogram: 2 0 2 5 3 4 5 1 0 2
Nghost:        4736.58 ave        4788 max        4694 min
Histogram: 2 3 2 3 2 7 2 0 0 3
Neighs:        71642.8 ave       79445 max       62012 min
Histogram: 1 1 5 1 4 2 1 2 3 4

Total # of neighbors = 1719428
Ave neighs/atom = 343.8856
Ave special neighs/atom = 5.8564
Neighbor list builds = 7351
Dangerous builds = 0
unfix           fNPT
unfix           fMOM
next            a
jump            SELF loop
variable        a loop 26
variable        b equal 600-20*($a-1)
variable        b equal 600-20*(18-1)
fix             fMOM all momentum 100 linear 1 1 1 angular
fix             fNPT all npt temp $b $b $(100.0*dt) iso 1 1 $(100.0*dt)
fix             fNPT all npt temp 260 $b $(100.0*dt) iso 1 1 $(100.0*dt)
fix             fNPT all npt temp 260 260 $(100.0*dt) iso 1 1 $(100.0*dt)
fix             fNPT all npt temp 260 260 25 iso 1 1 $(100.0*dt)
fix             fNPT all npt temp 260 260 25 iso 1 1 25
run             1200000
PPPM initialization ...
  using 12-bit tables for long-range coulomb (../kspace.cpp:342)
  G vector (1/distance) = 0.11780601
  grid = 4 4 4
  stencil order = 5
  estimated absolute RMS force accuracy = 0.2838628
  estimated relative force accuracy = 0.00085484441
  using double precision KISS FFT
  3d grid and FFT values/proc = 294 4
Generated 36 of 36 mixed pair_coeff terms from sixthpower/sixthpower mixing rule
WARNING: Inconsistent image flags (../domain.cpp:815)
Per MPI rank memory allocation (min/avg/max) = 15.04 | 15.05 | 15.05 Mbytes
   Step          Temp          PotEng         E_vdwl         E_coul         E_bond        E_angle        E_dihed        E_impro        Density         Volume    
  20400103   279.69866      9124.2313     -1135.4064      516.88719      2194.6147      11018.793     -2179.3283      72.859301      1.1506665      52308.259    
  20420000   263.27997      8763.1819     -1141.1656      516.92928      2031.2546      10888.68      -2228.0031      59.271796      1.154632       52128.608    
  20440000   260.85263      8855.9492     -1197.4951      506.79169      2042.3215      10936.219     -2140.4943      72.444296      1.15565        52082.686    
  20460000   257.24651      8804.0639     -1274.2378      514.99441      2125.3475      10914.582     -2184.043       71.564205      1.1532688      52190.226    
  20480000   258.37862      8786.7781     -1242.4217      507.6972       2064.0763      10932.867     -2177.6387      66.351304      1.156532       52042.968    
  20500000   257.50387      8805.0098     -1199.787       516.04522      2073.5615      10904.549     -2189.066       63.872704      1.1497572      52349.626    
  20520000   265.35098      8823.0804     -1229.1994      503.63191      2058.2963      10965.507     -2176.4775      65.839232      1.1520212      52246.746    
  20540000   263.24938      8878.42       -1196.5024      526.67119      2045.9324      10978.66      -2181.9756      69.70494       1.1455708      52540.932    
  20560000   255.08416      8924.6487     -1201.115       506.83375      2105.7904      10948.761     -2140.2998      68.503134      1.1457104      52534.533    
  20580000   266.68783      8820.2011     -1227.3306      520.77712      2092.4321      10930.435     -2196.8302      64.930319      1.1527498      52213.724    
  20600000   259.24449      8862.2357     -1197.1221      488.02275      2126.0129      10983.955     -2248.9326      75.098082      1.1503375      52323.215    
  20620000   258.61171      8755.3712     -1275.8165      508.15565      2107.31        10981.373     -2277.9966      76.773271      1.1488676      52390.16     
  20640000   261.53969      8723.4404     -1231.9842      526.27972      2106.4659      10868.603     -2252.0468      70.320171      1.151955       52249.746    
  20660000   267.59535      8714.24       -1257.2339      510.3105       2099.7229      10903.351     -2240.4053      62.538542      1.1611992      51833.794    
  20680000   259.06884      8849.6537     -1210.6965      525.77174      2106.6147      10919.601     -2195.317       68.221049      1.1556297      52083.602    
  20700000   259.47584      8876.0947     -1210.9878      530.29532      2134.9373      10932.245     -2209.7188      63.557147      1.1540481      52154.984    
  20720000   255.08233      8783.8918     -1212.4696      514.80632      2150.6072      10860.491     -2235.7079      69.678907      1.1515295      52269.053    
  20740000   259.88075      8764.5814     -1263.4461      520.98994      2026.4925      10957.813     -2179.6586      66.412991      1.155771       52077.234    
  20760000   261.93357      8880.2188     -1199.32        527.34447      2099.2305      10906.63      -2163.388       73.839843      1.1547544      52123.084    
  20780000   256.68566      8810.5252     -1249.5751      523.89179      2129.1813      10929.597     -2223.3773      64.623003      1.157063       52019.085    
  20800000   262.018        8788.828      -1186.8096      527.91434      2087.411       10907.409     -2245.3899      61.940831      1.1487515      52395.458    
  20820000   258.85552      8829.4938     -1213.1487      539.95751      2062.5137      10988.029     -2257.3083      72.221007      1.153276       52189.9      
  20840000   256.23851      8812.1152     -1226.77        496.45658      2112.468       10953.422     -2230.2981      70.444326      1.1556221      52083.946    
  20860000   259.89138      8747.2142     -1228.9861      527.01529      2058.3004      10898.308     -2206.8098      63.328385      1.1511072      52288.233    
  20880000   257.97599      8845.8261     -1218.2398      518.41197      2080.0729      10999.958     -2245.3035      74.029352      1.1549651      52113.572    
  20900000   259.37995      8901.7414     -1187.5282      507.86307      2110.689       10926.601     -2159.2281      67.05272       1.1556995      52080.458    
  20920000   255.2357       8827.0567     -1223.9717      499.67986      2107.5454      10883.484     -2148.4546      71.414198      1.1577138      51989.844    
  20940000   255.50941      8827.0812     -1258.7898      519.75746      2088.6055      10910.701     -2145.6344      76.33805       1.1537923      52166.547    
  20960000   260.77996      8712.219      -1257.3677      512.07395      2057.3877      10886.021     -2196.4667      74.359947      1.152344       52232.112    
  20980000   256.97241      8865.6728     -1167.7779      522.05037      2054.2132      10943.426     -2194.696       72.106302      1.1548512      52118.714    
  21000000   258.56194      8828.1667     -1208.1932      499.3855       2106.4979      10899.213     -2163.2755      58.555631      1.1480312      52428.33     
  21020000   256.67186      8876.7787     -1207.6764      489.96925      2081.7637      10948.516     -2137.6513      65.54648       1.1528137      52210.827    
  21040000   260.93124      8772.1011     -1215.8479      519.33074      2084.2544      10896.767     -2212.5512      64.122797      1.1462087      52511.693    
  21060000   255.61642      8806.7514     -1232.444       520.93905      2069.7489      10904.787     -2159.8267      68.284838      1.1402988      52783.847    
  21080000   260.57142      8825.897      -1281.8155      510.39797      2068.6137      11009.123     -2197.1352      80.789678      1.156091       52062.822    
  21100000   256.6347       8852.8859     -1236.6651      524.99581      2116.9657      10885.043     -2137.6081      64.094727      1.1514848      52271.084    
  21120000   263.41669      8763.7455     -1232.1599      512.53602      2159.4905      10854.567     -2227.2414      60.226543      1.15083        52300.824    
  21140000   260.6598       8827.6135     -1188.7688      505.44609      2075.5101      10930.661     -2197.3507      66.462628      1.1547287      52124.242    
  21160000   263.98784      8852.5471     -1208.1027      524.52522      2060.9         11009.32      -2237.4737      67.694423      1.1492154      52374.306    
  21180000   262.7085       8807.618      -1211.1843      511.45736      2067.411       10914.351     -2175.6812      65.869633      1.1441889      52604.391    
  21200000   255.84714      8879.9225     -1225.0514      512.29946      2080.2682      10911.742     -2108.7131      73.671527      1.1510989      52288.606    
  21220000   259.46407      8824.7718     -1180.1878      501.94361      2079.3629      10930.368     -2211.649       69.477877      1.1545552      52132.077    
  21240000   258.9012       8771.0908     -1194.7439      506.25722      2151.3839      10913.594     -2308.8674      67.950601      1.148465       52408.528    
  21260000   255.70094      8867.7489     -1191.3543      515.98905      2084.9308      11006.204     -2257.0816      73.117744      1.1522874      52234.676    
  21280000   262.04426      8833.4136     -1160.1082      523.81032      2134.1265      10902.148     -2267.8467      65.345443      1.1517522      52258.949    
  21300000   260.19594      8796.983      -1173.2347      507.42999      2116.6008      10926.447     -2288.9218      72.291106      1.1451411      52560.648    
  21320000   259.94119      8826.1672     -1230.3087      514.64494      2049.4777      10949.552     -2154.2462      61.183402      1.1504459      52318.287    
  21340000   261.02297      8795.6491     -1248.4216      527.3516       2048.4099      10923.28      -2165.0266      74.322693      1.1519551      52249.742    
  21360000   259.78723      8904.4342     -1212.639       521.35739      2053.8899      10974.728     -2145.1604      75.923563      1.1512406      52282.171    
  21380000   263.16028      8813.2754     -1255.5842      533.33315      2076.1815      10920.472     -2169.3839      72.00242       1.1585261      51953.392    
  21400000   257.00427      8871.5379     -1222.9912      532.99517      2082.1952      10970.983     -2193.0608      65.141154      1.1480061      52429.479    
  21420000   257.90117      8803.4022     -1216.2896      534.28319      2084.0952      10845.044     -2145.4742      66.277221      1.1486274      52401.116    
  21440000   263.66065      8844.3461     -1225.4791      538.24332      2069.4019      10965.028     -2205.4141      66.890222      1.1492766      52371.517    
  21460000   259.29819      8865.0015     -1242.8047      526.62986      2031.3941      11040.335     -2207.8387      81.489217      1.1457287      52533.694    
  21480000   270.56634      8776.4567     -1225.3292      501.4628       2040.8278      10950.93      -2197.5789      70.495898      1.1459483      52523.625    
  21500000   260.59862      8762.3927     -1232.3758      511.35699      2019.7196      10896.435     -2145.1528      76.815949      1.1486837      52398.547    
  21520000   260.92323      8777.212      -1244.1355      513.30292      2060.8893      10913.126     -2165.4045      63.469255      1.1518553      52254.27     
  21540000   257.37633      8781.0885     -1236.3577      526.26369      2101.7779      10910.588     -2226.2901      69.076391      1.150074       52335.205    
  21560000   263.92982      8834.4463     -1232.8361      540.11027      2114.1493      10948.111     -2225.7265      54.472242      1.1558477      52073.781    
  21580000   264.53134      8763.2219     -1231.5233      512.70793      2087.0001      10981.415     -2291.6209      69.328514      1.1551284      52106.207    
  21600000   257.9197       8842.3433     -1223.5475      520.8887       2111.6356      10976.012     -2250.6613      72.01068       1.149057       52381.527    
  21600103   261.50008      8815.3324     -1187.0227      525.79893      2065.7525      10897.935     -2194.5954      71.373289      1.1488736      52389.888    
Loop time of 4023.26 on 24 procs for 1200000 steps with 5000 atoms

Performance: 6.443 ns/day, 3.725 hours/ns, 298.266 timesteps/s, 1.491 Matom-step/s
99.5% CPU use with 24 MPI tasks x no OpenMP threads

MPI task timing breakdown:
Section |  min time  |  avg time  |  max time  |%varavg| %total
---------------------------------------------------------------
Pair    | 2013.6     | 2272.2     | 2561.5     | 337.5 | 56.48
Bond    | 624.86     | 667.8      | 722.32     | 101.4 | 16.60
Kspace  | 534.14     | 878.14     | 1174.6     | 603.9 | 21.83
Neigh   | 20.748     | 20.818     | 20.908     |   1.2 |  0.52
Comm    | 130.39     | 135.15     | 139.32     |  22.8 |  3.36
Output  | 0.003594   | 0.0039806  | 0.012442   |   2.8 |  0.00
Modify  | 33.71      | 36.008     | 37.381     |  18.4 |  0.90
Other   |            | 13.1       |            |       |  0.33

Nlocal:        208.333 ave         218 max         184 min
Histogram: 1 0 0 2 1 3 1 5 5 6
Nghost:        4742.88 ave        4828 max        4679 min
Histogram: 4 2 1 2 8 1 2 2 1 1
Neighs:        71817.9 ave       80289 max       58601 min
Histogram: 1 0 2 3 4 3 1 0 5 5

Total # of neighbors = 1723630
Ave neighs/atom = 344.726
Ave special neighs/atom = 5.8564
Neighbor list builds = 6857
Dangerous builds = 0
unfix           fNPT
unfix           fMOM
next            a
jump            SELF loop
variable        a loop 26
variable        b equal 600-20*($a-1)
variable        b equal 600-20*(19-1)
fix             fMOM all momentum 100 linear 1 1 1 angular
fix             fNPT all npt temp $b $b $(100.0*dt) iso 1 1 $(100.0*dt)
fix             fNPT all npt temp 240 $b $(100.0*dt) iso 1 1 $(100.0*dt)
fix             fNPT all npt temp 240 240 $(100.0*dt) iso 1 1 $(100.0*dt)
fix             fNPT all npt temp 240 240 25 iso 1 1 $(100.0*dt)
fix             fNPT all npt temp 240 240 25 iso 1 1 25
run             1200000
PPPM initialization ...
  using 12-bit tables for long-range coulomb (../kspace.cpp:342)
  G vector (1/distance) = 0.11776185
  grid = 4 4 4
  stencil order = 5
  estimated absolute RMS force accuracy = 0.28393675
  estimated relative force accuracy = 0.0008550671
  using double precision KISS FFT
  3d grid and FFT values/proc = 294 4
Generated 36 of 36 mixed pair_coeff terms from sixthpower/sixthpower mixing rule
WARNING: Inconsistent image flags (../domain.cpp:815)
Per MPI rank memory allocation (min/avg/max) = 15.04 | 15.05 | 15.05 Mbytes
   Step          Temp          PotEng         E_vdwl         E_coul         E_bond        E_angle        E_dihed        E_impro        Density         Volume    
  21600103   261.50008      8815.3103     -1187.0227      525.26706      2065.7525      10897.935     -2194.5954      71.373289      1.1488736      52389.888    
  21620000   240.35407      8468.7674     -1295.6409      500.90874      1956.3236      10875.866     -2263.1048      58.40847       1.1571923      52013.272    
  21640000   239.98375      8572.649      -1249.5109      536.81124      2024.5647      10821.864     -2267.672       70.183102      1.1485997      52402.38     
  21660000   236.21694      8538.2052     -1282.1008      517.50486      1948.1555      10825.896     -2177.1147      68.892405      1.1484305      52410.1      
  21680000   240.18623      8560.4561     -1266.4138      504.71225      1955.222       10913.977     -2242.4569      59.595626      1.1549436      52114.543    
  21700000   241.12568      8470.0684     -1262.2197      537.7973       1925.5133      10809.936     -2232.4888      55.190853      1.1550041      52111.814    
  21720000   243.26928      8518.0778     -1221.61        518.92494      1936.5449      10847.602     -2272.2613      72.328314      1.1525108      52224.552    
  21740000   242.39545      8551.7501     -1298.2006      540.91077      2023.6274      10892.425     -2304.2683      61.397251      1.1555846      52085.634    
  21760000   241.51801      8473.2912     -1257.7972      515.59862      1946.6294      10781.061     -2202.379       53.853905      1.1492403      52373.171    
  21780000   239.39965      8514.7768     -1247.9399      510.37253      2004.1517      10808.1       -2249.5697      53.069221      1.1547366      52123.885    
  21800000   240.32444      8551.3683     -1256.8302      527.30684      2047.0589      10814.836     -2278.6         61.091066      1.1539325      52160.208    
  21820000   240.35152      8482.3811     -1291.1713      507.63714      1979.5114      10788.209     -2196.2305      57.630999      1.1540911      52153.038    
  21840000   241.93007      8574.8257     -1260.418       526.8665       1968.6434      10830.741     -2196.1805      68.485475      1.1492547      52372.517    
  21860000   237.41705      8455.7882     -1275.5957      514.14905      1924.8586      10855.417     -2262.1318      62.582695      1.1587963      51941.275    
  21880000   242.73032      8585.8989     -1223.6806      518.3151       2026.944       10859.866     -2290.5081      58.003751      1.1516533      52263.436    
  21900000   242.52476      8560.2691     -1191.7903      525.93085      2001.6378      10835.417     -2314.8076      66.93524       1.1471674      52467.807    
  21920000   240.22422      8462.3645     -1244.1519      497.11499      1946.1639      10894.188     -2326.5561      59.38105       1.1489377      52386.964    
  21940000   236.11533      8518.3991     -1267.0287      505.74496      1957.1367      10837.63      -2210.1099      59.162595      1.1579921      51977.349    
  21960000   242.18448      8490.3872     -1287.5031      519.26206      1935.1747      10812.235     -2182.6219      57.78014       1.1557853      52076.591    
  21980000   240.98039      8582.4792     -1253.1055      524.71744      2056.3764      10787.457     -2228.6482      58.908746      1.1497466      52350.108    
  22000000   238.94593      8496.6428     -1222.0646      518.87781      1967.2604      10777.522     -2242.5294      60.519665      1.1516999      52261.323    
  22020000   241.14758      8463.8427     -1256.2466      509.19689      1926.2509      10772.707     -2174.4532      49.564168      1.1547779      52122.024    
  22040000   238.28266      8443.726      -1255.8654      521.91579      1956.0298      10744.221     -2219.6462      60.672394      1.1544853      52135.234    
  22060000   242.68271      8535.4168     -1272.0379      531.9879       1991.8291      10822.382     -2235.1058      59.545732      1.1571078      52017.069    
  22080000   242.35165      8555.8519     -1246.8427      516.98893      1958.9809      10801.697     -2175.3011      64.211268      1.155305       52098.241    
  22100000   246.29049      8599.2173     -1251.7213      537.98928      1985.1487      10842.886     -2211.1634      59.208007      1.1479436      52432.332    
  22120000   239.40173      8525.0437     -1237.7964      532.47809      2014.3897      10849.346     -2328.6822      59.067942      1.1485749      52403.514    
  22140000   237.66573      8501.7997     -1289.8688      527.91812      1956.576       10878.926     -2268.2079      59.824901      1.1562934      52053.707    
  22160000   235.85509      8497.4734     -1223.1352      520.57076      1960.8827      10785.347     -2240.4701      58.369734      1.1531147      52197.199    
  22180000   237.39034      8562.3622     -1226.589       531.42464      1986.0727      10784.662     -2216.251       66.724407      1.1555575      52086.857    
  22200000   237.82694      8584.8114     -1259.5668      534.19832      1936.4113      10831.501     -2156.4408      62.304811      1.1527302      52214.612    
  22220000   240.5288       8530.7525     -1252.7147      530.05596      1923.2121      10849.841     -2219.0527      63.16195       1.1512112      52283.507    
  22240000   236.61648      8523.8505     -1290.3373      547.28027      1948.6134      10856.291     -2233.6045      59.710178      1.1533323      52187.354    
  22260000   233.86154      8587.4642     -1237.2363      498.45124      1971.7827      10846.577     -2197.5495      69.120031      1.151682       52262.134    
  22280000   244.79557      8449.4958     -1252.062       506.96003      1953.5295      10794.032     -2245.1305      55.710908      1.1511553      52286.045    
  22300000   240.70092      8515.2848     -1287.5856      503.69471      1917.3805      10916.956     -2224.6947      53.379793      1.1562388      52056.166    
  22320000   239.60457      8528.9025     -1319.9944      533.82957      1984.3754      10812.848     -2174.6469      56.28742       1.1573251      52007.302    
  22340000   245.34055      8456.09       -1243.4674      518.39079      1938.7025      10780.599     -2224.0685      49.426404      1.1565822      52040.71     
  22360000   240.64672      8460.9308     -1293.7828      526.96942      1949.6042      10805.64      -2225.8504      61.991308      1.1555392      52087.681    
  22380000   234.95128      8488.1451     -1273.6193      508.43038      1988.2583      10825.541     -2248.178       52.04634       1.1540305      52155.776    
  22400000   237.26989      8567.1254     -1224.6512      509.94605      2013.7875      10826.705     -2252.613       57.521774      1.158265       51965.104    
  22420000   241.61848      8471.878      -1300.0858      509.65424      1985.6328      10837.205     -2256.7856      59.62984       1.1536258      52174.074    
  22440000   243.19555      8512.9029     -1243.8855      520.66103      1956.266       10764.777     -2190.0425      68.627267      1.1545638      52131.686    
  22460000   241.35467      8510.0474     -1298.8306      516.59705      1947.4896      10869.329     -2225.8258      64.712022      1.1553604      52095.742    
  22480000   242.48087      8489.9258     -1285.9465      527.37821      1945.1256      10798.936     -2194.0076      61.599363      1.1598573      51893.763    
  22500000   244.07548      8508.5334     -1232.3271      531.42851      1981.8373      10772.316     -2238.6507      57.716636      1.1562844      52054.112    
  22520000   240.20091      8533.0778     -1233.1861      529.95921      1948.9352      10873.603     -2275.4997      53.188791      1.1615089      51819.972    
  22540000   242.46797      8552.3037     -1242.1124      533.08094      1998.3016      10813.909     -2243.8736      56.466174      1.157073       52018.636    
  22560000   244.8216       8570.2865     -1261.974       540.63973      2003.2966      10757.227     -2169.0527      64.413003      1.154783       52121.792    
  22580000   243.21835      8498.2301     -1265.414       529.02924      1956.4712      10863.931     -2282.385       60.224703      1.1549025      52116.396    
  22600000   237.58887      8536.6429     -1258.8563      537.15298      2010.7464      10757.618     -2206.3283      60.709839      1.1628807      51758.843    
  22620000   239.50869      8571.2275     -1256.4993      510.16509      2012.3545      10850.401     -2247.7403      66.174244      1.1628988      51758.035    
  22640000   237.15133      8540.8794     -1251.8166      550.29477      1931.1397      10828.974     -2221.4241      67.305275      1.1532054      52193.094    
  22660000   240.14039      8546.4295     -1242.6914      502.89652      2007.387       10833.055     -2254.6977      64.443592      1.1540138      52156.532    
  22680000   241.01128      8439.6766     -1280.5255      508.97154      1912.8328      10848.948     -2252.2234      65.334362      1.1583551      51961.061    
  22700000   239.04241      8540.0837     -1242.064       508.38546      1964.3975      10848.028     -2239.1179      64.116671      1.1539859      52157.795    
  22720000   239.9941       8493.8426     -1277.5199      513.07628      1935.7564      10814.541     -2187.8113      59.023901      1.1557146      52079.777    
  22740000   237.25778      8492.3498     -1283.1929      533.01769      1966.5726      10803.801     -2230.2923      65.547681      1.1562574      52055.328    
  22760000   238.51892      8453.7014     -1273.1078      523.82844      1922.954       10784.967     -2202.5754      61.558821      1.15406        52154.447    
  22780000   240.35086      8574.0349     -1258.6695      525.13595      2060.962       10795.956     -2250.8221      64.908359      1.157591       51995.36     
  22800000   235.57813      8427.6322     -1269.667       493.00935      1940.4122      10842.968     -2272.4033      56.596423      1.1557731      52077.141    
  22800103   238.37643      8480.6358     -1277.9835      505.14277      1974.023       10783.203     -2201.2148      60.656514      1.153472       52181.031    
Loop time of 4029.63 on 24 procs for 1200000 steps with 5000 atoms

Performance: 6.432 ns/day, 3.731 hours/ns, 297.794 timesteps/s, 1.489 Matom-step/s
99.5% CPU use with 24 MPI tasks x no OpenMP threads

MPI task timing breakdown:
Section |  min time  |  avg time  |  max time  |%varavg| %total
---------------------------------------------------------------
Pair    | 2023.2     | 2281.3     | 2582       | 331.1 | 56.61
Bond    | 622.67     | 667.1      | 718.08     |  98.5 | 16.55
Kspace  | 534.86     | 877.24     | 1176.2     | 587.7 | 21.77
Neigh   | 19.493     | 19.571     | 19.643     |   1.2 |  0.49
Comm    | 130.82     | 135.49     | 139.76     |  23.2 |  3.36
Output  | 0.0040332  | 0.0043909  | 0.012181   |   2.5 |  0.00
Modify  | 33.683     | 35.915     | 37.143     |  18.2 |  0.89
Other   |            | 13.03      |            |       |  0.32

Nlocal:        208.333 ave         224 max         197 min
Histogram: 3 3 5 3 1 2 2 3 0 2
Nghost:        4765.42 ave        4827 max        4728 min
Histogram: 3 3 3 6 2 2 3 1 0 1
Neighs:        72273.2 ave       80613 max       64389 min
Histogram: 4 2 4 1 1 2 2 3 0 5

Total # of neighbors = 1734556
Ave neighs/atom = 346.9112
Ave special neighs/atom = 5.8564
Neighbor list builds = 6468
Dangerous builds = 0
unfix           fNPT
unfix           fMOM
next            a
jump            SELF loop
variable        a loop 26
variable        b equal 600-20*($a-1)
variable        b equal 600-20*(20-1)
fix             fMOM all momentum 100 linear 1 1 1 angular
fix             fNPT all npt temp $b $b $(100.0*dt) iso 1 1 $(100.0*dt)
fix             fNPT all npt temp 220 $b $(100.0*dt) iso 1 1 $(100.0*dt)
fix             fNPT all npt temp 220 220 $(100.0*dt) iso 1 1 $(100.0*dt)
fix             fNPT all npt temp 220 220 25 iso 1 1 $(100.0*dt)
fix             fNPT all npt temp 220 220 25 iso 1 1 25
run             1200000
PPPM initialization ...
  using 12-bit tables for long-range coulomb (../kspace.cpp:342)
  G vector (1/distance) = 0.11787498
  grid = 4 4 4
  stencil order = 5
  estimated absolute RMS force accuracy = 0.28374702
  estimated relative force accuracy = 0.00085449573
  using double precision KISS FFT
  3d grid and FFT values/proc = 294 4
Generated 36 of 36 mixed pair_coeff terms from sixthpower/sixthpower mixing rule
WARNING: Inconsistent image flags (../domain.cpp:815)
Per MPI rank memory allocation (min/avg/max) = 15.04 | 15.05 | 15.05 Mbytes
   Step          Temp          PotEng         E_vdwl         E_coul         E_bond        E_angle        E_dihed        E_impro        Density         Volume    
  22800103   238.37643      8480.7635     -1277.9835      506.57584      1974.023       10783.203     -2201.2148      60.656514      1.153472       52181.031    
  22820000   221.12902      8184.6917     -1317.4915      519.84463      1858.9126      10678.979     -2241.4915      50.803654      1.1628521      51760.116    
  22840000   214.9316       8193.5419     -1306.6269      523.82024      1893.8064      10652.335     -2264.158       59.1753        1.1605717      51861.82     
  22860000   222.74445      8161.477      -1276.0141      513.73671      1884.5575      10642.362     -2289.1063      50.435739      1.1575271      51998.229    
  22880000   219.09846      8131.5596     -1304.7098      535.08766      1846.4985      10612.506     -2246.6117      53.898865      1.1590045      51931.946    
  22900000   216.61758      8172.4775     -1268.7774      503.57146      1882.5473      10663.726     -2292.9135      48.908443      1.155538       52087.735    
  22920000   219.09192      8207.3225     -1316.247       524.77358      1872.7003      10686.268     -2248.5735      53.431091      1.1583822      51959.844    
  22940000   226.00595      8169.9942     -1279.0049      504.91841      1872.4154      10681.802     -2296.8834      51.820718      1.1631767      51745.67     
  22960000   219.12857      8234.377      -1252.6763      530.41051      1880.0974      10680.891     -2295.5832      55.93703       1.1629939      51753.805    
  22980000   217.3219       8230.0835     -1271.3544      529.29667      1920.0876      10678.607     -2313.3001      51.686738      1.1600393      51885.621    
  23000000   220.36888      8133.3407     -1254.8414      516.82424      1819.8555      10656.931     -2289.3478      48.918553      1.1663167      51606.357    
  23020000   219.792        8119.3643     -1280.3718      530.44386      1819.9729      10680.536     -2319.328       52.483297      1.1627046      51766.68     
  23040000   221.48755      8198.2221     -1279.043       521.29205      1880.6902      10641.314     -2251.2302      50.182218      1.1648066      51673.266    
  23060000   222.38882      8204.8373     -1332.471       532.12339      1857.2348      10694.832     -2236.1486      54.577815      1.1581021      51972.413    
  23080000   219.74121      8204.1081     -1303.1936      530.15881      1857.2963      10661.905     -2229.2104      52.293641      1.1566178      52039.108    
  23100000   216.7434       8250.5692     -1318.2865      517.25703      1899.9967      10702.728     -2249.7793      63.909992      1.1631782      51745.604    
  23120000   215.6507       8217.2279     -1324.844       512.84936      1857.7898      10703.746     -2223.0506      55.948584      1.1623395      51782.944    
  23140000   219.7833       8218.3408     -1283.3479      534.18131      1873.4855      10639.552     -2234.2745      53.617165      1.1665696      51595.173    
  23160000   224.94189      8208.1146     -1267.6538      513.2075       1890.3507      10679.935     -2302.088       59.598884      1.1604892      51865.507    
  23180000   217.88648      8183.0976     -1251.8232      504.56636      1864.1271      10646.477     -2262.6886      47.947441      1.1630747      51750.21     
  23200000   221.24733      8190.4572     -1296.0206      511.80929      1880.7348      10749.648     -2344.6717      54.299838      1.1571536      52015.011    
  23220000   222.86281      8118.4219     -1340.4758      513.80395      1852.484       10741.458     -2333.8133      50.065216      1.1637257      51721.259    
  23240000   222.62974      8238.9224     -1294.4861      522.28492      1850.2257      10729.947     -2257.5517      53.377757      1.1580245      51975.893    
  23260000   217.60412      8128.8211     -1329.9383      510.8465       1837.3005      10693.313     -2266.9622      48.97515       1.1605264      51863.843    
  23280000   214.12783      8244.5374     -1328.6266      530.32261      1838.6759      10737.929     -2229.8912      61.279102      1.1705699      51418.852    
  23300000   220.45426      8218.2192     -1313.0902      520.4916       1843.5863      10806.763     -2332.9237      58.926719      1.1604293      51868.18     
  23320000   216.72693      8186.9803     -1307.8646      527.35652      1847.7658      10754.32      -2320.3742      51.083522      1.1585475      51952.432    
  23340000   223.74549      8165.4248     -1362.1397      525.36416      1819.0853      10782.997     -2281.0956      46.200657      1.1618254      51805.856    
  23360000   222.01406      8213.0786     -1252.1439      520.86458      1880.8271      10616.605     -2242.6634      54.651258      1.1605142      51864.387    
  23380000   220.21356      8141.4663     -1326.982       503.42959      1866.7195      10701.908     -2279.9092      42.030045      1.1641766      51701.227    
  23400000   221.12258      8241.6419     -1339.9133      526.66943      1891.5912      10772.519     -2293.274       49.212544      1.1632014      51744.573    
  23420000   220.45201      8179.7652     -1263.2296      526.60013      1815.2969      10670.249     -2257.6439      53.437025      1.1616254      51814.777    
  23440000   218.41016      8144.926      -1306.8616      513.29442      1902.5619      10646.127     -2298.2753      53.736249      1.1664764      51599.292    
  23460000   216.96452      8198.6331     -1278.9942      523.32674      1882.0386      10681.816     -2292.8459      48.640278      1.1575595      51996.774    
  23480000   223.61025      8205.9431     -1304.9598      510.52747      1900.9575      10700.973     -2286.2028      49.91136       1.1657724      51630.454    
  23500000   224.03228      8204.9834     -1261.9972      514.33404      1822.1722      10678.173     -2233.6865      51.442933      1.1653011      51651.337    
  23520000   219.36177      8234.403      -1297.8576      525.28863      1854.1638      10726.852     -2264.1964      55.443157      1.1586206      51949.154    
  23540000   220.11439      8226.3633     -1319.9726      510.75003      1886.3673      10649.201     -2194.1159      59.385861      1.1637255      51721.268    
  23560000   220.52829      8170.5391     -1276.3138      539.73987      1861.4753      10648.83      -2288.1471      50.055971      1.1607549      51853.634    
  23580000   221.34852      8215.3948     -1291.7266      519.62347      1879.1514      10704.723     -2275.188       44.34406       1.1609385      51845.434    
  23600000   216.4632       8178.912      -1303.9963      527.72292      1831.9733      10723.897     -2287.4922      51.413456      1.1604257      51868.343    
  23620000   217.71102      8217.4519     -1318.8816      518.59         1901.1125      10712.778     -2291.0527      59.554184      1.1647316      51676.592    
  23640000   222.91861      8198.3832     -1276.824       503.60687      1885.7057      10683.949     -2283.5569      50.30934       1.1684035      51514.19     
  23660000   216.81113      8164.8426     -1282.8057      521.76428      1861.2219      10706.442     -2328.5416      51.659104      1.163429       51734.449    
  23680000   220.77291      8152.1939     -1322.0176      536.34491      1883.5908      10631.737     -2259.7806      47.379971      1.1665542      51595.851    
  23700000   218.46704      8187.7685     -1294.4381      527.96127      1898.4914      10682.863     -2310.7581      48.676799      1.1678315      51539.419    
  23720000   218.77116      8208.59       -1311.7026      539.75684      1826.7702      10702.007     -2233.242       49.259509      1.1568116      52030.389    
  23740000   219.98149      8218.7318     -1320.3191      537.77047      1855.7505      10731.775     -2276.4453      55.482255      1.1587391      51943.838    
  23760000   218.5606       8190.6085     -1310.6192      535.29378      1832.9441      10689.536     -2236.2221      44.38394       1.160699       51856.131    
  23780000   220.26021      8209.334      -1268.8511      525.60888      1842.5804      10669.016     -2235.0356      40.757589      1.1605697      51861.909    
  23800000   219.73202      8140.6147     -1308.7891      534.58641      1857.373       10696.427     -2321.9468      48.134557      1.1549304      52115.14     
  23820000   220.00434      8213.8514     -1280.576       539.37915      1849.2841      10727.574     -2316.2975      59.88592       1.166586       51594.445    
  23840000   217.72254      8190.2239     -1303.8545      527.91373      1839.4577      10707.803     -2267.3317      50.822266      1.1648083      51673.189    
  23860000   216.72675      8231.7847     -1314.5321      531.2624       1878.6102      10721.954     -2273.2971      53.048586      1.1618356      51805.402    
  23880000   222.28782      8229.9463     -1241.2378      516.63024      1848.4641      10736.029     -2316.4218      51.531962      1.1588896      51937.094    
  23900000   219.89093      8168.672      -1287.8945      512.21891      1832.9436      10733.258     -2307.4571      50.454891      1.1617931      51807.297    
  23920000   217.3878       8263.2756     -1282.2883      533.45016      1817.0028      10699.86      -2193.3487      53.343277      1.1560955      52062.618    
  23940000   221.36037      8206.5932     -1336.5406      519.57235      1859.8168      10722.78      -2247.5975      53.443202      1.1548419      52119.131    
  23960000   218.69471      8213.2479     -1293.6713      522.17306      1904.0704      10691.399     -2302.8464      57.337375      1.1590113      51931.642    
  23980000   220.66403      8180.9615     -1288.589       510.72676      1852.2625      10715.062     -2293.4257      49.570724      1.158148       51970.352    
  24000000   220.9761       8263.3651     -1276.851       522.48058      1911.2886      10738.604     -2318.4088      51.311147      1.1577563      51987.933    
  24000103   220.64352      8215.4659     -1291.7841      520.55685      1854.739       10743.132     -2303.0766      56.817476      1.1598779      51892.841    
Loop time of 4030.11 on 24 procs for 1200000 steps with 5000 atoms

Performance: 6.432 ns/day, 3.732 hours/ns, 297.758 timesteps/s, 1.489 Matom-step/s
99.5% CPU use with 24 MPI tasks x no OpenMP threads

MPI task timing breakdown:
Section |  min time  |  avg time  |  max time  |%varavg| %total
---------------------------------------------------------------
Pair    | 2049.2     | 2297.1     | 2586.5     | 314.3 | 57.00
Bond    | 622.08     | 666.93     | 721.91     | 109.0 | 16.55
Kspace  | 534.53     | 863.92     | 1152.3     | 570.2 | 21.44
Neigh   | 17.632     | 17.693     | 17.75      |   1.1 |  0.44
Comm    | 131.04     | 135.53     | 139.62     |  22.4 |  3.36
Output  | 0.0033405  | 0.0036828  | 0.011188   |   2.6 |  0.00
Modify  | 33.622     | 36.012     | 37.146     |  18.0 |  0.89
Other   |            | 12.88      |            |       |  0.32

Nlocal:        208.333 ave         221 max         195 min
Histogram: 1 2 3 4 2 3 2 0 5 2
Nghost:        4751.21 ave        4790 max        4710 min
Histogram: 1 2 2 4 3 3 1 3 3 2
Neighs:        72326.2 ave       81865 max       63070 min
Histogram: 2 3 1 4 2 2 3 4 2 1

Total # of neighbors = 1735830
Ave neighs/atom = 347.166
Ave special neighs/atom = 5.8564
Neighbor list builds = 5863
Dangerous builds = 0
unfix           fNPT
unfix           fMOM
next            a
jump            SELF loop
variable        a loop 26
variable        b equal 600-20*($a-1)
variable        b equal 600-20*(21-1)
fix             fMOM all momentum 100 linear 1 1 1 angular
fix             fNPT all npt temp $b $b $(100.0*dt) iso 1 1 $(100.0*dt)
fix             fNPT all npt temp 200 $b $(100.0*dt) iso 1 1 $(100.0*dt)
fix             fNPT all npt temp 200 200 $(100.0*dt) iso 1 1 $(100.0*dt)
fix             fNPT all npt temp 200 200 25 iso 1 1 $(100.0*dt)
fix             fNPT all npt temp 200 200 25 iso 1 1 25
run             1200000
PPPM initialization ...
  using 12-bit tables for long-range coulomb (../kspace.cpp:342)
  G vector (1/distance) = 0.11803192
  grid = 4 4 4
  stencil order = 5
  estimated absolute RMS force accuracy = 0.28348236
  estimated relative force accuracy = 0.00085369872
  using double precision KISS FFT
  3d grid and FFT values/proc = 294 4
Generated 36 of 36 mixed pair_coeff terms from sixthpower/sixthpower mixing rule
WARNING: Inconsistent image flags (../domain.cpp:815)
Per MPI rank memory allocation (min/avg/max) = 15.04 | 15.05 | 15.05 Mbytes
   Step          Temp          PotEng         E_vdwl         E_coul         E_bond        E_angle        E_dihed        E_impro        Density         Volume    
  24000103   220.64352      8215.5576     -1291.7841      522.4604       1854.739       10743.132     -2303.0766      56.817476      1.1598779      51892.841    
  24020000   197.00582      7865.782      -1311.713       521.50539      1687.0979      10575.775     -2286.1299      46.026996      1.1670824      51572.501    
  24040000   200.15293      7948.7383     -1345.5456      520.86269      1771.5395      10605.009     -2285.008       48.100513      1.1604167      51868.744    
  24060000   197.1606       7919.3666     -1313.4926      543.69444      1746.2854      10604.464     -2343.414       48.431218      1.1633788      51736.682    
  24080000   201.34518      7910.4291     -1343.7765      518.15983      1753.7195      10553.903     -2248.5431      43.433235      1.1612634      51830.926    
  24100000   196.51456      7882.5984     -1313.7056      526.1115       1760.631       10579.117     -2348.3065      45.467393      1.1654854      51643.17     
  24120000   202.43229      7870.1406     -1326.7633      527.90311      1759.2205      10582.372     -2350.7707      44.570405      1.1672578      51564.751    
  24140000   202.25645      7875.0943     -1319.1802      535.52428      1718.1177      10616.307     -2353.0509      43.574094      1.1643692      51692.677    
  24160000   202.56157      7874.9984     -1295.1997      525.65727      1766.2732      10548.265     -2349.3979      45.430402      1.1626852      51767.544    
  24180000   201.35539      7907.7919     -1315.2914      541.12945      1766.7668      10582.641     -2346.3522      45.434848      1.171994       51356.37     
  24200000   194.06958      7865.3513     -1358.362       535.24131      1766.1565      10587.231     -2341.7872      43.27066       1.1622821      51785.501    
  24220000   199.03988      7853.0336     -1340.0391      526.93672      1802.2087      10537.694     -2355.7983      48.672104      1.1663246      51606.011    
  24240000   198.05007      7847.9832     -1360.5019      518.04559      1770.6355      10632.659     -2398.9539      52.936378      1.170303       51430.577    
  24260000   198.97828      7868.5026     -1333.0899      526.76092      1771.0299      10548.313     -2326.7731      49.014845      1.1646361      51680.83     
  24280000   204.08495      7898.819      -1296.2393      532.40987      1778.0935      10606.94      -2398.267       42.726713      1.1615291      51819.072    
  24300000   202.35251      7926.2862     -1328.6752      526.84872      1744.9225      10586.577     -2288.5725      51.949475      1.1631998      51744.642    
  24320000   199.24328      7972.5606     -1358.1751      532.48862      1784.7724      10613.372     -2279.5458      46.37612       1.1636054      51726.605    
  24340000   202.34296      7890.4058     -1320.9824      531.52972      1770.0325      10611.875     -2380.9876      46.28629       1.1658701      51626.128    
  24360000   198.96207      7885.2004     -1309.7809      513.67599      1764.4236      10589.561     -2351.3752      45.655265      1.1639181      51712.708    
  24380000   201.42416      7971.8131     -1358.6271      527.67337      1806.1675      10582.669     -2265.5315      45.920539      1.1658218      51628.267    
  24400000   203.20609      7906.1083     -1314.2954      534.47755      1745.1643      10556.205     -2292.5422      43.850057      1.1689232      51491.285    
  24420000   199.00448      7899.9193     -1307.0544      526.48675      1776.3507      10624.437     -2398.2888      45.114884      1.1678258      51539.673    
  24440000   200.87111      7858.0511     -1326.9786      541.34058      1708.9061      10574.144     -2314.5606      42.567854      1.1645896      51682.891    
  24460000   201.33916      7897.0894     -1333.8716      535.26495      1772.7734      10557.291     -2304.7046      37.333484      1.1609084      51846.775    
  24480000   201.32099      7867.3459     -1312.5248      505.61733      1704.7638      10654.048     -2365.0972      47.445953      1.1649242      51668.049    
  24500000   201.49209      7909.6604     -1314.5132      522.72089      1756.2943      10543.318     -2273.5432      42.515944      1.1626969      51767.025    
  24520000   201.84326      7899.8637     -1309.6367      519.7861       1724.0915      10638.885     -2352.4469      46.401741      1.1596016      51905.206    
  24540000   200.25626      7911.6145     -1313.4245      518.04228      1792.215       10620.862     -2386.1057      46.50207       1.1612231      51832.728    
  24560000   201.7873       7897.5421     -1332.4291      523.32832      1742.1687      10581.419     -2296.9519      47.074917      1.1675437      51552.124    
  24580000   204.47046      7857.7279     -1309.3802      534.15633      1747.1069      10572.97      -2362.2132      41.540596      1.1592878      51919.253    
  24600000   199.14602      7886.3051     -1338.2319      510.12762      1775.8954      10555.666     -2304.3402      54.128159      1.1644503      51689.074    
  24620000   204.68794      7951.0978     -1350.3303      538.43948      1736.7026      10642.677     -2277.9979      28.677016      1.1651297      51658.935    
  24640000   199.91986      7949.5364     -1290.1594      537.06526      1776.6661      10606.119     -2362.5591      48.874069      1.1657369      51632.029    
  24660000   199.86097      7811.9        -1342.4832      518.39344      1739.9253      10595.292     -2368.7349      36.337354      1.1689435      51490.393    
  24680000   199.3484       7927.9016     -1369.2429      512.64349      1725.5988      10608.887     -2226.8769      43.422717      1.1616246      51814.809    
  24700000   198.32155      7859.091      -1353.7606      514.72648      1731.1428      10618.79      -2330.1123      45.347328      1.1640924      51704.965    
  24720000   196.93438      7951.4517     -1331.4632      532.91832      1799.7785      10599.934     -2328.0398      45.345878      1.1626961      51767.059    
  24740000   199.89377      7928.0938     -1328.4279      519.79622      1703.0951      10592.458     -2235.7197      44.126083      1.165605       51637.869    
  24760000   196.74064      7854.6372     -1349.7514      524.71836      1730.9755      10624.034     -2352.3291      44.046772      1.1592284      51921.914    
  24780000   201.55809      7828.9024     -1342.9102      517.00925      1738.0834      10608.69      -2366.2371      40.661666      1.1678699      51537.726    
  24800000   202.3772       7928.0697     -1342.5799      524.07427      1746.0266      10631.738     -2309.7533      45.298113      1.166739       51587.682    
  24820000   199.83976      7863.8464     -1331.0103      519.48015      1768.9498      10555.639     -2325.5584      43.109902      1.1646443      51680.465    
  24840000   197.90346      7933.6364     -1312.0476      519.36199      1766.0644      10593.828     -2312.1339      45.30368       1.1691502      51481.287    
  24860000   201.55497      7872.2946     -1325.2249      508.28928      1715.2412      10606.048     -2312.2432      47.243988      1.1656286      51636.826    
  24880000   201.38632      7940.3171     -1305.474       522.20598      1781.1365      10574.551     -2310.2942      45.31185       1.1635552      51728.837    
  24900000   202.24443      7890.636      -1307.5495      520.88211      1761.2986      10554.047     -2310.797       39.530382      1.168493       51510.242    
  24920000   199.65124      7837.4149     -1364.4068      510.3061       1678.2297      10604.021     -2270.8361      46.197984      1.1690552      51485.47     
  24940000   202.32093      7841.6202     -1358.4732      547.27309      1702.0709      10563.015     -2287.303       41.350997      1.1698617      51449.976    
  24960000   202.11531      7920.8816     -1332.8889      524.72525      1756.6327      10609.269     -2318.5283      48.371717      1.1648458      51671.523    
  24980000   199.9555       7886.2468     -1344.906       518.83868      1731.2668      10568.672     -2266.7144      45.867922      1.1588624      51938.316    
  25000000   197.25118      7883.0861     -1330.2193      513.66796      1769.1221      10548.643     -2292.3787      41.727665      1.1637037      51722.238    
  25020000   199.24056      7893.7811     -1376.5164      512.91201      1759.7366      10649.264     -2338.3757      53.658607      1.1680492      51529.813    
  25040000   194.80398      7909.5801     -1354.6175      529.94503      1711.6008      10623.483     -2284.8979      51.01855       1.1645384      51685.165    
  25060000   197.10781      7843.8453     -1313.8109      502.09362      1761.1298      10591.264     -2370.7314      40.728234      1.1617189      51810.607    
  25080000   203.59214      7894.394      -1312.0664      533.47032      1713.0071      10590.056     -2304.5901      41.244361      1.165884       51625.514    
  25100000   198.22058      7869.7278     -1321.8615      514.85876      1733.9369      10644.005     -2373.7745      39.431719      1.1625618      51773.039    
  25120000   198.29586      7867.4135     -1332.8326      526.14318      1773.2793      10588.109     -2366.4311      45.875796      1.1652731      51652.577    
  25140000   200.72371      7857.1991     -1312.6903      517.35204      1748.518       10559.2       -2334.1901      45.800183      1.1596131      51904.689    
  25160000   198.7252       7836.3327     -1365.7683      509.36055      1683.1437      10654.375     -2318.2329      40.577106      1.1644033      51691.162    
  25180000   199.92779      7920.4987     -1308.0281      548.12117      1760.8893      10615.701     -2371.0755      41.919095      1.1639178      51712.725    
  25200000   201.10109      7956.002      -1331.8799      532.33776      1803.6183      10600.206     -2330.8897      49.559852      1.1629294      51756.673    
  25200103   200.7038       7911.2646     -1330.3326      525.71586      1792.2006      10639.413     -2399.7042      51.05134       1.1642055      51699.944    
Loop time of 4027.74 on 24 procs for 1200000 steps with 5000 atoms

Performance: 6.435 ns/day, 3.729 hours/ns, 297.934 timesteps/s, 1.490 Matom-step/s
99.5% CPU use with 24 MPI tasks x no OpenMP threads

MPI task timing breakdown:
Section |  min time  |  avg time  |  max time  |%varavg| %total
---------------------------------------------------------------
Pair    | 2024.4     | 2298.4     | 2593       | 320.8 | 57.06
Bond    | 624.78     | 666.32     | 716.84     | 111.2 | 16.54
Kspace  | 524.98     | 861.77     | 1177.7     | 585.4 | 21.40
Neigh   | 16.236     | 16.305     | 16.368     |   1.2 |  0.40
Comm    | 131.07     | 135.65     | 139.6      |  21.8 |  3.37
Output  | 0.0043442  | 0.0048918  | 0.016892   |   3.6 |  0.00
Modify  | 33.53      | 36.2       | 37.575     |  18.9 |  0.90
Other   |            | 13.07      |            |       |  0.32

Nlocal:        208.333 ave         220 max         198 min
Histogram: 2 2 2 4 2 6 1 1 2 2
Nghost:        4777.04 ave        4837 max        4738 min
Histogram: 3 2 1 7 4 3 2 1 0 1
Neighs:        72734.8 ave       81222 max       65021 min
Histogram: 2 4 2 2 3 1 3 5 0 2

Total # of neighbors = 1745635
Ave neighs/atom = 349.127
Ave special neighs/atom = 5.8564
Neighbor list builds = 5407
Dangerous builds = 0
