LAMMPS (22 Dec 2022)
WARNING: Using I/O redirection is unreliable with parallel runs. Better to use the -in switch to read input files. (../lammps.cpp:531)
# PREREQUISITES:
#
#     You must use moltemplate.sh to create 3 files:
#        system.data  system.in.init  system.in.settings
#     (Follow the instructions in README_setup.sh,
#      or run the file as a script using ./README_setup.sh)

# ------------------------------- Initialization Section --------------------

units real
atom_style full
pair_style lj/class2/coul/long 10.0 10.0
bond_style class2
angle_style class2
dihedral_style class2
improper_style class2
pair_modify	mix sixthpower tail yes
special_bonds	lj/coul 0 0 1
kspace_style pppm/cg 0.0001


# ------------------------------- Atom Definition Section -------------------

read_data       "pack_mol.data" extra/bond/per/atom 1 extra/angle/per/atom 12 extra/dihedral/per/atom 12 extra/improper/per/atom 12 extra/special/per/atom 12
Reading data file ...
  orthogonal box = (0 0 0) to (49.718356 49.718356 49.718356)
  1 by 2 by 3 MPI processor grid
  reading atoms ...
  5016 atoms
  scanning bonds ...
  5 = max bonds/atom
  scanning angles ...
  18 = max angles/atom
  scanning dihedrals ...
  29 = max dihedrals/atom
  scanning impropers ...
  16 = max impropers/atom
  reading bonds ...
  5412 bonds
  reading angles ...
  11088 angles
  reading dihedrals ...
  17688 dihedrals
  reading impropers ...
  6996 impropers
Finding 1-2 1-3 1-4 neighbors ...
  special bond factors lj:    0        0        1       
  special bond factors coul:  0        0        1       
     4 = max # of 1-2 neighbors
     9 = max # of 1-3 neighbors
    25 = max # of special neighbors
  special bonds CPU = 0.000 seconds
  read_data CPU = 0.104 seconds

include calc.pram
# Pair Coeffs

pair_coeff	 1  1    0.05400    4.01000  # c,c
pair_coeff	 2  2    0.05400    4.01000  # c1,c1
pair_coeff	 3  3    0.12000    3.81000  # c_1,c_1
pair_coeff	 4  4    0.02000    2.99500  # hc,hc
pair_coeff	 5  5    0.24000    3.53500  # o3e,o3e
pair_coeff	 6  6    0.26700    3.30000  # o_1,o_1
pair_coeff	 7  7    0.24000    3.42000  # o_2,o_2

# Bond Coeffs

bond_coeff	 1    1.53000  299.67000 -501.77000  679.81000  # c,c
bond_coeff	 2    1.53000  299.67000 -501.77000  679.81000  # c,c1
bond_coeff	 3    1.10100  345.00000 -691.89000  844.60000  # c,hc
bond_coeff	 4    1.43000  326.72730 -608.53060  689.03330  # c,o_2
bond_coeff	 5    1.53000  299.67000 -501.77000  679.81000  # c1,c1
bond_coeff	 6    1.52020  253.70670 -423.03700  396.90000  # c1,c_1
bond_coeff	 7    1.10100  345.00000 -691.89000  844.60000  # c1,hc
bond_coeff	 8    1.42000  400.39540 -835.19510 1313.01420  # c1,o3e
bond_coeff	 9    1.20200  851.14030 -1918.48820 2160.76590  # c_1,o_1
bond_coeff	10    1.36830  367.14810 -794.79080 1055.23190  # c_1,o_2

# Angle Coeffs

angle_coeff	 1  112.67000   39.51600   -7.44300   -9.55830  # c,c,c1
angle_coeff	 2  110.77000   41.45300  -10.60400    5.12900  # c,c,hc
angle_coeff	 3  112.67000   39.51600   -7.44300   -9.55830  # c,c1,c
angle_coeff	 4  112.67000   39.51600   -7.44300   -9.55830  # c,c1,c1
angle_coeff	 5  108.52950   51.97470   -9.48510  -10.99850  # c,c1,c_1
angle_coeff	 6  110.77000   41.45300  -10.60400    5.12900  # c,c1,hc
angle_coeff	 7  111.27000   54.53810   -8.36420  -13.08380  # c,c1,o3e
angle_coeff	 8  113.28800   61.28680  -28.97860    7.99290  # c,o_2,c_1
angle_coeff	 9  112.67000   39.51600   -7.44300   -9.55830  # c1,c,c1
angle_coeff	10  110.77000   41.45300  -10.60400    5.12900  # c1,c,hc
angle_coeff	11  107.41000   63.39070  -13.45130    1.66500  # c1,c,o_2
angle_coeff	12  110.77000   41.45300  -10.60400    5.12900  # c1,c1,hc
angle_coeff	13  111.27000   54.53810   -8.36420  -13.08380  # c1,c1,o3e
angle_coeff	14  123.14510   55.54310  -17.21230    0.13480  # c1,c_1,o_1
angle_coeff	15  100.31820   38.86310   -3.83230   -7.98020  # c1,c_1,o_2
angle_coeff	16  104.50000   35.74540  -10.00670   -6.27290  # c1,o3e,c1
angle_coeff	17  107.73360   40.60990  -28.81210    0.00000  # c_1,c1,hc
angle_coeff	18  107.66000   39.64100  -12.92100   -2.43180  # hc,c,hc
angle_coeff	19  107.68800   65.48010  -10.34980    5.88660  # hc,c,o_2
angle_coeff	20  108.72800   58.54460  -10.80880  -12.40060  # hc,c1,o3e
angle_coeff	21  120.79700   95.34460  -32.28690    6.37780  # o_1,c_1,o_2

# BondBond Coeffs

angle_coeff	 1 bb    0.00000    1.53000    1.53000  # c,c,c1
angle_coeff	 2 bb    3.38720    1.53000    1.10100  # c,c,hc
angle_coeff	 3 bb    0.00000    1.53000    1.53000  # c,c1,c
angle_coeff	 4 bb    0.00000    1.53000    1.53000  # c,c1,c1
angle_coeff	 5 bb    5.41990    1.53000    1.52020  # c,c1,c_1
angle_coeff	 6 bb    3.38720    1.53000    1.10100  # c,c1,hc
angle_coeff	 7 bb   11.43180    1.53000    1.42000  # c,c1,o3e
angle_coeff	 8 bb   45.45030    1.43000    1.36830  # c,o_2,c_1
angle_coeff	 9 bb    0.00000    1.53000    1.53000  # c1,c,c1
angle_coeff	10 bb    3.38720    1.53000    1.10100  # c1,c,hc
angle_coeff	11 bb   23.26470    1.53000    1.43000  # c1,c,o_2
angle_coeff	12 bb    3.38720    1.53000    1.10100  # c1,c1,hc
angle_coeff	13 bb   11.43180    1.53000    1.42000  # c1,c1,o3e
angle_coeff	14 bb   46.06850    1.52020    1.20200  # c1,c_1,o_1
angle_coeff	15 bb   19.10690    1.52020    1.36830  # c1,c_1,o_2
angle_coeff	16 bb   -7.11310    1.42000    1.42000  # c1,o3e,c1
angle_coeff	17 bb    0.71150    1.52020    1.10100  # c_1,c1,hc
angle_coeff	18 bb    5.33160    1.10100    1.10100  # hc,c,hc
angle_coeff	19 bb    5.64540    1.10100    1.43000  # hc,c,o_2
angle_coeff	20 bb   23.19790    1.10100    1.42000  # hc,c1,o3e
angle_coeff	21 bb  121.48800    1.20200    1.36830  # o_1,c_1,o_2

# BondAngle Coeffs

angle_coeff	 1 ba    8.01600    8.01600    1.53000    1.53000  # c,c,c1
angle_coeff	 2 ba   20.75400   11.42100    1.53000    1.10100  # c,c,hc
angle_coeff	 3 ba    8.01600    8.01600    1.53000    1.53000  # c,c1,c
angle_coeff	 4 ba    8.01600    8.01600    1.53000    1.53000  # c,c1,c1
angle_coeff	 5 ba   15.87580   18.16780    1.53000    1.52020  # c,c1,c_1
angle_coeff	 6 ba   20.75400   11.42100    1.53000    1.10100  # c,c1,hc
angle_coeff	 7 ba    2.68680   20.40330    1.53000    1.42000  # c,c1,o3e
angle_coeff	 8 ba   46.46080   41.91160    1.43000    1.36830  # c,o_2,c_1
angle_coeff	 9 ba    8.01600    8.01600    1.53000    1.53000  # c1,c,c1
angle_coeff	10 ba   11.42100   20.75400    1.53000    1.10100  # c1,c,hc
angle_coeff	11 ba   47.94870   23.39200    1.53000    1.43000  # c1,c,o_2
angle_coeff	12 ba   11.42100   20.75400    1.53000    1.10100  # c1,c1,hc
angle_coeff	13 ba    2.68680   20.40330    1.53000    1.42000  # c1,c1,o3e
angle_coeff	14 ba   37.12980   34.99820    1.52020    1.20200  # c1,c_1,o_1
angle_coeff	15 ba    4.69780    1.34350    1.52020    1.36830  # c1,c_1,o_2
angle_coeff	16 ba   -2.81120   -2.81120    1.42000    1.42000  # c1,o3e,c1
angle_coeff	17 ba   12.46320    9.17650    1.52020    1.10100  # c_1,c1,hc
angle_coeff	18 ba   18.10300   18.10300    1.10100    1.10100  # hc,c,hc
angle_coeff	19 ba   57.49750    8.68640    1.10100    1.43000  # hc,c,o_2
angle_coeff	20 ba    4.61890   55.32700    1.10100    1.42000  # hc,c1,o3e
angle_coeff	21 ba   76.26140   71.87610    1.20200    1.36830  # o_1,c_1,o_2

# Dihedral Coeffs

dihedral_coeff	 1    0.00000    0.00000    0.05140    0.00000   -0.14300    0.00000  # c,c,c1,c
dihedral_coeff	 2    0.00000    0.00000    0.05140    0.00000   -0.14300    0.00000  # c,c,c1,c1
dihedral_coeff	 3    0.09720    0.00000    0.07220    0.00000   -0.25810    0.00000  # c,c,c1,c_1
dihedral_coeff	 4    0.00000    0.00000    0.03160    0.00000   -0.16810    0.00000  # c,c,c1,hc
dihedral_coeff	 5    0.71370    0.00000    0.26600    0.00000   -0.25450    0.00000  # c,c,c1,o3e
dihedral_coeff	 6    0.00000    0.00000    0.05140    0.00000   -0.14300    0.00000  # c,c1,c,c1
dihedral_coeff	 7    0.00000    0.00000    0.03160    0.00000   -0.16810    0.00000  # c,c1,c,hc
dihedral_coeff	 8    0.00000    0.00000    0.00000    0.00000   -0.25000    0.00000  # c,c1,c,o_2
dihedral_coeff	 9    0.00000    0.00000    0.05140    0.00000   -0.14300    0.00000  # c,c1,c1,c
dihedral_coeff	10    0.00000    0.00000    0.03160    0.00000   -0.16810    0.00000  # c,c1,c1,hc
dihedral_coeff	11    0.71370    0.00000    0.26600    0.00000   -0.25450    0.00000  # c,c1,c1,o3e
dihedral_coeff	12    0.04420    0.00000    0.02920    0.00000    0.05620    0.00000  # c,c1,c_1,o_1
dihedral_coeff	13    1.83410    0.00000    2.06030    0.00000   -0.01950    0.00000  # c,c1,c_1,o_2
dihedral_coeff	14   -0.52030    0.00000   -0.30280    0.00000   -0.34500    0.00000  # c,c1,o3e,c1
dihedral_coeff	15   -2.55940    0.00000    2.20130    0.00000    0.03250    0.00000  # c,o_2,c_1,c1
dihedral_coeff	16    0.00000    0.00000    2.20890    0.00000    0.00000    0.00000  # c,o_2,c_1,o_1
dihedral_coeff	17    0.00000    0.00000    0.05140    0.00000   -0.14300    0.00000  # c1,c,c,c1
dihedral_coeff	18    0.00000    0.00000    0.03160    0.00000   -0.16810    0.00000  # c1,c,c,hc
dihedral_coeff	19    0.00000    0.00000    0.05140    0.00000   -0.14300    0.00000  # c1,c,c1,c1
dihedral_coeff	20    0.09720    0.00000    0.07220    0.00000   -0.25810    0.00000  # c1,c,c1,c_1
dihedral_coeff	21    0.00000    0.00000    0.03160    0.00000   -0.16810    0.00000  # c1,c,c1,hc
dihedral_coeff	22    0.71370    0.00000    0.26600    0.00000   -0.25450    0.00000  # c1,c,c1,o3e
dihedral_coeff	23    0.00000    0.00000    0.00000    0.00000   -0.19320    0.00000  # c1,c,o_2,c_1
dihedral_coeff	24    0.00000    0.00000    0.03160    0.00000   -0.16810    0.00000  # c1,c1,c,hc
dihedral_coeff	25    0.53020    0.00000    0.00000    0.00000   -0.39660    0.00000  # c1,o3e,c1,hc
dihedral_coeff	26   -0.02280    0.00000    0.02800    0.00000   -0.18630    0.00000  # c_1,c1,c,hc
dihedral_coeff	27    0.00000    0.00000    0.00000    0.00000   -0.19320    0.00000  # c_1,o_2,c,hc
dihedral_coeff	28   -0.14320    0.00000    0.06170    0.00000   -0.10830    0.00000  # hc,c,c,hc
dihedral_coeff	29   -0.14320    0.00000    0.06170    0.00000   -0.10830    0.00000  # hc,c,c1,hc
dihedral_coeff	30   -0.14350    0.00000    0.25300    0.00000   -0.09050    0.00000  # hc,c,c1,o3e
dihedral_coeff	31    0.00000    0.00000    0.00000    0.00000   -0.25000    0.00000  # hc,c1,c,o_2
dihedral_coeff	32   -0.14320    0.00000    0.06170    0.00000   -0.10830    0.00000  # hc,c1,c1,hc
dihedral_coeff	33   -0.14350    0.00000    0.25300    0.00000   -0.09050    0.00000  # hc,c1,c1,o3e
dihedral_coeff	34   -0.18040    0.00000    0.00120    0.00000    0.03710    0.00000  # hc,c1,c_1,o_1
dihedral_coeff	35   -0.63590    0.00000    1.48070    0.00000   -0.04380    0.00000  # hc,c1,c_1,o_2

# MiddleBondTorsion Coeffs

dihedral_coeff	 1 mbt  -17.78700   -7.18770    0.00000    1.53000  # c,c,c1,c
dihedral_coeff	 2 mbt  -17.78700   -7.18770    0.00000    1.53000  # c,c,c1,c1
dihedral_coeff	 3 mbt   -1.59450    0.22670   -0.69110    1.53000  # c,c,c1,c_1
dihedral_coeff	 4 mbt  -14.87900   -3.65810   -0.31380    1.53000  # c,c,c1,hc
dihedral_coeff	 5 mbt  -21.88420   -7.67640   -0.68680    1.53000  # c,c,c1,o3e
dihedral_coeff	 6 mbt  -17.78700   -7.18770    0.00000    1.53000  # c,c1,c,c1
dihedral_coeff	 7 mbt  -14.87900   -3.65810   -0.31380    1.53000  # c,c1,c,hc
dihedral_coeff	 8 mbt    0.00000    0.00000    0.00000    1.53000  # c,c1,c,o_2
dihedral_coeff	 9 mbt  -17.78700   -7.18770    0.00000    1.53000  # c,c1,c1,c
dihedral_coeff	10 mbt  -14.87900   -3.65810   -0.31380    1.53000  # c,c1,c1,hc
dihedral_coeff	11 mbt  -21.88420   -7.67640   -0.68680    1.53000  # c,c1,c1,o3e
dihedral_coeff	12 mbt    0.33880   -0.10960    0.12190    1.52020  # c,c1,c_1,o_1
dihedral_coeff	13 mbt  -17.32800   -5.79000   -3.21140    1.52020  # c,c1,c_1,o_2
dihedral_coeff	14 mbt   -5.92880   -2.70070   -0.31750    1.42000  # c,c1,o3e,c1
dihedral_coeff	15 mbt    1.34450    3.55150   -4.92020    1.36830  # c,o_2,c_1,c1
dihedral_coeff	16 mbt    4.26000    0.00000    0.00000    1.36830  # c,o_2,c_1,o_1
dihedral_coeff	17 mbt  -17.78700   -7.18770    0.00000    1.53000  # c1,c,c,c1
dihedral_coeff	18 mbt  -14.87900   -3.65810   -0.31380    1.53000  # c1,c,c,hc
dihedral_coeff	19 mbt  -17.78700   -7.18770    0.00000    1.53000  # c1,c,c1,c1
dihedral_coeff	20 mbt   -1.59450    0.22670   -0.69110    1.53000  # c1,c,c1,c_1
dihedral_coeff	21 mbt  -14.87900   -3.65810   -0.31380    1.53000  # c1,c,c1,hc
dihedral_coeff	22 mbt  -21.88420   -7.67640   -0.68680    1.53000  # c1,c,c1,o3e
dihedral_coeff	23 mbt   -5.43500    0.00000    0.00000    1.43000  # c1,c,o_2,c_1
dihedral_coeff	24 mbt  -14.87900   -3.65810   -0.31380    1.53000  # c1,c1,c,hc
dihedral_coeff	25 mbt   -6.80070   -4.65460   -1.41010    1.42000  # c1,o3e,c1,hc
dihedral_coeff	26 mbt   -3.50390    1.24580   -0.76100    1.53000  # c_1,c1,c,hc
dihedral_coeff	27 mbt    0.00000    0.00000    0.00000    1.43000  # c_1,o_2,c,hc
dihedral_coeff	28 mbt  -14.26100   -0.53220   -0.48640    1.53000  # hc,c,c,hc
dihedral_coeff	29 mbt  -14.26100   -0.53220   -0.48640    1.53000  # hc,c,c1,hc
dihedral_coeff	30 mbt  -16.79750   -1.22960   -0.27500    1.53000  # hc,c,c1,o3e
dihedral_coeff	31 mbt    0.00000    0.00000    0.00000    1.53000  # hc,c1,c,o_2
dihedral_coeff	32 mbt  -14.26100   -0.53220   -0.48640    1.53000  # hc,c1,c1,hc
dihedral_coeff	33 mbt  -16.79750   -1.22960   -0.27500    1.53000  # hc,c1,c1,o3e
dihedral_coeff	34 mbt    0.23590    0.91390    0.95940    1.52020  # hc,c1,c_1,o_1
dihedral_coeff	35 mbt  -13.76860   -2.59590    1.19340    1.52020  # hc,c1,c_1,o_2

# EndBondTorsion Coeffs

dihedral_coeff	 1 ebt   -0.07320    0.00000    0.00000   -0.07320    0.00000    0.00000    1.53000    1.53000  # c,c,c1,c
dihedral_coeff	 2 ebt   -0.07320    0.00000    0.00000   -0.07320    0.00000    0.00000    1.53000    1.53000  # c,c,c1,c1
dihedral_coeff	 3 ebt    0.00550    0.00600   -0.00090    0.00620   -0.00020    0.00360    1.53000    1.52020  # c,c,c1,c_1
dihedral_coeff	 4 ebt    0.24860    0.24220   -0.09250    0.08140    0.05910    0.22190    1.53000    1.10100  # c,c,c1,hc
dihedral_coeff	 5 ebt   -0.31900    0.44110   -0.71740    1.15380    0.84090   -0.91380    1.53000    1.42000  # c,c,c1,o3e
dihedral_coeff	 6 ebt   -0.07320    0.00000    0.00000   -0.07320    0.00000    0.00000    1.53000    1.53000  # c,c1,c,c1
dihedral_coeff	 7 ebt    0.24860    0.24220   -0.09250    0.08140    0.05910    0.22190    1.53000    1.10100  # c,c1,c,hc
dihedral_coeff	 8 ebt    0.00000    0.00000    0.00000    0.00000    0.00000    0.00000    1.53000    1.43000  # c,c1,c,o_2
dihedral_coeff	 9 ebt   -0.07320    0.00000    0.00000   -0.07320    0.00000    0.00000    1.53000    1.53000  # c,c1,c1,c
dihedral_coeff	10 ebt    0.24860    0.24220   -0.09250    0.08140    0.05910    0.22190    1.53000    1.10100  # c,c1,c1,hc
dihedral_coeff	11 ebt   -0.31900    0.44110   -0.71740    1.15380    0.84090   -0.91380    1.53000    1.42000  # c,c1,c1,o3e
dihedral_coeff	12 ebt   -0.28100    0.08160   -0.15220    0.26540    0.05030    0.10460    1.53000    1.20200  # c,c1,c_1,o_1
dihedral_coeff	13 ebt    0.00000    0.00000    0.00000    0.00000    0.00000    0.00000    1.53000    1.36830  # c,c1,c_1,o_2
dihedral_coeff	14 ebt   -0.24560    1.05170   -0.77950    0.47410    1.26350    0.55760    1.53000    1.42000  # c,c1,o3e,c1
dihedral_coeff	15 ebt    0.00000    0.00000    0.00000    0.00000    0.00000    0.00000    1.43000    1.52020  # c,o_2,c_1,c1
dihedral_coeff	16 ebt    0.00000    0.00000    0.00000    0.00000    0.00000    0.00000    1.43000    1.20200  # c,o_2,c_1,o_1
dihedral_coeff	17 ebt   -0.07320    0.00000    0.00000   -0.07320    0.00000    0.00000    1.53000    1.53000  # c1,c,c,c1
dihedral_coeff	18 ebt    0.08140    0.05910    0.22190    0.24860    0.24220   -0.09250    1.53000    1.10100  # c1,c,c,hc
dihedral_coeff	19 ebt   -0.07320    0.00000    0.00000   -0.07320    0.00000    0.00000    1.53000    1.53000  # c1,c,c1,c1
dihedral_coeff	20 ebt    0.00550    0.00600   -0.00090    0.00620   -0.00020    0.00360    1.53000    1.52020  # c1,c,c1,c_1
dihedral_coeff	21 ebt    0.08140    0.05910    0.22190    0.24860    0.24220   -0.09250    1.53000    1.10100  # c1,c,c1,hc
dihedral_coeff	22 ebt   -0.31900    0.44110   -0.71740    1.15380    0.84090   -0.91380    1.53000    1.42000  # c1,c,c1,o3e
dihedral_coeff	23 ebt    0.00000    0.00000    0.00000    0.00000    0.00000    0.00000    1.53000    1.36830  # c1,c,o_2,c_1
dihedral_coeff	24 ebt    0.08140    0.05910    0.22190    0.24860    0.24220   -0.09250    1.53000    1.10100  # c1,c1,c,hc
dihedral_coeff	25 ebt   -0.60540    1.33390    0.96480   -0.16200    0.15640   -1.14080    1.42000    1.10100  # c1,o3e,c1,hc
dihedral_coeff	26 ebt   -0.02040    0.36280   -0.44260   -0.00970   -0.03150   -0.07550    1.52020    1.10100  # c_1,c1,c,hc
dihedral_coeff	27 ebt    0.00000    0.00000    0.00000    0.00000    0.00000    0.00000    1.36830    1.10100  # c_1,o_2,c,hc
dihedral_coeff	28 ebt    0.21300    0.31200    0.07770    0.21300    0.31200    0.07770    1.10100    1.10100  # hc,c,c,hc
dihedral_coeff	29 ebt    0.21300    0.31200    0.07770    0.21300    0.31200    0.07770    1.10100    1.10100  # hc,c,c1,hc
dihedral_coeff	30 ebt    0.96810    0.95510    0.04360    0.59030    0.66690    0.85840    1.10100    1.42000  # hc,c,c1,o3e
dihedral_coeff	31 ebt    0.00000    0.00000    0.00000    0.00000    0.00000    0.00000    1.10100    1.43000  # hc,c1,c,o_2
dihedral_coeff	32 ebt    0.21300    0.31200    0.07770    0.21300    0.31200    0.07770    1.10100    1.10100  # hc,c1,c1,hc
dihedral_coeff	33 ebt    0.96810    0.95510    0.04360    0.59030    0.66690    0.85840    1.10100    1.42000  # hc,c1,c1,o3e
dihedral_coeff	34 ebt   -0.22980    0.03540    0.38530    1.21430    0.28310    0.39160    1.10100    1.20200  # hc,c1,c_1,o_1
dihedral_coeff	35 ebt    0.00000    0.00000    0.00000    0.00000    0.00000    0.00000    1.10100    1.36830  # hc,c1,c_1,o_2

# AngleTorsion Coeffs

dihedral_coeff	 1 at    0.38860   -0.31390    0.13890    0.38860   -0.31390    0.13890  112.67000  112.67000  # c,c,c1,c
dihedral_coeff	 2 at    0.38860   -0.31390    0.13890    0.38860   -0.31390    0.13890  112.67000  112.67000  # c,c,c1,c1
dihedral_coeff	 3 at    0.05150   -0.06740   -0.04740   -0.26070    0.32030   -0.22830  112.67000  108.52950  # c,c,c1,c_1
dihedral_coeff	 4 at   -0.24540    0.00000   -0.11360    0.31130    0.45160   -0.19880  112.67000  110.77000  # c,c,c1,hc
dihedral_coeff	 5 at    0.56230   -0.30410   -0.40150    0.96720   -0.75660   -1.23310  112.67000  111.27000  # c,c,c1,o3e
dihedral_coeff	 6 at    0.38860   -0.31390    0.13890    0.38860   -0.31390    0.13890  112.67000  112.67000  # c,c1,c,c1
dihedral_coeff	 7 at   -0.24540    0.00000   -0.11360    0.31130    0.45160   -0.19880  112.67000  110.77000  # c,c1,c,hc
dihedral_coeff	 8 at    0.00000    0.00000    0.00000    0.00000    0.00000    0.00000  112.67000  107.41000  # c,c1,c,o_2
dihedral_coeff	 9 at    0.38860   -0.31390    0.13890    0.38860   -0.31390    0.13890  112.67000  112.67000  # c,c1,c1,c
dihedral_coeff	10 at   -0.24540    0.00000   -0.11360    0.31130    0.45160   -0.19880  112.67000  110.77000  # c,c1,c1,hc
dihedral_coeff	11 at    0.56230   -0.30410   -0.40150    0.96720   -0.75660   -1.23310  112.67000  111.27000  # c,c1,c1,o3e
dihedral_coeff	12 at    0.67500    0.59650    0.67250    0.08850   -1.37030   -0.54520  108.52950  123.14510  # c,c1,c_1,o_1
dihedral_coeff	13 at    0.00000    0.00000    0.00000    0.00000    0.00000    0.00000  108.52950  100.31820  # c,c1,c_1,o_2
dihedral_coeff	14 at   -2.74660    1.48770   -0.89550    0.56760    0.94500    0.07030  111.27000  104.50000  # c,c1,o3e,c1
dihedral_coeff	15 at    0.00000    0.00000    0.00000    0.00000    0.00000    0.00000  113.28800  100.31820  # c,o_2,c_1,c1
dihedral_coeff	16 at    0.00000    0.00000    0.00000    0.00000    0.00000    0.00000  113.28800  120.79700  # c,o_2,c_1,o_1
dihedral_coeff	17 at    0.38860   -0.31390    0.13890    0.38860   -0.31390    0.13890  112.67000  112.67000  # c1,c,c,c1
dihedral_coeff	18 at    0.31130    0.45160   -0.19880   -0.24540    0.00000   -0.11360  112.67000  110.77000  # c1,c,c,hc
dihedral_coeff	19 at    0.38860   -0.31390    0.13890    0.38860   -0.31390    0.13890  112.67000  112.67000  # c1,c,c1,c1
dihedral_coeff	20 at    0.05150   -0.06740   -0.04740   -0.26070    0.32030   -0.22830  112.67000  108.52950  # c1,c,c1,c_1
dihedral_coeff	21 at    0.31130    0.45160   -0.19880   -0.24540    0.00000   -0.11360  112.67000  110.77000  # c1,c,c1,hc
dihedral_coeff	22 at    0.56230   -0.30410   -0.40150    0.96720   -0.75660   -1.23310  112.67000  111.27000  # c1,c,c1,o3e
dihedral_coeff	23 at    0.00000    0.00000    0.00000    0.00000    0.00000    0.00000  107.41000  113.28800  # c1,c,o_2,c_1
dihedral_coeff	24 at    0.31130    0.45160   -0.19880   -0.24540    0.00000   -0.11360  112.67000  110.77000  # c1,c1,c,hc
dihedral_coeff	25 at   -1.82340    1.63930    0.51440   -0.77770    0.43400   -0.66530  104.50000  108.72800  # c1,o3e,c1,hc
dihedral_coeff	26 at   -0.74660   -0.94480   -0.63210    0.01620    1.42110   -1.40920  108.52950  110.77000  # c_1,c1,c,hc
dihedral_coeff	27 at    0.00000    0.00000    0.00000    0.00000    0.00000    0.00000  113.28800  107.68800  # c_1,o_2,c,hc
dihedral_coeff	28 at   -0.80850    0.55690   -0.24660   -0.80850    0.55690   -0.24660  110.77000  110.77000  # hc,c,c,hc
dihedral_coeff	29 at   -0.80850    0.55690   -0.24660   -0.80850    0.55690   -0.24660  110.77000  110.77000  # hc,c,c1,hc
dihedral_coeff	30 at    2.36680    2.49200   -1.01220   -0.18920    0.49180    0.72730  110.77000  111.27000  # hc,c,c1,o3e
dihedral_coeff	31 at    0.00000    0.00000    0.00000    0.00000    0.00000    0.00000  110.77000  107.41000  # hc,c1,c,o_2
dihedral_coeff	32 at   -0.80850    0.55690   -0.24660   -0.80850    0.55690   -0.24660  110.77000  110.77000  # hc,c1,c1,hc
dihedral_coeff	33 at    2.36680    2.49200   -1.01220   -0.18920    0.49180    0.72730  110.77000  111.27000  # hc,c1,c1,o3e
dihedral_coeff	34 at   -1.49460    0.73080   -0.20830    9.12990   -0.48470    0.35820  107.73360  123.14510  # hc,c1,c_1,o_1
dihedral_coeff	35 at    0.00000    0.00000    0.00000    0.00000    0.00000    0.00000  107.73360  100.31820  # hc,c1,c_1,o_2

# AngleAngleTorsion Coeffs

dihedral_coeff	 1 aat  -22.04500  112.67000  112.67000  # c,c,c1,c
dihedral_coeff	 2 aat  -22.04500  112.67000  112.67000  # c,c,c1,c1
dihedral_coeff	 3 aat   -0.38010  112.67000  108.52950  # c,c,c1,c_1
dihedral_coeff	 4 aat  -16.16400  112.67000  110.77000  # c,c,c1,hc
dihedral_coeff	 5 aat  -29.04200  112.67000  111.27000  # c,c,c1,o3e
dihedral_coeff	 6 aat  -22.04500  112.67000  112.67000  # c,c1,c,c1
dihedral_coeff	 7 aat  -16.16400  112.67000  110.77000  # c,c1,c,hc
dihedral_coeff	 8 aat    0.00000  112.67000  107.41000  # c,c1,c,o_2
dihedral_coeff	 9 aat  -22.04500  112.67000  112.67000  # c,c1,c1,c
dihedral_coeff	10 aat  -16.16400  112.67000  110.77000  # c,c1,c1,hc
dihedral_coeff	11 aat  -29.04200  112.67000  111.27000  # c,c1,c1,o3e
dihedral_coeff	12 aat   -8.01900  108.52950  123.14510  # c,c1,c_1,o_1
dihedral_coeff	13 aat    0.00000  108.52950  100.31820  # c,c1,c_1,o_2
dihedral_coeff	14 aat  -19.00590  111.27000  104.50000  # c,c1,o3e,c1
dihedral_coeff	15 aat    0.00000  113.28800  100.31820  # c,o_2,c_1,c1
dihedral_coeff	16 aat    0.00000  113.28800  120.79700  # c,o_2,c_1,o_1
dihedral_coeff	17 aat  -22.04500  112.67000  112.67000  # c1,c,c,c1
dihedral_coeff	18 aat  -16.16400  112.67000  110.77000  # c1,c,c,hc
dihedral_coeff	19 aat  -22.04500  112.67000  112.67000  # c1,c,c1,c1
dihedral_coeff	20 aat   -0.38010  112.67000  108.52950  # c1,c,c1,c_1
dihedral_coeff	21 aat  -16.16400  112.67000  110.77000  # c1,c,c1,hc
dihedral_coeff	22 aat  -29.04200  112.67000  111.27000  # c1,c,c1,o3e
dihedral_coeff	23 aat    0.00000  107.41000  113.28800  # c1,c,o_2,c_1
dihedral_coeff	24 aat  -16.16400  112.67000  110.77000  # c1,c1,c,hc
dihedral_coeff	25 aat  -16.44380  104.50000  108.72800  # c1,o3e,c1,hc
dihedral_coeff	26 aat   -5.36240  108.52950  110.77000  # c_1,c1,c,hc
dihedral_coeff	27 aat    0.00000  113.28800  107.68800  # c_1,o_2,c,hc
dihedral_coeff	28 aat  -12.56400  110.77000  110.77000  # hc,c,c,hc
dihedral_coeff	29 aat  -12.56400  110.77000  110.77000  # hc,c,c1,hc
dihedral_coeff	30 aat  -20.20060  110.77000  111.27000  # hc,c,c1,o3e
dihedral_coeff	31 aat    0.00000  110.77000  107.41000  # hc,c1,c,o_2
dihedral_coeff	32 aat  -12.56400  110.77000  110.77000  # hc,c1,c1,hc
dihedral_coeff	33 aat  -20.20060  110.77000  111.27000  # hc,c1,c1,o3e
dihedral_coeff	34 aat  -15.34960  107.73360  123.14510  # hc,c1,c_1,o_1
dihedral_coeff	35 aat    0.00000  107.73360  100.31820  # hc,c1,c_1,o_2

# BondBond13 Coeffs

dihedral_coeff	 1 bb13    0.00000    1.53000    1.53000  # c,c,c1,c
dihedral_coeff	 2 bb13    0.00000    1.53000    1.53000  # c,c,c1,c1
dihedral_coeff	 3 bb13    0.00000    1.53000    1.52020  # c,c,c1,c_1
dihedral_coeff	 4 bb13    0.00000    1.53000    1.10100  # c,c,c1,hc
dihedral_coeff	 5 bb13    0.00000    1.53000    1.42000  # c,c,c1,o3e
dihedral_coeff	 6 bb13    0.00000    1.53000    1.53000  # c,c1,c,c1
dihedral_coeff	 7 bb13    0.00000    1.53000    1.10100  # c,c1,c,hc
dihedral_coeff	 8 bb13    0.00000    1.53000    1.43000  # c,c1,c,o_2
dihedral_coeff	 9 bb13    0.00000    1.53000    1.53000  # c,c1,c1,c
dihedral_coeff	10 bb13    0.00000    1.53000    1.10100  # c,c1,c1,hc
dihedral_coeff	11 bb13    0.00000    1.53000    1.42000  # c,c1,c1,o3e
dihedral_coeff	12 bb13    0.00000    1.53000    1.20200  # c,c1,c_1,o_1
dihedral_coeff	13 bb13    0.00000    1.53000    1.36830  # c,c1,c_1,o_2
dihedral_coeff	14 bb13    0.00000    1.53000    1.42000  # c,c1,o3e,c1
dihedral_coeff	15 bb13    0.00000    1.43000    1.52020  # c,o_2,c_1,c1
dihedral_coeff	16 bb13    0.00000    1.43000    1.20200  # c,o_2,c_1,o_1
dihedral_coeff	17 bb13    0.00000    1.53000    1.53000  # c1,c,c,c1
dihedral_coeff	18 bb13    0.00000    1.53000    1.10100  # c1,c,c,hc
dihedral_coeff	19 bb13    0.00000    1.53000    1.53000  # c1,c,c1,c1
dihedral_coeff	20 bb13    0.00000    1.53000    1.52020  # c1,c,c1,c_1
dihedral_coeff	21 bb13    0.00000    1.53000    1.10100  # c1,c,c1,hc
dihedral_coeff	22 bb13    0.00000    1.53000    1.42000  # c1,c,c1,o3e
dihedral_coeff	23 bb13    0.00000    1.53000    1.36830  # c1,c,o_2,c_1
dihedral_coeff	24 bb13    0.00000    1.53000    1.10100  # c1,c1,c,hc
dihedral_coeff	25 bb13    0.00000    1.42000    1.10100  # c1,o3e,c1,hc
dihedral_coeff	26 bb13    0.00000    1.52020    1.10100  # c_1,c1,c,hc
dihedral_coeff	27 bb13    0.00000    1.36830    1.10100  # c_1,o_2,c,hc
dihedral_coeff	28 bb13    0.00000    1.10100    1.10100  # hc,c,c,hc
dihedral_coeff	29 bb13    0.00000    1.10100    1.10100  # hc,c,c1,hc
dihedral_coeff	30 bb13    0.00000    1.10100    1.42000  # hc,c,c1,o3e
dihedral_coeff	31 bb13    0.00000    1.10100    1.43000  # hc,c1,c,o_2
dihedral_coeff	32 bb13    0.00000    1.10100    1.10100  # hc,c1,c1,hc
dihedral_coeff	33 bb13    0.00000    1.10100    1.42000  # hc,c1,c1,o3e
dihedral_coeff	34 bb13    0.00000    1.10100    1.20200  # hc,c1,c_1,o_1
dihedral_coeff	35 bb13    0.00000    1.10100    1.36830  # hc,c1,c_1,o_2

# Improper Coeffs

improper_coeff	 1    0.00000    0.00000  # c,c,c1,hc
improper_coeff	 2    0.00000    0.00000  # c,c,hc,c1
improper_coeff	 3    0.00000    0.00000  # c,c,hc,hc
improper_coeff	 4    0.00000    0.00000  # c,c1,c1,hc
improper_coeff	 5    0.00000    0.00000  # c,c1,hc,hc
improper_coeff	 6    0.00000    0.00000  # c,c1,hc,o_2
improper_coeff	 7    0.00000    0.00000  # c,hc,hc,o_2
improper_coeff	 8    0.00000    0.00000  # c1,c,c,c
improper_coeff	 9    0.00000    0.00000  # c1,c,c,c_1
improper_coeff	10    0.00000    0.00000  # c1,c,c,hc
improper_coeff	11    0.00000    0.00000  # c1,c,c1,hc
improper_coeff	12    0.00000    0.00000  # c1,c,c1,o3e
improper_coeff	13    0.00000    0.00000  # c1,c,hc,c1
improper_coeff	14    0.00000    0.00000  # c1,c,hc,c_1
improper_coeff	15    0.00000    0.00000  # c1,c,o3e,c1
improper_coeff	16    0.00000    0.00000  # c1,c,o3e,hc
improper_coeff	17    0.00000    0.00000  # c1,c1,o3e,hc
improper_coeff	18   46.92640    0.00000  # c_1,c1,o_2,o_1

# AngleAngle Coeffs

improper_coeff	 1 aa   -1.31990    0.00000    0.11840  112.67000  110.77000  110.77000  # c,c,c1,hc
improper_coeff	 2 aa    0.11840    0.00000   -1.31990  110.77000  112.67000  110.77000  # c,c,hc,c1
improper_coeff	 3 aa    0.27380   -0.48250    0.27380  110.77000  110.77000  107.66000  # c,c,hc,hc
improper_coeff	 4 aa    0.00000    0.00000    0.11840  112.67000  110.77000  110.77000  # c,c1,c1,hc
improper_coeff	 5 aa    0.00000   -0.48250    0.00000  110.77000  110.77000  107.66000  # c,c1,hc,hc
improper_coeff	 6 aa    0.00000    0.00000    0.00000  110.77000  107.41000  107.68800  # c,c1,hc,o_2
improper_coeff	 7 aa    0.00000    0.00000    0.00000  107.66000  107.68800  107.68800  # c,hc,hc,o_2
improper_coeff	 8 aa   -0.17290   -0.17290   -0.17290  112.67000  112.67000  112.67000  # c1,c,c,c
improper_coeff	 9 aa    0.00000    0.00000    0.00000  112.67000  108.52950  108.52950  # c1,c,c,c_1
improper_coeff	10 aa   -1.31990   -1.31990    0.11840  112.67000  110.77000  110.77000  # c1,c,c,hc
improper_coeff	11 aa   -1.31990    0.00000    0.11840  112.67000  110.77000  110.77000  # c1,c,c1,hc
improper_coeff	12 aa   -0.83300   -0.83300   -3.57440  112.67000  111.27000  111.27000  # c1,c,c1,o3e
improper_coeff	13 aa    0.11840    0.00000   -1.31990  110.77000  112.67000  110.77000  # c1,c,hc,c1
improper_coeff	14 aa    0.00000   -1.82020    2.04030  110.77000  108.52950  107.73360  # c1,c,hc,c_1
improper_coeff	15 aa   -3.57440   -0.83300   -0.83300  111.27000  112.67000  111.27000  # c1,c,o3e,c1
improper_coeff	16 aa    0.16890    2.59260    3.91770  111.27000  110.77000  108.72800  # c1,c,o3e,hc
improper_coeff	17 aa    0.00000    2.59260    3.91770  111.27000  110.77000  108.72800  # c1,c1,o3e,hc
improper_coeff	18 aa    0.00000    0.00000    0.00000  100.31820  123.14510  120.79700  # c_1,c1,o_2,o_1


# ------------------------------- OPT Section -------------------------------
minimize 1.0e-5 1.0e-7 100000 400000
PPPM initialization ...
  using 12-bit tables for long-range coulomb (../kspace.cpp:342)
  G vector (1/distance) = 0.21506545
  grid = 15 15 15
  stencil order = 5
  estimated absolute RMS force accuracy = 0.019221309
  estimated relative force accuracy = 5.7884401e-05
  using double precision KISS FFT
  3d grid and FFT values/proc = 2600 675
Generated 21 of 21 mixed pair_coeff terms from sixthpower/sixthpower mixing rule
Neighbor list info ...
  update: every = 1 steps, delay = 0 steps, check = yes
  max neighbors/atom: 2000, page size: 100000
  master list distance cutoff = 12
  ghost atom cutoff = 12
  binsize = 6, bins = 9 9 9
  1 neighbor lists, perpetual/occasional/extra = 1 0 0
  (1) pair lj/class2/coul/long, perpetual
      attributes: half, newton on
      pair build: half/bin/newton
      stencil: half/bin/3d
      bin: standard
  PPPM/cg optimization cutoff: 1e-05
  Total charged atoms: 100.0%
  Min/max charged atoms/proc: 100.0% 100.0%
Per MPI rank memory allocation (min/avg/max) = 29.36 | 29.39 | 29.42 Mbytes
   Step          Temp          E_pair         E_mol          TotEng         Press     
         0   0              2211.4315      33129.654      35341.085      3566.9888    
       128   0              816.18539      28388.015      29204.2       -87.634982    
Loop time of 2.21104 on 6 procs for 128 steps with 5016 atoms

98.2% CPU use with 6 MPI tasks x no OpenMP threads

Minimization stats:
  Stopping criterion = energy tolerance
  Energy initial, next-to-last, final = 
       35341.085310723   29204.3553803746   29204.2002961744
  Force two-norm initial, final = 2439.5454 93.560177
  Force max component initial, final = 110.03067 54.474001
  Final line search alpha, max atom move = 0.005968821 0.32514556
  Iterations, force evaluations = 128 254

MPI task timing breakdown:
Section |  min time  |  avg time  |  max time  |%varavg| %total
---------------------------------------------------------------
Pair    | 0.50628    | 0.62139    | 0.87776    |  15.7 | 28.10
Bond    | 0.68781    | 0.82848    | 1.0737     |  14.9 | 37.47
Kspace  | 0.19839    | 0.69927    | 0.95498    |  30.5 | 31.63
Neigh   | 0.011611   | 0.011632   | 0.011642   |   0.0 |  0.53
Comm    | 0.031517   | 0.034328   | 0.036793   |   1.1 |  1.55
Output  | 0          | 0          | 0          |   0.0 |  0.00
Modify  | 0          | 0          | 0          |   0.0 |  0.00
Other   |            | 0.01595    |            |       |  0.72

Nlocal:            836 ave         993 max         732 min
Histogram: 1 0 2 1 0 0 1 0 0 1
Nghost:        5063.33 ave        5159 max        4941 min
Histogram: 1 0 0 1 0 1 0 2 0 1
Neighs:         134255 ave      187128 max      111013 min
Histogram: 2 1 1 1 0 0 0 0 0 1

Total # of neighbors = 805530
Ave neighs/atom = 160.59211
Ave special neighs/atom = 6.2631579
Neighbor list builds = 3
Dangerous builds = 0
# ------------------------------- Run Section -------------------------------
#

thermo_style custom step temp pe evdwl ecoul ebond eangle edihed eimp density vol
thermo          100

fix Langevin  all langevin 300 300 100.0 482432
fix moveLimit all nve/limit 0.1
run 10000
PPPM initialization ...
  using 12-bit tables for long-range coulomb (../kspace.cpp:342)
  G vector (1/distance) = 0.21506545
  grid = 15 15 15
  stencil order = 5
  estimated absolute RMS force accuracy = 0.019221309
  estimated relative force accuracy = 5.7884401e-05
  using double precision KISS FFT
  3d grid and FFT values/proc = 2600 675
Generated 21 of 21 mixed pair_coeff terms from sixthpower/sixthpower mixing rule
Per MPI rank memory allocation (min/avg/max) = 28.24 | 28.26 | 28.29 Mbytes
   Step          Temp          PotEng         E_vdwl         E_coul         E_bond        E_angle        E_dihed        E_impro        Density         Volume    
       128   0              29204.2       -142.80525      7490.4918      543.7207       30846.419     -2915.48       -86.645219      0.44999999     122899.55    
       200   160.58464      31349.268     -6.2839781      7482.954       1455.6923      31859.982     -2838.6123     -72.166496      0.44999999     122899.55    
       300   254.29816      32577.381      37.911597      7473.2116      2004.363       32467.793     -2821.1099     -49.588324      0.44999999     122899.55    
       400   285.14293      32885.346      53.087813      7464.3915      2212.9299      32582.879     -2843.9403     -46.028798      0.44999999     122899.55    
       500   296.93657      33007.842      65.471124      7444.8523      2284.8435      32707.082     -2918.9502     -37.348029      0.44999999     122899.55    
       600   300.98831      33071.27       24.128175      7452.9151      2331.2167      32745.714     -2901.5731     -41.389555      0.44999999     122899.55    
       700   298.10166      32954.126      14.290678      7443.2377      2329.3449      32713.915     -2964.9845     -39.519544      0.44999999     122899.55    
       800   298.91724      32940.052      41.331214      7435.4334      2293.6432      32738.193     -2986.6406     -39.14089       0.44999999     122899.55    
       900   304.54232      32856.984      14.33183       7430.6931      2333.1453      32740.053     -3073.0791     -44.362786      0.44999999     122899.55    
      1000   303.02886      32802.824      6.8968355      7426.6778      2304.3204      32727.438     -3064.8626     -51.829747      0.44999999     122899.55    
      1100   297.70399      32745.936     -7.8716529      7426.6218      2320.4126      32718.393     -3123.9326     -44.072554      0.44999999     122899.55    
      1200   301.82565      32789.802      14.664243      7444.2098      2344.0615      32643.575     -3085.262      -28.50189       0.44999999     122899.55    
      1300   300.4115       32771.295      10.321608      7426.4176      2353.4055      32625.09      -3058.9849     -39.653088      0.44999999     122899.55    
      1400   298.95381      32747.488      11.024313      7419.5043      2283.5578      32776.501     -3156.9889     -40.133615      0.44999999     122899.55    
      1500   301.34054      32778.364      9.9563418      7416.8258      2415.3099      32666.644     -3138.7572     -44.407775      0.44999999     122899.55    
      1600   298.60993      32667.614     -31.39176       7414.7712      2351.681       32656.932     -3126.1167     -51.189617      0.44999999     122899.55    
      1700   292.43257      32635.88       9.6950314      7406.7563      2325.5329      32706.654     -3215.477      -48.874293      0.44999999     122899.55    
      1800   297.93864      32648.259     -18.024414      7408.1497      2286.9748      32641.49      -3078.2456     -41.387961      0.44999999     122899.55    
      1900   298.40361      32506.241      0.68957196     7407.9969      2236.034       32661.34      -3197.1747     -52.393299      0.44999999     122899.55    
      2000   295.07047      32631.633     -15.453642      7406.7336      2326.3291      32682.779     -3181.099      -36.770662      0.44999999     122899.55    
      2100   300.32721      32588.494     -22.429884      7399.1847      2343.1759      32582.004     -3124.033      -37.412144      0.44999999     122899.55    
      2200   305.56979      32464.086     -15.665417      7383.1478      2231.5292      32649.068     -3187.4818     -43.875361      0.44999999     122899.55    
      2300   298.83151      32492.694     -52.916174      7384.7512      2226.1538      32687.181     -3155.4651     -43.385802      0.44999999     122899.55    
      2400   296.45407      32516.038     -10.250813      7389.2343      2241.8077      32599.615     -3111.1064     -39.674316      0.44999999     122899.55    
      2500   299.95098      32521.528     -56.076856      7385.8785      2343.635       32646.546     -3200.8229     -43.612277      0.44999999     122899.55    
      2600   297.57774      32513.899     -26.511708      7390.3819      2295.6589      32668.266     -3215.9971     -45.568899      0.44999999     122899.55    
      2700   299.31952      32548.622     -37.268522      7386.4292      2357.9064      32615.514     -3173.9698     -47.275908      0.44999999     122899.55    
      2800   300.2884       32458.847     -29.935195      7383.919       2255.0107      32668.293     -3215.6645     -49.654797      0.44999999     122899.55    
      2900   305.73593      32438.507     -38.072793      7380.7571      2301.171       32579.742     -3187.0548     -43.286672      0.44999999     122899.55    
      3000   296.71974      32488.467     -22.875855      7379.371       2266.8371      32642.789     -3179.3588     -41.860468      0.44999999     122899.55    
      3100   302.40959      32554.528     -5.3001789      7371.407       2362.4189      32708.792     -3272.2152     -52.689552      0.44999999     122899.55    
      3200   300.84613      32442.483     -61.275476      7366.3867      2283.0272      32651.983     -3201.0542     -39.330499      0.44999999     122899.55    
      3300   304.13034      32462.077     -64.862737      7375.9009      2392.9507      32581.534     -3227.903      -39.432559      0.44999999     122899.55    
      3400   300.39989      32469.85      -39.417058      7386.7807      2324.5509      32700.095     -3296.8129     -48.151064      0.44999999     122899.55    
      3500   299.15166      32615.68      -36.136298      7374.4981      2401.1521      32691.792     -3219.1143     -39.227074      0.44999999     122899.55    
      3600   307.52212      32400.198     -74.720287      7370.9887      2303.5983      32620.934     -3221.0245     -43.259678      0.44999999     122899.55    
      3700   299.04594      32475.646     -53.012022      7367.1044      2301.079       32707.798     -3248.0034     -42.316897      0.44999999     122899.55    
      3800   299.4311       32389.007     -44.521669      7369.7502      2262.6465      32677.301     -3259.6929     -58.513723      0.44999999     122899.55    
      3900   297.51192      32352.981     -89.043138      7369.0492      2315.261       32619.262     -3263.5595     -39.49002       0.44999999     122899.55    
      4000   295.81663      32354.293     -26.049699      7372.5606      2244.477       32622.796     -3236.7324     -62.471561      0.44999999     122899.55    
      4100   302.68258      32403.54      -81.042899      7363.7186      2356.8631      32626.165     -3259.3336     -45.185917      0.44999999     122899.55    
      4200   303.11645      32390.432     -86.054723      7359.3001      2332.1786      32611.628     -3227.1923     -42.996073      0.44999999     122899.55    
      4300   301.16914      32341.424     -70.342507      7367.58        2310.4496      32625.813     -3282.2156     -52.267537      0.44999999     122899.55    
      4400   300.62971      32377.987     -91.704289      7374.9536      2330.8464      32603.848     -3234.1215     -47.015108      0.44999999     122899.55    
      4500   302.98666      32242.222     -82.984621      7372.6307      2290.4018      32550.486     -3276.2739     -54.189392      0.44999999     122899.55    
      4600   297.09896      32451.608     -74.187127      7371.5039      2395.4794      32577.855     -3202.4505     -59.180041      0.44999999     122899.55    
      4700   299.76012      32338.537     -31.553188      7374.5754      2267.7028      32624.721     -3281.907      -58.243291      0.44999999     122899.55    
      4800   296.72263      32436.504     -74.09377       7364.8003      2438.7466      32584.31      -3281.1279     -40.388511      0.44999999     122899.55    
      4900   298.54657      32323.696     -26.407309      7362.4379      2289.8412      32628.557     -3321.2751     -52.250876      0.44999999     122899.55    
      5000   303.21655      32302.436     -89.809802      7363.1869      2311.6334      32554.722     -3252.203      -28.249332      0.44999999     122899.55    
      5100   296.74305      32236.331     -61.452766      7360.851       2244.3719      32622.218     -3318.6473     -55.415822      0.44999999     122899.55    
      5200   304.52582      32173.79      -81.082844      7358.6389      2241.0576      32661.491     -3398.9449     -49.406727      0.44999999     122899.55    
      5300   299.57458      32215.763     -96.938696      7344.9807      2324.4193      32527.389     -3284.8028     -41.831166      0.44999999     122899.55    
      5400   307.16288      32235.781     -83.272366      7356.3435      2261.7148      32565.338     -3271.1593     -35.081829      0.44999999     122899.55    
      5500   299.56874      32257.369     -123.01547      7357.3295      2333.035       32596.397     -3297.0391     -50.732149      0.44999999     122899.55    
      5600   298.24341      32274.887     -85.611403      7358.6782      2337.3396      32547.179     -3282.4243     -40.628121      0.44999999     122899.55    
      5700   301.94728      32284.351     -88.528947      7358.2562      2302.7764      32668.735     -3346.8317     -50.065377      0.44999999     122899.55    
      5800   298.1802       32383.111     -89.718911      7364.562       2304.5177      32631.706     -3237.2416     -30.177514      0.44999999     122899.55    
      5900   302.81791      32277.214     -92.702801      7343.6567      2299.1174      32633.001     -3293.6607     -51.407919      0.44999999     122899.55    
      6000   304.19803      32258.011     -100.55066      7349.6107      2316.4931      32650.695     -3346.2622     -51.377684      0.44999999     122899.55    
      6100   297.08542      32324.881     -62.205757      7348.3504      2279.9634      32637.097     -3265.9228     -49.799219      0.44999999     122899.55    
      6200   292.42761      32198.734     -87.118737      7346.9207      2315.0965      32592.421     -3349.324      -56.468178      0.44999999     122899.55    
      6300   296.03044      32172.876     -109.86516      7348.1515      2239.8555      32654.192     -3345.7934     -48.980569      0.44999999     122899.55    
      6400   297.02673      32368.144     -94.760625      7366.4652      2387.4172      32554.501     -3234.3498     -46.539788      0.44999999     122899.55    
      6500   303.7516       32259.937     -124.6964       7357.4201      2253.9444      32627.77      -3243.3417     -48.64661       0.44999999     122899.55    
      6600   298.64989      32319.375     -87.723373      7354.4218      2332.659       32704.459     -3358.1328     -61.843674      0.44999999     122899.55    
      6700   305.75018      32274.864     -95.072883      7354.7512      2330.7894      32537.785     -3248.9243     -40.104214      0.44999999     122899.55    
      6800   304.60128      32334.652     -118.57103      7359.0384      2328.2524      32681.764     -3291.3364     -60.116844      0.44999999     122899.55    
      6900   307.02134      32292.847     -82.842267      7355.8533      2271.9914      32627.958     -3281.4859     -35.222146      0.44999999     122899.55    
      7000   301.74872      32220.194     -129.65478      7352.2343      2318.0335      32577.421     -3281.9354     -51.579184      0.44999999     122899.55    
      7100   307.6897       32202.782     -126.71796      7358.2863      2290.519       32548.043     -3262.5256     -42.800457      0.44999999     122899.55    
      7200   300.08467      32172.421     -124.44546      7357.343       2249.9731      32588.988     -3306.4974     -30.845597      0.44999999     122899.55    
      7300   298.29036      32229.298     -152.47142      7348.3957      2311.906       32646.556     -3320.2251     -43.133797      0.44999999     122899.55    
      7400   302.83147      32182.457     -126.46715      7349.727       2220.5902      32648.684     -3309.289      -38.70266       0.44999999     122899.55    
      7500   305.69335      32208.44      -126.66465      7356.125       2339.5177      32644.187     -3386.6196     -55.517682      0.44999999     122899.55    
      7600   303.45844      32191.821     -163.41629      7345.8794      2326.7035      32609.668     -3320.5614     -43.498702      0.44999999     122899.55    
      7700   301.86637      32205.322     -101.49085      7344.4732      2288.4114      32551.254     -3267.5792     -45.406583      0.44999999     122899.55    
      7800   301.41716      32306.184     -124.96337      7336.4456      2412.8581      32582.168     -3294.0768     -41.295598      0.44999999     122899.55    
      7900   302.47742      32227.711     -124.07717      7352.6383      2322.2127      32621.181     -3324.6223     -56.614774      0.44999999     122899.55    
      8000   295.56809      32192.135     -141.36135      7343.936       2274.6032      32648.691     -3313.0992     -57.734213      0.44999999     122899.55    
      8100   301.21895      32210.917     -126.85947      7349.3872      2312.9421      32572.767     -3274.949      -59.217645      0.44999999     122899.55    
      8200   293.81922      32213.684     -153.27136      7349.2524      2304.5435      32703.729     -3379.1419     -46.932579      0.44999999     122899.55    
      8300   298.76474      32182.857     -152.01725      7344.8415      2323.6808      32680.146     -3391.0102     -58.735437      0.44999999     122899.55    
      8400   294.80196      32184.419     -121.73629      7339.9661      2294.5481      32583.224     -3305.4208     -42.042004      0.44999999     122899.55    
      8500   297.44389      32103.792     -99.169705      7338.3151      2201.9406      32523.086     -3248.2039     -48.833923      0.44999999     122899.55    
      8600   291.77309      32252.066     -135.87901      7349.0177      2339.557       32649.736     -3342.0305     -46.486953      0.44999999     122899.55    
      8700   298.19783      32162.751     -113.20443      7340.8569      2263.1583      32674.216     -3375.2393     -62.97618       0.44999999     122899.55    
      8800   290.56209      32337.503     -161.46141      7350.9107      2406.8796      32592.267     -3261.4877     -26.684242      0.44999999     122899.55    
      8900   305.28755      32260.024     -136.0963       7352.5775      2285.2812      32641.605     -3273.1121     -47.657633      0.44999999     122899.55    
      9000   310.83852      32325.937     -150.75598      7358.5584      2367.6202      32707.424     -3351.1882     -45.049333      0.44999999     122899.55    
      9100   302.21334      32228.354     -141.86452      7337.691       2310.0922      32676.024     -3344.4988     -47.314716      0.44999999     122899.55    
      9200   304.30287      32224.515     -129.14105      7345.7609      2353.8305      32522.866     -3249.5469     -58.589216      0.44999999     122899.55    
      9300   300.32738      32289.269     -157.59324      7350.8743      2374.3315      32621.704     -3297.3174     -41.587922      0.44999999     122899.55    
      9400   299.46777      32202.16      -184.73701      7336.9046      2293.418       32658.098     -3308.9177     -32.045313      0.44999999     122899.55    
      9500   298.19855      32244.512     -105.86355      7341.8198      2327.5799      32603.851     -3319.4974     -44.07108       0.44999999     122899.55    
      9600   298.58814      32215.307     -152.32843      7334.2138      2297.024       32648.587     -3293.9326     -58.889038      0.44999999     122899.55    
      9700   295.86693      32261.696     -134.73904      7331.3127      2278.6417      32746.669     -3330.0307     -69.259111      0.44999999     122899.55    
      9800   298.8881       32170.089     -159.56899      7335.7623      2343.5792      32605.849     -3353.0124     -42.066648      0.44999999     122899.55    
      9900   298.31597      32104.183     -177.88155      7334.2651      2308.41        32504.131     -3262.1259     -40.878746      0.44999999     122899.55    
     10000   302.33974      32156.767     -187.26158      7339.909       2285.9612      32630.854     -3317.7983     -33.866449      0.44999999     122899.55    
     10100   293.72227      32177.195     -176.65126      7338.669       2367.7909      32561.199     -3322.0496     -30.057713      0.44999999     122899.55    
     10128   295.44429      32116.044     -140.55531      7336.3576      2271.4749      32601.683     -3334.8216     -57.80967       0.44999999     122899.55    
Loop time of 78.2359 on 6 procs for 10000 steps with 5016 atoms

Performance: 11.044 ns/day, 2.173 hours/ns, 127.819 timesteps/s, 641.138 katom-step/s
99.1% CPU use with 6 MPI tasks x no OpenMP threads

MPI task timing breakdown:
Section |  min time  |  avg time  |  max time  |%varavg| %total
---------------------------------------------------------------
Pair    | 13.139     | 17.284     | 23.624     |  76.4 | 22.09
Bond    | 21.379     | 24.933     | 30.11      |  53.0 | 31.87
Kspace  | 20.063     | 31.366     | 38.855     | 101.6 | 40.09
Neigh   | 1.0864     | 1.0897     | 1.0967     |   0.3 |  1.39
Comm    | 2.2016     | 2.3172     | 2.4508     |   5.7 |  2.96
Output  | 0.0085392  | 0.011665   | 0.020591   |   3.8 |  0.01
Modify  | 0.37222    | 0.44497    | 0.53299    |   7.5 |  0.57
Other   |            | 0.7901     |            |       |  1.01

Nlocal:            836 ave         960 max         726 min
Histogram: 1 1 1 0 1 0 0 0 0 2
Nghost:         5111.5 ave        5249 max        5008 min
Histogram: 1 0 1 2 0 1 0 0 0 1
Neighs:         138304 ave      182721 max      107805 min
Histogram: 1 1 0 2 0 1 0 0 0 1

Total # of neighbors = 829826
Ave neighs/atom = 165.43581
Ave special neighs/atom = 6.2631579
Neighbor list builds = 226
Dangerous builds = 0
unfix Langevin
unfix moveLimit



fix 		relax all npt temp 300.0 300.0 100 iso 1.0 1.0 1000
run 100000
PPPM initialization ...
  using 12-bit tables for long-range coulomb (../kspace.cpp:342)
  G vector (1/distance) = 0.21506545
  grid = 15 15 15
  stencil order = 5
  estimated absolute RMS force accuracy = 0.019221309
  estimated relative force accuracy = 5.7884401e-05
  using double precision KISS FFT
  3d grid and FFT values/proc = 2600 675
Generated 21 of 21 mixed pair_coeff terms from sixthpower/sixthpower mixing rule
Per MPI rank memory allocation (min/avg/max) = 28.24 | 28.26 | 28.29 Mbytes
   Step          Temp          PotEng         E_vdwl         E_coul         E_bond        E_angle        E_dihed        E_impro        Density         Volume    
     10128   295.44429      32116.044     -140.55531      7336.3576      2271.4749      32601.683     -3334.8216     -57.80967       0.44999999     122899.55    
     10200   298.17269      32101.769     -199.80793      7348.3744      2286.3131      32527.57      -3257.3847     -43.124585      0.45100892     122624.62    
     10300   303.64852      32133.789     -185.37699      7341.1205      2287.0159      32605.708     -3309.7938     -42.67011       0.45540151     121441.84    
     10400   304.42277      32138.832     -202.40707      7337.7343      2333.9947      32646.578     -3360.0878     -54.238589      0.46205705     119692.57    
     10500   304.28104      32065.555     -266.2692       7327.2897      2286.7189      32608.458     -3273.9695     -54.590731      0.4685459      118034.96    
     10600   297.82648      32069.509     -231.11249      7327.2072      2325.124       32551.456     -3285.8366     -55.426207      0.47415809     116637.88    
     10700   298.96866      32006.94      -297.3392       7327.8148      2304.0431      32570.507     -3277.9398     -58.55532       0.47877881     115512.2     
     10800   299.57014      31964.414     -343.98544      7328.3959      2318.4014      32593.068     -3327.1573     -41.889928      0.48430705     114193.66    
     10900   297.41119      31963.767     -321.26262      7339.6772      2286.6561      32590.429     -3336.8918     -33.535333      0.49040918     112772.76    
     11000   291.98936      31929.914     -280.47212      7333.9609      2272.107       32553.092     -3326.4578     -58.783894      0.49607147     111485.54    
     11100   296.19154      31821.082     -396.9514       7342.8139      2239.3915      32582.785     -3345.8052     -36.787506      0.50018317     110569.09    
     11200   296.47902      31910.965     -373.0829       7330.656       2295.8317      32604.087     -3354.1974     -29.492017      0.50459569     109602.2     
     11300   299.95111      31927.637     -371.02703      7340.4659      2256.4875      32560.581     -3269.8056     -26.618612      0.50975977     108491.88    
     11400   302.66832      31881.068     -389.01792      7345.4875      2218.4596      32554.954     -3250.341      -34.191954      0.5149972      107388.54    
     11500   301.7616       31852.301     -382.62042      7342.2091      2232.986       32555.634     -3286.8359     -44.613707      0.52044101     106265.25    
     11600   297.99402      31779.931     -363.85662      7323.0831      2184.0307      32582.648     -3328.0344     -54.587129      0.52573342     105195.51    
     11700   294.73255      31763.464     -438.55067      7333.7192      2255.6027      32568.388     -3347.2141     -45.672628      0.53065667     104219.54    
     11800   299.41414      31717.88      -421.41815      7337.8654      2232.9297      32487.993     -3296.1106     -56.806595      0.53651052     103082.41    
     11900   299.11949      31747.067     -494.1569       7325.0997      2242.0539      32618.701     -3337.7962     -42.218798      0.54180884     102074.37    
     12000   302.25643      31738.985     -480.80528      7320.843       2205.2436      32650.883     -3333.9997     -58.239361      0.54650903     101196.49    
     12100   302.81046      31746.336     -471.40908      7318.2601      2227.1554      32612.709     -3313.7345     -60.096974      0.55060843     100443.06    
     12200   299.6887       31669.949     -508.55119      7340.2857      2211.4464      32587.498     -3356.2278     -38.757469      0.5544068      99754.901    
     12300   295.60031      31645.866     -498.89818      7328.7439      2191.9832      32596.489     -3347.52       -58.078426      0.55885448     98960.995    
     12400   299.17769      31665.514     -532.99729      7327.2934      2162.1787      32669.5       -3345.0549     -47.196819      0.5635204      98141.603    
     12500   302.95045      31690.678     -546.76952      7317.3299      2249.1376      32580.169     -3301.3555     -37.984165      0.56778712     97404.103    
     12600   301.89058      31706.887     -533.22387      7325.4959      2213.9475      32606.317     -3284.37       -51.361494      0.57192047     96700.151    
     12700   304.44294      31572.097     -559.28822      7340.617       2168.9238      32526.168     -3294.5519     -41.063403      0.57629009     95966.938    
     12800   293.77154      31637.962     -559.56566      7332.0941      2208.1587      32613.784     -3326.3349     -59.819298      0.58130977     95138.252    
     12900   298.83611      31586.246     -553.3581       7322.6799      2216.3593      32546.821     -3320.1695     -56.005449      0.58595791     94383.564    
     13000   296.59017      31656.081     -602.34055      7327.1469      2208.1069      32620         -3286.0223     -43.108323      0.59043547     93667.806    
     13100   304.75329      31549.858     -584.43411      7322.027       2172.909       32623.737     -3368.3429     -49.707405      0.59510618     92932.651    
     13200   294.26544      31670.367     -579.77063      7340.7545      2219.7046      32624.613     -3317.9836     -52.243255      0.5998021      92205.071    
     13300   294.6938       31543.814     -622.90737      7341.3679      2179.114       32569.595     -3307.0436     -50.80211       0.60387607     91583.022    
     13400   297.98899      31484.997     -657.83454      7340.3172      2202.5196      32505.903     -3292.7505     -48.390472      0.60884214     90836.018    
     13500   301.53165      31547.816     -632.59261      7333.4618      2245.443       32518.659     -3307.1158     -44.984507      0.61477705     89959.109    
     13600   299.10776      31626.989     -649.48752      7327.9894      2193.6798      32639.693     -3275.0721     -46.559704      0.62030925     89156.813    
     13700   298.42166      31608.465     -604.83898      7329.7599      2236.5265      32623.044     -3355.4589     -58.069683      0.62545582     88423.185    
     13800   299.93638      31524.759     -666.05281      7329.7022      2171.8349      32626.37      -3335.5803     -37.708765      0.62893181     87934.486    
     13900   295.30782      31461.553     -672.60996      7324.7688      2197.5684      32524.963     -3293.7798     -54.935256      0.63238768     87453.942    
     14000   293.62443      31466.419     -728.1597       7330.2428      2171.8417      32589.777     -3299.3514     -32.810026      0.6364217      86899.606    
     14100   303.61021      31372.457     -717.07977      7317.5432      2211.131       32508.16      -3330.7612     -51.084375      0.64187325     86161.552    
     14200   301.62662      31445.025     -761.25173      7332.4321      2206.7307      32593.228     -3317.9423     -43.716191      0.64686654     85496.454    
     14300   304.63798      31408.205     -754.89         7310.9386      2219.3833      32566.872     -3322.8017     -45.827421      0.65091383     84964.849    
     14400   296.35436      31399.067     -728.98989      7321.7688      2155.1816      32573.892     -3307.6154     -49.250394      0.65447064     84503.097    
     14500   296.94255      31326.664     -809.12327      7313.5979      2144.9482      32615.251     -3316.2187     -55.248254      0.6579784      84052.6      
     14600   295.15333      31427.789     -720.7011       7314.9035      2211.163       32547.741     -3301.0902     -58.786768      0.6628341      83436.859    
     14700   300.92735      31419.794     -778.02893      7316.9346      2178.8131      32577.465     -3255.2569     -54.535899      0.66655461     82971.139    
     14800   302.57619      31395.212     -776.45433      7307.9447      2184.2817      32636.94      -3335.0333     -56.489198      0.66935872     82623.553    
     14900   300.89333      31377.413     -816.42151      7336.4663      2144.8323      32687.661     -3351.7068     -59.293683      0.67300093     82176.402    
     15000   297.69568      31282.093     -794.83532      7327.3774      2150.1317      32509.27      -3288.1313     -58.210683      0.67731046     81653.537    
     15100   298.12236      31279.817     -827.43546      7325.1612      2146.7352      32473.535     -3234.4973     -41.48425       0.68124882     81181.491    
     15200   295.96293      31365.731     -843.88052      7332.4617      2141.942       32632.093     -3290.2595     -44.242357      0.68621821     80593.599    
     15300   302.7166       31314.071     -845.87225      7337.5671      2216.3136      32649.639     -3441.907      -38.453637      0.69185692     79936.753    
     15400   303.51469      31331.789     -827.52179      7330.9192      2199.3975      32518.967     -3283.2772     -41.258955      0.6975273      79286.926    
     15500   300.31578      31283.913     -847.39099      7322.5651      2233.1612      32479.543     -3294.2484     -42.646359      0.70203316     78778.039    
     15600   294.99628      31247.124     -793.61182      7312.3745      2157.2045      32520.044     -3337.3314     -42.532959      0.70587458     78349.323    
     15700   300.09786      31224.22      -834.25168      7316.7492      2119.0034      32550.986     -3311.9829     -49.555282      0.70972776     77923.957    
     15800   304.53998      31234.408     -896.75153      7327.8887      2177.2474      32577.224     -3347.5928     -36.233661      0.71443149     77410.915    
     15900   301.45782      31299.289     -875.63333      7328.6069      2200.8347      32579.075     -3315.4208     -50.474723      0.72072022     76735.457    
     16000   297.5787       31344.794     -895.45108      7321.585       2198.9454      32635.209     -3304.6403     -43.707779      0.72704944     76067.448    
     16100   300.25927      31246.011     -875.29801      7307.8721      2214.4346      32572.665     -3364.7147     -42.011818      0.73205941     75546.867    
     16200   295.81109      31216.845     -878.26301      7311.2002      2175.7916      32522.848     -3299.7541     -45.538285      0.73612354     75129.774    
     16300   297.3195       31167.42      -894.37695      7311.1263      2093.3772      32594.933     -3321.3806     -47.799335      0.74041225     74694.598    
     16400   302.52908      31184.298     -940.56636      7332.1102      2144.0041      32627.952     -3370.4905     -42.937537      0.74484235     74250.337    
     16500   301.58147      31270.651     -939.98902      7311.7892      2185.1677      32637.903     -3322.4169     -32.024008      0.7494588      73792.976    
     16600   306.37884      31191.652     -977.56056      7309.452       2159.3762      32548.012     -3231.8696     -47.990556      0.7547435      73276.279    
     16700   298.95451      31252.651     -940.58583      7314.9283      2252.3304      32560.55      -3315.7674     -52.316929      0.76063164     72709.039    
     16800   305.09783      31123.273     -974.45229      7311.7304      2159.4575      32583.608     -3329.9143     -59.851025      0.76610476     72189.599    
     16900   300.2718       31164.526     -951.46511      7303.6633      2212.5212      32520.059     -3308.6816     -43.878684      0.7716426      71671.517    
     17000   298.51506      31188.181     -967.38607      7313.4776      2189.8546      32556.044     -3290.5251     -45.360919      0.77693019     71183.738    
     17100   296.43226      31227.209     -952.48775      7305.9945      2162.8041      32635.865     -3316.2856     -38.695364      0.78203088     70719.452    
     17200   299.1614       31187.91      -972.26938      7315.8679      2165.9232      32606.894     -3319.7574     -39.044075      0.78756617     70222.412    
     17300   298.1574       31198.195     -966.99418      7321.2302      2211.0685      32553.11      -3302.3084     -49.729198      0.79218193     69813.251    
     17400   295.64321      31218.265     -974.72367      7313.865       2238.3769      32547.526     -3311.0882     -29.227521      0.79705783     69386.176    
     17500   298.8414       31106.159     -984.00303      7303.0048      2188.6638      32493.138     -3288.9403     -41.844703      0.80156936     68995.645    
     17600   296.92544      31110.941     -951.19971      7299.9414      2161.8059      32590.354     -3374.9008     -51.630465      0.80684287     68544.692    
     17700   299.97988      31136.544     -964.44846      7314.6769      2162.0067      32588.001     -3350.6453     -47.172072      0.81236975     68078.354    
     17800   304.16712      31162.634     -1006.4449      7305.9778      2187.6453      32630.707     -3338.945      -49.195337      0.81676475     67712.026    
     17900   304.90788      31158.04      -1043.3684      7323.1307      2226.7209      32559.7       -3305.7215     -34.746814      0.82094859     67366.941    
     18000   299.1441       31142.146     -1077.8162      7313.5211      2159.1432      32635.901     -3265.6702     -54.643281      0.8262947      66931.078    
     18100   299.932        31079.588     -1047.1426      7305.137       2202.5517      32583.473     -3361.6936     -36.881364      0.83214729     66460.344    
     18200   296.15561      31088.954     -1047.1117      7305.7507      2211.5246      32592.801     -3365.7067     -41.516106      0.83746509     66038.329    
     18300   302.16218      30987.52      -1077.4284      7311.0605      2137.2741      32546.799     -3311.2902     -51.314257      0.84230349     65658.989    
     18400   298.45674      31035.788     -1120.1542      7290.4238      2207.8731      32575.721     -3300.4127     -49.560312      0.84808978     65211.015    
     18500   299.68271      30989.005     -1109.7407      7294.4453      2169.8161      32574.746     -3323.3045     -48.725091      0.85472393     64704.864    
     18600   297.51468      30953.763     -1124.9366      7290.0168      2150.6772      32576.841     -3307.4891     -62.967886      0.86086921     64242.971    
     18700   296.0355       30921.724     -1179.7494      7304.8156      2124.2575      32673.48      -3386.3767     -45.72743       0.86658071     63819.555    
     18800   295.31746      30959.583     -1149.4321      7285.147       2210.3206      32519.261     -3301.2306     -35.179341      0.8722333      63405.966    
     18900   304.15656      30962.595     -1163.0492      7284.3439      2188.6332      32555.782     -3284.6148     -48.32162       0.87602051     63131.85     
     19000   305.09827      30965.415     -1136.2941      7303.8871      2159.8296      32591.322     -3354.9898     -29.842279      0.87953214     62879.789    
     19100   299.32541      30993.928     -1166.4543      7295.8811      2175.4374      32712.256     -3410.3328     -44.165145      0.88184058     62715.185    
     19200   298.67287      30938.623     -1191.4139      7292.964       2193.5806      32540.017     -3285.6349     -43.40662       0.88450781     62526.068    
     19300   297.35075      30848.983     -1195.9537      7288.4824      2154.0335      32536.651     -3326.4937     -40.023197      0.88798307     62281.363    
     19400   290.93807      30832.599     -1204.994       7293.0697      2126.1036      32579.581     -3356.8814     -39.881194      0.89193677     62005.287    
     19500   298.44883      30785.352     -1219.5792      7290.5385      2165.3544      32512.112     -3358.4191     -37.462658      0.89620826     61709.759    
     19600   298.31921      30859.996     -1236.6597      7289.4924      2193.8725      32556.968     -3331.3442     -45.447478      0.90089826     61388.503    
     19700   303.39258      30837.02      -1192.2116      7300.0834      2176.3328      32500.891     -3336.6629     -44.039342      0.90521307     61095.887    
     19800   300.33777      30889.319     -1227.8037      7296.5412      2162.1691      32567.252     -3292.5287     -49.003689      0.90705728     60971.668    
     19900   294.49922      30855.021     -1174.4831      7290.4816      2175.9302      32514.581     -3329.3513     -55.752886      0.90922522     60826.288    
     20000   293.54632      30816.607     -1242.2982      7293.7321      2151.1656      32632.182     -3394.4022     -57.480628      0.90903753     60838.847    
     20100   294.48146      30879.412     -1234.1141      7300.301       2175.3711      32530.412     -3267.8617     -58.1622        0.90954024     60805.221    
     20200   297.16473      30914.984     -1236.7062      7307.6871      2242.2857      32573.994     -3355.1348     -50.564078      0.91140933     60680.524    
     20300   301.46998      30862.884     -1281.7682      7306.4112      2167.9046      32606.275     -3326.5997     -42.96141       0.91360835     60534.468    
     20400   301.73624      30795.168     -1232.1497      7309.2797      2160.5164      32545.847     -3370.3225     -53.179401      0.91812563     60236.632    
     20500   299.23189      30730.404     -1274.9387      7291.297       2154.4189      32556.785     -3368.583      -63.594483      0.922187       59971.346    
     20600   298.3064       30768.445     -1285.4285      7295.5207      2186.8094      32520.609     -3322.1979     -60.39877       0.92651097     59691.463    
     20700   297.88422      30839.818     -1210.2604      7295.8883      2117.5037      32587.109     -3330.6059     -52.695269      0.93086254     59412.419    
     20800   300.63517      30831.176     -1272.8384      7289.2692      2190.0576      32592.601     -3349.9834     -51.450661      0.93351861     59243.378    
     20900   301.69388      30855.543     -1294.9875      7288.5768      2176.9333      32695.714     -3389.4228     -51.542014      0.93648407     59055.778    
     21000   303.74238      30857.647     -1284.273       7285.4052      2141.4802      32645.45      -3313.5812     -44.539341      0.94028166     58817.265    
     21100   300.38878      30862.641     -1283.593       7283.8954      2169.6928      32632.797     -3326.1001     -42.790837      0.94205247     58706.704    
     21200   295.24864      30814.47      -1269.4789      7305.3231      2138.2634      32639.599     -3379.4742     -49.532452      0.94427913     58568.271    
     21300   294.46646      30812.689     -1277.5459      7308.8998      2232.5109      32525.045     -3357.1728     -48.455283      0.94655776     58427.28     
     21400   297.31143      30828.824     -1309.139       7300.6342      2187.4571      32583.482     -3332.3631     -30.004994      0.94949342     58246.634    
     21500   301.79129      30845.726     -1293.536       7299.5979      2171.8875      32608.907     -3319.6741     -50.785904      0.95309845     58026.32     
     21600   299.45541      30911.401     -1288.6222      7309.4187      2158.2028      32623.315     -3278.1662     -42.195646      0.9553445      57889.898    
     21700   295.63832      30882.58      -1256.315       7306.2855      2266.6389      32611.136     -3426.0928     -48.14444       0.95532557     57891.045    
     21800   295.91619      30776.563     -1325.497       7317.0383      2171.4996      32593.926     -3372.4175     -36.473699      0.95555702     57877.023    
     21900   294.87348      30783.344     -1306.4324      7305.9551      2139.7021      32593.395     -3324.7749     -52.821678      0.95851296     57698.537    
     22000   301.05723      30782.265     -1311.5667      7306.4786      2175.9712      32553.894     -3321.3722     -48.149059      0.96191176     57494.666    
     22100   305.59746      30769.26      -1351.5373      7300.2892      2162.6403      32559.427     -3283.1036     -47.224741      0.96537411     57288.459    
     22200   302.80628      30762.844     -1388.8491      7308.0569      2208.6353      32622.957     -3370.4893     -45.999627      0.97011042     57008.763    
     22300   297.79956      30729.968     -1314.6518      7297.4909      2125.2295      32579.919     -3338.7393     -49.27967       0.97478546     56735.351    
     22400   298.18208      30727.302     -1404.9594      7299.9452      2213.4321      32530.819     -3295.7193     -46.088049      0.97792431     56553.247    
     22500   300.15055      30737.239     -1391.6016      7293.9121      2204.5872      32550.245     -3303.6363     -47.657077      0.98139741     56353.109    
     22600   307.70426      30645.141     -1460.102       7297.6832      2157.4386      32581.675     -3321.1695     -43.072988      0.9837353      56219.184    
     22700   301.03431      30652.633     -1460.1035      7298.9874      2159.7596      32608.069     -3357.3505     -30.60924       0.98610109     56084.306    
     22800   297.98264      30604.143     -1392.7563      7296.9837      2130.5521      32519.841     -3327.6052     -56.388108      0.98903805     55917.763    
     22900   302.89696      30558.264     -1461.1864      7298.3721      2096.1132      32512.008     -3266.2097     -54.262845      0.98897984     55921.054    
     23000   300.40749      30679.029     -1453.5997      7290.8402      2175.13        32580.131     -3296.6977     -50.21369       0.98865165     55939.618    
     23100   303.53579      30665.346     -1435.8041      7302.6112      2133.7509      32566.026     -3298.6047     -35.905653      0.99040598     55840.53     
     23200   301.8989       30680.284     -1437.8718      7300.1004      2155.198       32596.018     -3307.2694     -59.172913      0.99153387     55777.011    
     23300   300.28137      30701.484     -1415.6891      7299.3038      2131.7382      32556.712     -3264.8473     -38.427923      0.99233193     55732.154    
     23400   300.11215      30704.438     -1427.7997      7295.3877      2159.2788      32619.558     -3322.4426     -51.368266      0.99297292     55696.177    
     23500   295.34165      30774.066     -1426.0391      7306.8771      2217.5716      32636.38      -3348.6526     -43.074741      0.99434835     55619.135    
     23600   303.40339      30669.774     -1426.2121      7303.0891      2162.5603      32547.159     -3304.0959     -44.397549      0.99586464     55534.45     
     23700   301.1489       30723.985     -1414.1889      7289.2352      2168.1391      32686.009     -3382.4749     -54.37509       0.99674481     55485.411    
     23800   299.70015      30720.958     -1434.5943      7298.5555      2224.3045      32575.682     -3321.0477     -51.859496      0.99837632     55394.739    
     23900   304.25709      30576.638     -1494.9069      7301.2804      2069.2607      32641.113     -3313.2297     -58.147874      1.0006618      55268.22     
     24000   297.24604      30607.121     -1440.9974      7296.6794      2121.6263      32594.809     -3352.0697     -44.343762      1.0048939      55035.459    
     24100   294.95243      30607.829     -1492.3623      7297.9738      2143.7022      32540.314     -3267.8493     -42.305722      1.007455       54895.548    
     24200   301.9569       30537.903     -1563.0856      7295.3673      2178.7272      32561.115     -3325.1817     -38.109987      1.0084228      54842.867    
     24300   301.71615      30663.302     -1443.0405      7296.3784      2168.0413      32595.919     -3322.429      -59.633032      1.0098721      54764.157    
     24400   305.47977      30658.283     -1511.9458      7296.3176      2256.3522      32544.643     -3310.3596     -46.62288       1.0084292      54842.515    
     24500   298.25429      30690.102     -1451.0107      7301.2823      2173.9551      32580.162     -3301.1083     -44.321795      1.0066417      54939.903    
     24600   301.97309      30554.709     -1482.4714      7303.0571      2138.5414      32671.226     -3455.543      -53.736879      1.0036712      55102.504    
     24700   298.00883      30629.125     -1468.4234      7296.4735      2146.591       32583.841     -3315.2135     -44.795016      1.0026932      55156.251    
     24800   297.1          30690.154     -1442.6373      7306.5998      2250.7728      32569.599     -3384.5403     -40.573993      1.002667       55157.688    
     24900   293.83505      30756.936     -1484.0305      7297.4362      2203.3818      32650.259     -3302.6024     -39.187803      1.003376       55118.714    
     25000   300.53456      30659.017     -1505.6316      7300.3571      2143.0383      32700.162     -3366.916      -43.923316      1.0055719      54998.35     
     25100   302.27074      30626.365     -1471.5112      7308.5507      2217.7618      32594.423     -3409.4292     -43.354063      1.0092927      54795.597    
     25200   296.97509      30607.822     -1486.9269      7287.3654      2229.9476      32575.141     -3379.237      -47.921939      1.0129653      54596.932    
     25300   294.74414      30578.357     -1487.0005      7290.7135      2142.1135      32609.671     -3369.5037     -36.566583      1.0160294      54432.278    
     25400   299.77413      30575.524     -1543.7359      7287.4113      2242.8628      32477.417     -3281.9228     -35.589551      1.0170181      54379.363    
     25500   301.78255      30617.746     -1557.7634      7279.4224      2222.1152      32629.59      -3350.2667     -34.668055      1.0173191      54363.273    
     25600   299.0459       30667.28      -1473.2286      7275.5279      2212.5411      32626.365     -3358.3925     -42.459994      1.0179416      54330.028    
     25700   299.1041       30566.684     -1488.0929      7270.0767      2215.0124      32549.455     -3356.5409     -50.103658      1.0170441      54377.971    
     25800   296.66783      30494.309     -1527.7405      7274.7145      2162.2938      32550.321     -3336.4719     -56.158539      1.0166535      54398.866    
     25900   294.98557      30584.367     -1528.7944      7272.2902      2201.1188      32569.276     -3312.3785     -42.099279      1.0179711      54328.455    
     26000   299.96948      30589.174     -1487.767       7288.7263      2152.4348      32601.919     -3337.8859     -55.280443      1.0200729      54216.511    
     26100   304.54946      30570.066     -1530.7693      7278.6028      2225.8922      32551.374     -3338.6361     -41.909704      1.0207787      54179.026    
     26200   298.69643      30631.25      -1474.2123      7291.2154      2158.3783      32598.122     -3337.0666     -31.135549      1.0207587      54180.088    
     26300   299.8418       30572.087     -1597.0635      7300.9665      2279.1826      32536.561     -3339.6489     -34.480559      1.0182584      54313.126    
     26400   297.40375      30470.127     -1542.6671      7296.6034      2131.4046      32501.799     -3297.8508     -43.752361      1.0179473      54329.722    
     26500   290.19441      30534.848     -1546.7508      7305.8645      2184.473       32531.158     -3324.0138     -42.304768      1.0195441      54244.633    
     26600   296.49741      30540.009     -1531.248       7294.3391      2156.093       32626.499     -3383.7545     -47.173641      1.0234511      54037.557    
     26700   301.34819      30541.293     -1552.8032      7297.033       2174.6254      32607.573     -3371.7919     -37.19858       1.0274342      53828.067    
     26800   300.42349      30593.605     -1521.22        7289.1525      2200.2657      32642.548     -3393.0879     -49.04666       1.0306426      53660.497    
     26900   297.42854      30649.305     -1521.3116      7297.59        2143.7164      32585.111     -3249.6985     -30.755051      1.031332       53624.629    
     27000   297.16097      30571.692     -1582.1345      7287.6039      2260.1559      32660.407     -3431.0393     -47.470627      1.0295471      53717.596    
     27100   296.50188      30473.24      -1520.5138      7276.948       2076.8156      32608.557     -3342.7963     -49.12658       1.0280794      53794.286    
     27200   298.25899      30495.682     -1535.7429      7290.4712      2149.7595      32541.242     -3339.7456     -34.488938      1.0253924      53935.249    
     27300   294.43731      30632.367     -1507.762       7287.7798      2166.1152      32651.053     -3347.822      -42.264517      1.022735       54075.389    
     27400   304.49728      30528.467     -1543.1185      7288.7511      2218.7331      32583.12      -3377.4353     -67.643623      1.0200636      54217.005    
     27500   300.06981      30601.355     -1537.427       7267.8456      2198.9886      32623.388     -3336.0059     -43.033166      1.0187232      54288.345    
     27600   298.65038      30613.702     -1512.3351      7264.0149      2247.6163      32543.789     -3312.7975     -41.971422      1.0187544      54286.682    
     27700   301.8388       30512.505     -1488.6898      7265.2876      2187.1952      32470.611     -3295.1572     -50.333821      1.0196761      54237.612    
     27800   296.99844      30474.912     -1510.2284      7281.9281      2126.0496      32537.281     -3331.1281     -52.772426      1.0212033      54156.497    
     27900   297.21484      30503.981     -1535.7868      7280.3431      2131.8476      32632.793     -3382.3131     -49.900349      1.023427       54038.83     
     28000   299.57627      30581.974     -1583.7878      7277.9857      2226.5645      32604.724     -3329.7048     -40.826025      1.026106       53897.739    
     28100   305.79066      30527.919     -1560.6709      7280.6768      2222.123       32561.058     -3356.4158     -45.493216      1.0278542      53806.068    
     28200   303.6506       30528.318     -1549.3539      7270.1251      2156.5838      32595.029     -3335.3102     -33.109804      1.0267563      53863.605    
     28300   300.91669      30505.35      -1588.3918      7272.8032      2154.3733      32700.883     -3401.11       -58.872803      1.0244226      53986.31     
     28400   293.61109      30510.06      -1633.7539      7281.9973      2175.9847      32575.607     -3282.8548     -31.712892      1.0237625      54021.119    
     28500   290.58533      30464.762     -1611.7404      7289.9901      2123.7822      32671.885     -3385.4277     -49.964436      1.0263124      53886.901    
     28600   300.56018      30454.546     -1568.2282      7289.1067      2147.3747      32572.282     -3360.6603     -52.335141      1.0306355      53660.867    
     28700   302.71326      30509.23      -1535.482       7270.1679      2188.6412      32574.077     -3371.4987     -43.486719      1.0330515      53535.371    
     28800   303.61138      30514.807     -1544.4222      7267.1621      2095.5445      32627.516     -3307.9809     -48.249502      1.0321822      53580.46     
     28900   302.96929      30488.974     -1585.4729      7274.9441      2192.9621      32542.852     -3322.0228     -39.098985      1.0299224      53698.022    
     29000   301.51157      30412.865     -1588.0868      7264.598       2085.2194      32652.178     -3372.7861     -51.878         1.0292843      53731.312    
     29100   297.03216      30450.518     -1561.1089      7272.9676      2151.4473      32544.404     -3335.2915     -46.621784      1.0297382      53707.628    
     29200   304.64368      30440.257     -1532.6721      7268.4689      2119.0482      32548.785     -3336.4968     -51.215711      1.0309288      53645.6      
     29300   300.56858      30587.263     -1562.5358      7272.9169      2150.762       32654.229     -3317.3914     -36.405975      1.0322701      53575.897    
     29400   301.58031      30565.9       -1569.6557      7274.9224      2197.0722      32680.028     -3380.8522     -60.929139      1.033507       53511.774    
     29500   301.21423      30510.511     -1577.0589      7266.8317      2149.1662      32683.774     -3395.6021     -41.781346      1.0334889      53512.711    
     29600   300.6816       30430.377     -1564.0964      7269.9794      2161.9604      32487.383     -3295.9183     -54.886203      1.0346573      53452.285    
     29700   298.74845      30470.057     -1610.1433      7266.9386      2251.085       32565.131     -3389.0292     -37.105816      1.0359809      53383.991    
     29800   307.06576      30398.186     -1620.8898      7263.7667      2098.6397      32673.479     -3389.9265     -49.533787      1.0361954      53372.938    
     29900   301.21053      30539.697     -1586.7395      7242.3445      2235.5357      32606.316     -3332.9693     -47.380306      1.0353591      53416.051    
     30000   310.54522      30534.041     -1529.8198      7253.2863      2197.4376      32601.682     -3352.2345     -60.655286      1.0345604      53457.29     
     30100   310.05536      30501.488     -1588.0729      7262.9635      2189.7285      32612.148     -3349.9475     -49.744932      1.0323298      53572.797    
     30200   302.59659      30487.352     -1553.278       7255.6111      2197.677       32616.47      -3389.7169     -60.400939      1.0311983      53631.582    
     30300   297.74405      30514.098     -1563.3899      7252.195       2180.7955      32580.777     -3319.3404     -40.299196      1.0284888      53772.872    
     30400   297.94955      30501.935     -1563.9263      7248.1195      2172.0368      32644.843     -3376.0375     -47.458736      1.0267256      53865.216    
     30500   299.90759      30505.596     -1556.1164      7245.9024      2165.18        32666.249     -3401.3344     -37.5404        1.0272441      53838.027    
     30600   301.88981      30558.703     -1581.0375      7253.0445      2179.2577      32679.551     -3340.1532     -53.976184      1.0304999      53667.928    
     30700   305.43258      30533.917     -1611.9675      7264.0592      2232.109       32600.727     -3332.0107     -39.267317      1.0352369      53422.358    
     30800   297.24225      30536.936     -1597.7061      7272.8155      2192.0771      32671.856     -3376.304      -48.229553      1.0406507      53144.436    
     30900   299.59917      30447.425     -1570.5823      7265.1379      2181.5533      32541.205     -3345.622      -49.68969       1.0456106      52892.344    
     31000   299.78658      30446.262     -1601.1724      7241.5867      2229.7965      32562.813     -3364.4906     -47.323037      1.0473257      52805.728    
     31100   304.91957      30405.808     -1675.3455      7254.3574      2204.0027      32640.627     -3406.8109     -37.186482      1.0444373      52951.761    
     31200   304.69067      30504.906     -1606.2416      7262.9051      2269.4913      32566.711     -3363.8923     -47.700016      1.0409109      53131.154    
     31300   300.57417      30620.322     -1560.1449      7278.8935      2228.8484      32644.223     -3360.6631     -33.377334      1.0372998      53316.116    
     31400   304.73443      30490.877     -1586.2509      7256.7252      2236.5754      32634.16      -3441.3988     -31.69724       1.0336182      53506.018    
     31500   302.71241      30392.08      -1607.7254      7246.2788      2116.5487      32630.184     -3373.105      -42.190349      1.0312381      53629.511    
     31600   298.68414      30446.083     -1624.7614      7260.4799      2205.6794      32571.385     -3344.0936     -44.955985      1.0316787      53606.609    
     31700   297.49474      30534.838     -1594.2971      7262.1621      2236.2899      32598.903     -3347.1984     -43.299534      1.0343506      53468.132    
     31800   298.67824      30590.282     -1570.5762      7264.7022      2244.1293      32584.08      -3302.5623     -51.778883      1.0373762      53312.189    
     31900   303.93844      30503.695     -1591.9153      7258.1333      2217.044       32594.528     -3355.8117     -39.824039      1.0390051      53228.61     
     32000   303.03118      30458.89      -1603.4835      7253.6445      2169.3209      32653.669     -3389.8157     -46.639584      1.0396052      53197.882    
     32100   303.85914      30413.669     -1575.0405      7256.8943      2170.741       32582.493     -3384.1683     -60.023333      1.0398833      53183.658    
     32200   298.64719      30485.108     -1637.2808      7263.1794      2215.2602      32586.268     -3317.9482     -46.53404       1.0398878      53183.424    
     32300   299.67155      30471.864     -1657.2696      7263.5238      2194.2595      32607.84      -3307.4643     -50.795285      1.0397742      53189.238    
     32400   299.84806      30469.488     -1625.9013      7257.2384      2145.0632      32605.798     -3299.3227     -36.462666      1.0415457      53098.769    
     32500   300.51739      30477.02      -1646.7312      7254.8334      2222.8103      32698.252     -3414.6639     -62.231145      1.0427822      53035.808    
     32600   296.22412      30564.586     -1591.0643      7265.5888      2124.848       32728.374     -3346.5389     -42.142952      1.0449539      52925.585    
     32700   302.68895      30465.735     -1652.2604      7265.4893      2231.8146      32573.172     -3325.239      -50.963046      1.0449153      52927.539    
     32800   292.03604      30547.624     -1627.4134      7272.922       2204.0351      32620.491     -3297.0235     -48.515114      1.0455241      52896.722    
     32900   299.32311      30381.53      -1647.3713      7255.3835      2122.9059      32704.817     -3422.0329     -55.382803      1.0438908      52979.482    
     33000   297.02334      30495.818     -1640.5967      7265.6954      2224.6842      32704.255     -3435.5001     -46.057583      1.0422876      53060.975    
     33100   304.51871      30505.237     -1624.2626      7270.192       2217.5765      32543.045     -3284.297      -40.221881      1.0419783      53076.724    
     33200   306.11031      30452.054     -1586.0186      7264.5894      2180.2923      32535.161     -3318.2225     -46.976473      1.042025       53074.348    
     33300   298.8695       30492.446     -1640.614       7253.9326      2181.804       32730.946     -3396.9274     -59.420885      1.0400248      53176.418    
     33400   300.5222       30447.872     -1627.6349      7255.85        2187.3225      32560.479     -3304.4154     -46.522658      1.0386541      53246.595    
     33500   299.93828      30519.921     -1617.1616      7253.1976      2336.6983      32541.549     -3373.593      -43.12746       1.0366657      53348.726    
     33600   307.67453      30536.852     -1595.6089      7261.0633      2190.8993      32621.854     -3324.8745     -40.129103      1.0347951      53445.163    
     33700   305.97792      30515.79      -1611.1756      7242.6401      2232.3399      32618.025     -3338.9462     -50.34866       1.0327936      53548.738    
     33800   301.34568      30486.885     -1572.3979      7262.7011      2136.4582      32658.541     -3379.302      -42.9645        1.0326883      53554.2      
     33900   298.01997      30498.406     -1592.1133      7260.8532      2220.0695      32537.142     -3309.6106     -42.675924      1.0334027      53517.178    
     34000   299.26478      30498.706     -1585.2593      7255.8847      2245.6691      32563.554     -3346.0049     -57.947051      1.0352063      53423.937    
     34100   310.93215      30390.369     -1633.6998      7251.9161      2111.2731      32688.809     -3390.9702     -61.227132      1.0375527      53303.12     
     34200   307.15415      30556.687     -1608.4582      7258.4948      2195.1744      32697.21      -3364.135      -46.81736       1.0396681      53194.664    
     34300   308.21677      30518.919     -1617.1838      7254.6779      2198.1554      32667.047     -3349.1484     -58.451756      1.0412975      53111.426    
     34400   299.7688       30469.844     -1627.2528      7261.9939      2251.0042      32565.653     -3370.914      -32.726882      1.0413867      53106.876    
     34500   295.96913      30488.252     -1635.2004      7258.9153      2251.112       32587.703     -3339.1167     -58.834557      1.0403046      53162.118    
     34600   298.13218      30474.09      -1641.2044      7263.821       2221.2344      32570.274     -3327.3312     -38.26313       1.038227       53268.5      
     34700   301.4697       30469.914     -1583.2474      7248.3319      2241.9401      32624.651     -3433.1711     -54.274025      1.0371795      53322.301    
     34800   301.47871      30489.465     -1603.7884      7252.1169      2240.9704      32555.4       -3344.6265     -37.154284      1.0364565      53359.493    
     34900   297.31307      30553.265     -1604.7768      7252.8478      2225.4231      32670.58      -3362.6463     -50.505627      1.0372969      53316.264    
     35000   305.76449      30417.186     -1601.9855      7258.446       2207.498       32557.923     -3385.0231     -43.624303      1.0405513      53149.516    
     35100   295.86539      30508.903     -1678.3916      7267.7387      2237.8235      32644.071     -3352.4865     -34.641435      1.0431954      53014.799    
     35200   298.94745      30384.092     -1626.6345      7265.4157      2231.622       32607.662     -3461.6256     -54.677066      1.046928       52825.788    
     35300   295.42911      30392.862     -1625.2778      7274.2796      2185.7281      32538.398     -3358.2908     -43.769578      1.0500761      52667.414    
     35400   302.34913      30376.109     -1745.1215      7259.0812      2244.2905      32581.451     -3322.5444     -63.832812      1.0500659      52667.928    
     35500   301.36353      30505.528     -1664.254       7270.4165      2250.2179      32641.582     -3379.9465     -35.557814      1.050709       52635.694    
     35600   301.32199      30494.999     -1646.0921      7258.9967      2272.2917      32542.321     -3330.3204     -26.207604      1.0487287      52735.084    
     35700   301.23118      30414.9       -1632.1947      7266.0881      2231.6833      32567.838     -3395.1918     -47.078711      1.0460099      52872.154    
     35800   303.4854       30311.256     -1677.9336      7266.7129      2106.1148      32570.907     -3335.0168     -43.56602       1.0437829      52984.962    
     35900   299.29179      30388.911     -1656.2058      7259.6543      2196.7832      32571.46      -3368.4675     -37.138371      1.0419552      53077.899    
     36000   302.59074      30495.714     -1602.5018      7265.5295      2193.0594      32632.293     -3374.363      -40.722262      1.0405608      53149.03     
     36100   301.37841      30561.806     -1606.8267      7256.0433      2269.7477      32626.888     -3364.9728     -43.879163      1.0390048      53228.624    
     36200   300.38709      30491.389     -1672.0814      7270.7305      2299.4624      32592.735     -3390.3207     -33.029727      1.0395         53203.264    
     36300   296.59237      30466.514     -1659.6373      7275.5714      2232.6766      32572.664     -3321.1003     -58.011864      1.0432147      53013.817    
     36400   298.79193      30441.92      -1675.1323      7266.0608      2192.5847      32626.289     -3346.8939     -44.461316      1.0477421      52784.741    
     36500   305.064        30425.014     -1674.5461      7260.7544      2168.8012      32676.255     -3377.8083     -49.767221      1.0529613      52523.103    
     36600   307.07183      30425.552     -1651.3025      7264.6882      2215.0783      32587.314     -3386.3755     -27.355365      1.056492       52347.577    
     36700   296.78979      30491.376     -1643.1797      7265.1928      2260.9024      32596.892     -3356.7893     -55.735065      1.0565501      52344.696    
     36800   296.55417      30414.882     -1635.3602      7248.9649      2267.0377      32516.295     -3356.0839     -49.663006      1.0533785      52502.302    
     36900   299.4221       30362.436     -1688.9626      7258.9661      2255.2215      32572.059     -3397.8004     -61.015952      1.0484623      52748.483    
     37000   301.10306      30425.261     -1648.5565      7268.0995      2169.4343      32543.848     -3293.1165     -37.006858      1.0445763      52944.715    
     37100   303.81382      30483.667     -1677.2263      7274.8554      2208.9203      32634.942     -3329.3993     -51.219264      1.0424341      53053.517    
     37200   303.04097      30473.933     -1633.7401      7262.1164      2310.3586      32524.219     -3360.2444     -51.923759      1.0430793      53020.701    
     37300   298.59405      30473.9       -1641.8109      7259.4434      2244.2358      32561.975     -3330.3337     -42.410555      1.0434948      52999.587    
     37400   297.10881      30416.853     -1653.2221      7260.4563      2256.7318      32558.93      -3375.2104     -52.662018      1.0439753      52975.197    
     37500   297.7939       30358.472     -1677.2321      7270.7854      2169.8759      32566.014     -3350.509      -43.486239      1.0464153      52851.671    
     37600   295.51861      30403.513     -1671.4606      7260.161       2226.6666      32581.564     -3369.1912     -45.099144      1.0499742      52672.528    
     37700   300.93428      30427.149     -1649.3177      7264.4335      2187.2548      32550.592     -3299.3846     -47.095075      1.0528704      52527.636    
     37800   303.3871       30445.033     -1671.7134      7262.4036      2178.8584      32646.556     -3350.0718     -41.97413       1.0547366      52434.7      
     37900   303.28727      30416.691     -1637.9637      7253.7134      2232.4457      32602.412     -3401.9732     -52.513475      1.0547634      52433.365    
     38000   292.22634      30473.735     -1658.8309      7276.057       2212.7041      32703.66      -3436.2309     -46.379508      1.0522527      52558.472    
     38100   296.08982      30405.878     -1669.3776      7266.5496      2240.1688      32546.222     -3351.6708     -48.448005      1.0486309      52740.002    
     38200   293.27655      30506.361     -1644.9585      7260.327       2246.78        32545.148     -3282.5051     -39.033256      1.0462873      52858.134    
     38300   300.747        30439.254     -1666.8569      7255.9002      2246.1518      32613.518     -3379.07       -49.775387      1.044897       52928.467    
     38400   301.57952      30449.529     -1620.2467      7257.7537      2203.579       32685.404     -3432.7991     -64.772209      1.0456853      52888.567    
     38500   295.83423      30523.244     -1645.8912      7264.6839      2272.3808      32612.656     -3362.0851     -36.860448      1.0482027      52761.547    
     38600   300.01588      30379.042     -1660.4884      7260.8257      2131.2018      32543.487     -3268.1793     -45.521096      1.0524503      52548.605    
     38700   298.26292      30312.448     -1684.3275      7251.8353      2180.7737      32584.132     -3388.6415     -51.650609      1.0556589      52388.886    
     38800   301.19846      30282.441     -1705.3979      7260.3289      2135.0255      32555.404     -3336.4438     -46.325851      1.0587409      52236.384    
     38900   302.6432       30410.832     -1704.4555      7252.7064      2266.5364      32621.852     -3390.5813     -54.998861      1.0606798      52140.895    
     39000   301.90342      30468.471     -1653.0768      7253.8834      2219.8981      32612.16      -3339.892      -43.709881      1.0591497      52216.221    
     39100   304.71908      30400.582     -1690.0481      7257.1242      2224.6459      32556.39      -3316.8466     -50.182         1.0530816      52517.105    
     39200   296.21599      30449.923     -1698.9765      7256.397       2248.4124      32627.366     -3367.9223     -38.389502      1.0477901      52782.325    
     39300   294.74019      30429.891     -1680.7868      7254.5696      2250.2404      32618.864     -3391.5655     -45.177362      1.0457957      52882.983    
     39400   296.95552      30436.411     -1685.7078      7266.1541      2228.7047      32647.346     -3404.0194     -39.363568      1.0457304      52886.285    
     39500   299.40127      30537.145     -1630.9741      7270.6717      2282.0392      32608.996     -3375.244      -42.045033      1.0470643      52818.912    
     39600   303.57799      30484.541     -1656.2508      7270.0268      2248.615       32654.21      -3397.4369     -56.594534      1.0476861      52787.563    
     39700   300.59625      30420.861     -1626.2295      7274.5717      2114.6171      32607.395     -3330.6771     -41.90242       1.0485532      52743.912    
     39800   297.56941      30432.269     -1670.9353      7268.0289      2193.6756      32593.064     -3313.4958     -62.94795       1.0489611      52723.4      
     39900   303.05071      30370.628     -1665.6736      7262.9196      2171.7765      32678.439     -3447.9407     -52.761316      1.0502647      52657.959    
     40000   300.61216      30450.709     -1659.7203      7258.7242      2228.131       32672.289     -3404.9577     -66.718162      1.0511207      52615.077    
     40100   305.29373      30526.08      -1633.231       7251.8066      2245.2096      32596.07      -3321.3653     -33.430646      1.0503241      52654.982    
     40200   304.70159      30524.632     -1636.1274      7264.8857      2247.6779      32634.852     -3359.5624     -49.14194       1.0476159      52791.102    
     40300   300.55577      30495.003     -1676.0597      7265.4045      2276.6417      32685.685     -3433.3911     -45.324765      1.0445534      52945.878    
     40400   304.05139      30394.897     -1683.7076      7269.9247      2162.9513      32722.278     -3445.5943     -54.32489       1.0438432      52981.901    
     40500   296.79419      30441.933     -1705.2323      7268.7224      2194.1272      32632.956     -3328.5829     -40.890115      1.0455803      52893.879    
     40600   298.68319      30371.579     -1686.6481      7257.9664      2225.9351      32533.144     -3314.0229     -66.105018      1.0501507      52663.676    
     40700   294.81068      30412.943     -1681.8994      7265.3088      2264.4447      32627.147     -3430.8972     -50.93205       1.0550786      52417.7      
     40800   298.20016      30447.426     -1683.8711      7263.4382      2198.6846      32706.756     -3402.4173     -57.023309      1.0594354      52202.142    
     40900   302.43106      30464.205     -1719.3726      7265.6395      2244.4771      32625.886     -3321.2425     -53.006887      1.0616174      52094.848    
     41000   306.5425       30369.701     -1666.3522      7268.1414      2204.3731      32494.695     -3287.3201     -66.694314      1.0622909      52061.82     
     41100   299.3534       30362.642     -1741.6922      7255.7988      2218.6153      32684.561     -3431.0287     -46.310724      1.0599892      52174.867    
     41200   300.72736      30315.482     -1732.9226      7259.7575      2131.5087      32685.448     -3396.6513     -54.171443      1.0573879      52303.225    
     41300   297.613        30394.483     -1741.2792      7253.2003      2249.3558      32624.351     -3366.1658     -45.931854      1.0568527      52329.71     
     41400   301.74563      30389.905     -1697.9043      7269.6512      2249.8066      32556.247     -3370.3708     -41.33346       1.0577371      52285.955    
     41500   303.88874      30406.357     -1694.1792      7260.7197      2179.6209      32669.849     -3383.3277     -49.458963      1.0580454      52270.719    
     41600   296.96021      30503.319     -1688.8087      7251.0999      2301.4045      32648.465     -3385.6795     -44.081497      1.0585911      52243.775    
     41700   301.59858      30399.868     -1742.457       7258.1668      2227.7375      32555.696     -3281.3523     -41.976114      1.0608725      52131.424    
     41800   297.2099       30394.005     -1719.6645      7253.0776      2230.4047      32633.024     -3380.6517     -47.086682      1.0638555      51985.252    
     41900   291.29918      30441.712     -1705.3318      7248.8736      2263.8219      32615.989     -3354.1412     -49.281782      1.0658382      51888.545    
     42000   302.333        30284.141     -1718.9782      7265.0634      2212.622       32578.863     -3413.1682     -61.119176      1.065152       51921.974    
     42100   301.9096       30399.684     -1748.3723      7271.9873      2252.0935      32601.464     -3352.9705     -44.475149      1.0629351      52030.268    
     42200   304.28207      30413.526     -1670.2         7267.6549      2182.5244      32638.406     -3370.1933     -55.276203      1.0618397      52083.939    
     42300   299.59148      30428.593     -1753.3478      7266.8514      2298.2656      32642.077     -3402.0772     -44.692839      1.0588442      52231.285    
     42400   298.42695      30351.668     -1684.8412      7264.5021      2186.8472      32574.5       -3365.702      -44.049318      1.0579524      52275.315    
     42500   296.48666      30338.154     -1689.9185      7252.9032      2243.0275      32548.641     -3391.6134     -44.356745      1.0572535      52309.874    
     42600   298.80879      30433.311     -1769.9502      7268.8295      2252.4064      32708.811     -3399.7645     -49.537218      1.0581863      52263.76     
     42700   304.08647      30444.393     -1739.7275      7261.8417      2262.8122      32685.716     -3403.2917     -48.541789      1.0616807      52091.742    
     42800   302.41304      30403.406     -1724.359       7260.6145      2233.7783      32593.385     -3340.1856     -42.268115      1.0650889      51925.051    
     42900   303.05977      30290.85      -1722.3208      7253.2556      2196.1542      32487.525     -3300.5837     -45.013664      1.0670731      51828.498    
     43000   298.42476      30339.808     -1747.6604      7253.0823      2308.1101      32613.117     -3464.4363     -44.44604       1.0668161      51840.981    
     43100   297.47278      30376.015     -1749.7321      7264.4691      2184.8         32721.03      -3420.2004     -46.292973      1.0667602      51843.7      
     43200   301.53531      30449.84      -1740.4752      7265.2639      2265.0596      32589.431     -3306.0327     -45.299969      1.0657063      51894.971    
     43300   307.74122      30384.103     -1743.0987      7267.6159      2260.3915      32562.931     -3339.867      -48.266093      1.0629367      52030.188    
     43400   306.05753      30339.534     -1758.9951      7260.1636      2300.5066      32554.751     -3406.9321     -34.813875      1.0598186      52183.264    
     43500   298.34704      30408.935     -1713.4241      7269.3281      2237.5511      32642.833     -3408.7853     -44.594932      1.0576956      52288.008    
     43600   296.47508      30416.761     -1734.0215      7276.1404      2246.0781      32572.71      -3337.3405     -33.93332       1.0561522      52364.417    
     43700   297.07466      30449.184     -1748.9342      7269.2806      2301.4744      32570.961     -3333.1834     -37.325083      1.0558655      52378.637    
     43800   303.93924      30478.031     -1699.4017      7268.7404      2235.1053      32735.861     -3440.5288     -46.975025      1.0568601      52329.344    
     43900   310.1063       30413.717     -1729.6004      7264.5193      2214.1806      32683.131     -3406.0205     -36.529645      1.0586791      52239.432    
     44000   304.51645      30420.231     -1719.5         7256.4384      2267.7876      32573.873     -3340.7992     -41.371683      1.0622871      52062.005    
     44100   301.158        30397.409     -1769.1445      7253.2482      2258.9886      32589.631     -3309.9033     -51.022782      1.0664615      51858.222    
     44200   298.64496      30374.278     -1731.8024      7259.3571      2255.374       32611.395     -3403.0096     -43.421341      1.0716934      51605.055    
     44300   295.85032      30370.165     -1768.4528      7253.9068      2271.6607      32650.853     -3417.821      -44.688598      1.0742247      51483.453    
     44400   297.34283      30389.35      -1775.0957      7250.8998      2221.4458      32636.767     -3337.8374     -33.457101      1.0742224      51483.562    
     44500   304.71939      30395.879     -1761.7011      7250.5652      2257.6513      32591.774     -3321.5247     -45.861733      1.074286       51480.514    
     44600   306.34608      30344.95      -1764.0557      7256.3922      2190.8274      32583.148     -3301.9891     -43.891017      1.0737567      51505.891    
     44700   298.72931      30329.439     -1767.3718      7262.0754      2226.2815      32653.767     -3420.0347     -47.175257      1.0712171      51627.998    
     44800   294.98049      30373.84      -1752.582       7266.7775      2307.8934      32509.565     -3331.7649     -48.58294       1.0685946      51754.704    
     44900   296.25691      30411.879     -1733.4555      7249.6948      2251.6762      32557.9       -3308.482      -27.083389      1.0669341      51835.251    
     45000   300.2551       30426.392     -1720.1049      7256.2362      2222.0196      32657.576     -3360.6926     -51.561287      1.0658912      51885.965    
     45100   298.42727      30450.647     -1745.3722      7261.5484      2272.0709      32656.065     -3356.4025     -60.37444       1.0672377      51820.503    
     45200   297.27669      30345.112     -1727.8278      7250.8893      2213.9651      32578.605     -3343.6824     -49.493301      1.0695011      51710.836    
     45300   299.33613      30253.956     -1785.8468      7239.5072      2194.9843      32583.532     -3353.6502     -46.117425      1.0707088      51652.508    
     45400   295.41629      30358.457     -1722.7746      7249.4658      2206.2883      32645.918     -3398.5084     -45.953374      1.0709478      51640.983    
     45500   298.43405      30377.581     -1762.8618      7249.492       2226.7367      32709.237     -3416.3504     -51.909677      1.068812       51744.176    
     45600   299.32349      30392.786     -1763.3983      7246.468       2261.2446      32608.417     -3351.8622     -30.711707      1.0671663      51823.971    
     45700   297.64142      30395.222     -1768.9673      7248.5735      2209.0229      32620.793     -3300.9572     -34.746966      1.0667126      51846.014    
     45800   297.38792      30359.179     -1732.0635      7252.1143      2216.8626      32664.178     -3415.9781     -48.802601      1.0681422      51776.62     
     45900   301.00382      30308.583     -1764.0863      7254.8266      2214.6933      32608.846     -3384.5483     -44.397903      1.068632       51752.89     
     46000   297.14706      30398.662     -1736.7984      7254.3331      2292.6809      32569.513     -3355.7953     -49.487913      1.067759       51795.206    
     46100   300.76199      30402.688     -1773.8757      7259.6168      2295.2181      32666.531     -3436.0054     -34.170761      1.0651993      51919.671    
     46200   304.19071      30408.413     -1733.8349      7265.3339      2231.8045      32639.583     -3380.5178     -39.590732      1.0618488      52083.492    
     46300   302.91368      30436.858     -1773.2096      7248.6162      2313.1895      32719.488     -3444.5216     -52.058139      1.0579731      52274.295    
     46400   298.19915      30375.11      -1718.1842      7268.938       2245.6206      32524.406     -3327.9064     -43.280604      1.0579105      52277.384    
     46500   299.15188      30300.209     -1723.5661      7264.4505      2265.679       32516.377     -3395.7809     -53.293394      1.0600683      52170.975    
     46600   298.05395      30366.924     -1702.6868      7268.3947      2228.2147      32592.507     -3410.4838     -35.582621      1.0621317      52069.619    
     46700   303.25378      30396.655     -1720.464       7252.1121      2236.2214      32603.468     -3357.8228     -42.418465      1.0620981      52071.267    
     46800   298.9666       30476.866     -1748.7731      7265.7339      2301.1319      32572.911     -3310.1926     -30.400967      1.0601831      52165.325    
     46900   298.31582      30448.382     -1702.4047      7268.1581      2221.7766      32663.969     -3384.3689     -48.493396      1.0584488      52250.799    
     47000   299.6883       30398.4       -1700.7416      7262.4212      2243.6277      32620.302     -3404.795      -51.204215      1.0587388      52236.487    
     47100   301.49123      30360.577     -1775.2349      7254.0019      2228.4783      32632.643     -3365.6865     -38.558217      1.0605234      52148.586    
     47200   300.00516      30337.485     -1744.5214      7252.9027      2258.8041      32534.273     -3332.9287     -54.805177      1.0636175      51996.886    
     47300   299.00983      30296.996     -1753.5857      7249.4917      2266.861       32549.572     -3395.1582     -43.976776      1.0663109      51865.543    
     47400   295.9667       30316.525     -1752.2789      7250.1112      2197.4565      32662.801     -3417.4316     -47.651995      1.0684445      51761.973    
     47500   301.51742      30302.386     -1752.1148      7254.1206      2178.6451      32611.558     -3372.3801     -42.002454      1.0693014      51720.494    
     47600   298.39971      30443.131     -1716.2037      7246.1108      2256.5233      32634.785     -3361.0531     -42.227558      1.0687445      51747.441    
     47700   301.02571      30413.59      -1733.3715      7244.285       2228.7453      32613.69      -3331.6325     -33.957458      1.0662672      51867.668    
     47800   301.04721      30365.323     -1771.0972      7249.2555      2343.1905      32562.368     -3401.1552     -42.504081      1.0611189      52119.32     
     47900   294.80863      30306.039     -1740.474       7259.808       2175.7289      32622.519     -3393.9289     -40.435466      1.0574056      52302.35     
     48000   293.12083      30322.293     -1749.9297      7265.8635      2249.4135      32579.169     -3399.0858     -48.659036      1.0566947      52337.537    
     48100   295.12711      30388.458     -1759.5037      7278.0356      2224.287       32612.749     -3368.1419     -23.994645      1.0580701      52269.502    
     48200   301.4437       30384.547     -1765.4787      7268.6178      2267.5362      32546.526     -3320.935      -36.493495      1.0619398      52079.029    
     48300   300.00367      30439.919     -1717.0953      7253.2343      2311.8509      32613.834     -3410.4671     -34.622171      1.0674766      51808.908    
     48400   303.88155      30349.154     -1726.8999      7245.6413      2165.9155      32667.989     -3383.3227     -42.667188      1.0711178      51632.787    
     48500   295.14461      30351.466     -1762.0724      7260.2695      2235.5261      32613.988     -3379.1193     -40.309782      1.0722813      51576.761    
     48600   296.38456      30328.001     -1771.9184      7268.3408      2233.0709      32626.663     -3405.8498     -46.774273      1.0720047      51590.069    
     48700   298.22825      30350.082     -1742.2201      7261.6701      2218.7571      32665.911     -3440.6361     -39.463492      1.0702669      51673.836    
     48800   299.36561      30388.827     -1769.1289      7256.2359      2259.2912      32634.586     -3374.6208     -43.952343      1.068234       51772.175    
     48900   298.1221       30418.346     -1738.6911      7248.6768      2233.4224      32672.209     -3394.7538     -27.561307      1.0670566      51829.3      
     49000   302.69567      30338.554     -1746.6027      7253.1028      2213.7184      32577.971     -3344.032      -38.052242      1.0655522      51902.473    
     49100   301.58755      30352.985     -1761.1012      7260.14        2243.363       32665.792     -3444.7186     -33.162055      1.0633224      52011.314    
     49200   301.60827      30352.749     -1784.5444      7250.4604      2313.037       32610.333     -3419.8083     -39.725576      1.060815       52134.251    
     49300   292.44139      30412.379     -1752.942       7242.4749      2292.564       32591.757     -3346.0925     -39.573036      1.0616635      52092.584    
     49400   299.48417      30280.83      -1740.1889      7252.8276      2180.2738      32601.86      -3404.0792     -34.603914      1.0643976      51958.774    
     49500   303.05817      30331.345     -1750.3358      7262.6127      2251.1865      32585.977     -3403.5677     -37.207435      1.0664029      51861.069    
     49600   301.1881       30422.976     -1745.2406      7262.2085      2280.6481      32664.091     -3425.6228     -35.939804      1.0680827      51779.504    
     49700   297.86558      30446.117     -1743.638       7255.6262      2277.4758      32644.614     -3377.4487     -33.156592      1.06886        51741.853    
     49800   297.29356      30389.184     -1772.6521      7264.5383      2256.7365      32592.574     -3336.026      -38.143175      1.0691332      51728.63     
     49900   298.10526      30242.701     -1774.9234      7252.0234      2186.3752      32644.28      -3438.0913     -50.451262      1.0683157      51768.213    
     50000   293.40166      30267.147     -1732.9053      7258.7608      2174.3392      32590.523     -3398.8777     -49.181276      1.0688646      51741.631    
     50100   296.24684      30295.013     -1737.4908      7245.8597      2195.5578      32591.092     -3371.8518     -52.836059      1.0694369      51713.941    
     50200   299.85915      30336.275     -1760.6966      7245.9635      2286.3115      32543.416     -3361.5353     -43.577088      1.0704225      51666.325    
     50300   305.04061      30316.66      -1784.0073      7255.7289      2197.9044      32648.307     -3380.2922     -47.98614       1.0711384      51631.79     
     50400   301.66294      30405.38      -1741.2063      7260.6697      2241.998       32667.008     -3417.1077     -32.36154       1.0712697      51625.463    
     50500   301.85329      30441.82      -1730.4279      7254.2027      2288.6781      32633.173     -3376.7325     -51.842914      1.069191       51725.831    
     50600   306.10318      30377.089     -1722.0579      7255.1383      2253.4759      32633.641     -3433.7623     -33.288985      1.0656324      51898.569    
     50700   301.25235      30368.141     -1776.203       7263.3809      2247.0541      32629.143     -3390.1112     -30.7876        1.0610915      52120.666    
     50800   298.73905      30319.253     -1736.4626      7264.6924      2211.8806      32515.43      -3317.1889     -44.31993       1.0588782      52229.609    
     50900   298.56634      30355.289     -1740.4093      7258.4279      2245.7334      32594.205     -3387.9577     -39.358238      1.0585183      52247.366    
     51000   301.86541      30405.628     -1777.8861      7260.1169      2287.294       32658.006     -3394.9533     -53.186112      1.0600034      52174.17     
     51100   303.6816       30386.117     -1730.7426      7254.6684      2219.0085      32655.298     -3396.3151     -41.420031      1.0640452      51975.986    
     51200   302.14565      30361.798     -1765.8868      7254.4175      2182.6713      32649.478     -3347.9703     -34.97172       1.0680349      51781.826    
     51300   300.22631      30343.451     -1737.1697      7261.8868      2203.031       32578.616     -3353.7946     -35.11972       1.0710293      51637.052    
     51400   295.14402      30326.616     -1764.7852      7260.3735      2243.9818      32674.208     -3460.2854     -51.531066      1.0721813      51581.571    
     51500   292.95036      30242.796     -1801.1264      7263.1632      2207.7409      32588.229     -3403.3997     -36.982946      1.0730736      51538.677    
     51600   292.14752      30307.068     -1740.6646      7245.7551      2174.4161      32570.143     -3326.7774     -40.480667      1.0735071      51517.867    
     51700   298.96336      30287.787     -1744.1829      7254.7533      2230.9878      32536.962     -3382.8062     -32.217427      1.0719694      51591.769    
     51800   297.81459      30375.714     -1740.0323      7250.4711      2229.5013      32621.359     -3373.5112     -35.24111       1.0698321      51694.839    
     51900   300.30762      30386.033     -1737.2271      7240.2105      2262.6892      32677.71      -3437.7934     -43.924557      1.0676365      51801.147    
     52000   303.09068      30358.33      -1732.0784      7241.0968      2282.4719      32513.16      -3325.9384     -44.624015      1.0655541      51902.384    
     52100   306.12816      30254.554     -1761.5969      7243.5782      2158.2042      32608.777     -3364.5984     -53.427708      1.063788       51988.551    
     52200   294.24959      30340.988     -1744.9981      7261.4297      2210.5263      32649.105     -3417.2897     -41.586324      1.0648379      51937.292    
     52300   296.39027      30331.482     -1772.075       7257.648       2276.739       32573.759     -3384.3693     -43.101383      1.0683565      51766.235    
     52400   299.00246      30413.957     -1730.4892      7246.8654      2254.4715      32621.547     -3357.8416     -42.35586       1.0734873      51518.817    
     52500   301.41762      30410.391     -1712.0867      7242.2649      2316.0727      32570.99      -3364.7513     -63.021824      1.0770884      51346.573    
     52600   303.86907      30317.369     -1799.2528      7250.303       2185.6517      32676.658     -3378.8877     -38.989569      1.0773977      51331.829    
     52700   299.70841      30330.2       -1726.6627      7243.719       2167.9355      32674.989     -3394.6725     -57.755676      1.0759115      51402.736    
     52800   299.3938       30323.163     -1781.6443      7255.9314      2278.1689      32625.077     -3430.9847     -44.974564      1.0713015      51623.931    
     52900   302.10535      30293.892     -1761.91        7257.9543      2233.6172      32535.606     -3351.2208     -42.473087      1.0664533      51858.617    
     53000   301.24282      30402.608     -1725.97        7247.5103      2259.1311      32640.897     -3386.1473     -54.563151      1.0642019      51968.328    
     53100   303.71882      30436.683     -1705.068       7241.339       2234.2609      32649.222     -3358.4276     -45.567794      1.0642436      51966.293    
     53200   299.64607      30453.392     -1711.2278      7239.2971      2251.8037      32648.518     -3348.2307     -47.974193      1.0648605      51936.19     
     53300   300.50283      30325.1       -1716.7506      7244.6142      2161.8697      32680.274     -3416.6892     -48.956387      1.065022       51928.313    
     53400   294.53299      30384.317     -1751.2045      7246.5442      2208.7357      32651.159     -3356.5689     -35.898998      1.0664096      51860.744    
     53500   300.27157      30322.372     -1794.2511      7251.8541      2245.7828      32551.687     -3315.2714     -39.0238        1.0679948      51783.77     
     53600   304.0351       30337.929     -1763.4907      7248.9753      2273.1104      32660.343     -3455.2753     -45.620195      1.0703344      51670.576    
     53700   306.69859      30427.869     -1733.2491      7245.691       2293.5871      32567.015     -3324.7403     -40.6816        1.0720183      51589.414    
     53800   306.44212      30441.468     -1716.0351      7246.1077      2286.6234      32674.91      -3413.1203     -57.385887      1.072271       51577.257    
     53900   300.71119      30344.176     -1783.5285      7246.6734      2263.7245      32570.655     -3320.9073     -54.732512      1.0725294      51564.829    
     54000   303.6831       30266.851     -1778.2379      7261.9902      2237.0844      32606.813     -3431.2099     -50.280493      1.0733446      51525.666    
     54100   301.67226      30288.196     -1785.9703      7249.0482      2284.3988      32541.332     -3373.1636     -49.040879      1.0727876      51552.417    
     54200   295.24935      30356.739     -1775.3512      7255.8458      2263.731       32579.177     -3330.8512     -58.086155      1.0725117      51565.68     
     54300   297.97405      30297.77      -1799.9574      7256.045       2200.9816      32656.526     -3400.0873     -37.646722      1.0734526      51520.484    
     54400   305.91996      30206.474     -1783.6976      7241.2906      2269.1096      32511.463     -3403.2062     -50.384994      1.0754288      51425.81     
     54500   299.60376      30368.172     -1758.4874      7246.2132      2211.7976      32612.914     -3324.9808     -43.453371      1.0764665      51376.234    
     54600   306.43878      30355.724     -1775.4675      7255.4469      2285.5364      32598.515     -3376.8057     -55.961308      1.0763391      51382.316    
     54700   301.76394      30380.65      -1782.2904      7261.4937      2244.4777      32621.982     -3352.1272     -35.966668      1.0764884      51375.189    
     54800   296.4884       30354.659     -1769.2417      7252.3106      2272.5399      32594.185     -3364.6498     -53.897226      1.0755253      51421.194    
     54900   297.9398       30329.938     -1785.6907      7256.8585      2215.9284      32609.186     -3355.9985     -33.556058      1.0731744      51533.839    
     55000   297.53624      30368.683     -1770.1279      7256.4667      2267.7269      32620.315     -3385.6742     -41.890091      1.0705465      51660.34     
     55100   298.15885      30414.782     -1788.2626      7260.1812      2207.7974      32767.015     -3414.1346     -39.189448      1.0678272      51791.895    
     55200   306.11386      30371.344     -1750.5251      7266.3267      2213.697       32581.806     -3328.3121     -33.349234      1.0685981      51754.532    
     55300   302.2812       30436.059     -1777.3047      7261.9991      2330.9165      32626.405     -3373.626      -54.225144      1.0709063      51642.984    
     55400   303.92672      30280.301     -1787.6077      7255.0966      2240.1959      32576.861     -3388.7928     -37.432113      1.0731986      51532.678    
     55500   299.94639      30266.737     -1765.8756      7250.301       2215.3635      32586.001     -3390.4213     -50.637858      1.0749363      51449.371    
     55600   305.85058      30188.96      -1789.9254      7249.6328      2180.2708      32570.037     -3386.2023     -56.179529      1.0763005      51384.159    
     55700   299.15462      30359.645     -1774.5378      7234.5246      2303.9369      32589.402     -3364.4675     -48.200102      1.0780716      51299.742    
     55800   303.2655       30377.504     -1786.4701      7253.5303      2256.7969      32683.271     -3405.1473     -44.165277      1.0785707      51276.002    
     55900   306.29381      30361.998     -1781.1639      7241.6241      2336.4903      32607.722     -3404.8178     -59.687007      1.0773739      51332.962    
     56000   301.40061      30321.821     -1782.6775      7254.9688      2245.9912      32602.074     -3378.7185     -43.395673      1.0746945      51460.944    
     56100   298.74771      30285.45      -1759.0598      7246.9023      2209.1636      32588.654     -3379.4139     -44.576486      1.0710796      51634.628    
     56200   301.55106      30263.005     -1804.5465      7248.2915      2205.5246      32611.19      -3392.254      -29.273808      1.0674293      51811.204    
     56300   298.77598      30397.38      -1771.4202      7245.8983      2278.4913      32639.484     -3367.3324     -49.454153      1.0665395      51854.427    
     56400   305.90128      30357.654     -1817.815       7254.1387      2268.6639      32586.457     -3306.4514     -50.507457      1.0680133      51782.872    
     56500   301.28293      30370.259     -1767.4961      7254.8873      2204.3005      32750.647     -3438.7326     -56.904611      1.0741868      51485.27     
     56600   293.96402      30312.959     -1778.8134      7247.6458      2262.8733      32550.309     -3349.1318     -42.45159       1.0812407      51149.382    
     56700   293.43576      30342.82      -1773.9435      7239.0211      2260.9212      32557.401     -3304.2702     -58.214227      1.0859714      50926.566    
     56800   298.89044      30337.609     -1783.3099      7238.9893      2251.8748      32702.482     -3443.1734     -50.45088       1.086542       50899.823    
     56900   302.35922      30319.582     -1823.4462      7254.2732      2231.5678      32637.391     -3349.4999     -52.948354      1.0837925      51028.952    
     57000   298.08979      30365.081     -1830.529       7254.3024      2323.1717      32619.959     -3378.5816     -46.264329      1.0788971      51260.49     
     57100   300.37736      30232.801     -1786.1587      7255.4094      2241.2463      32509.856     -3365.6372     -45.078486      1.0740896      51489.929    
     57200   294.45238      30270.498     -1798.7329      7248.3766      2239.7802      32587.468     -3385.1211     -44.242685      1.0692997      51720.574    
     57300   295.44356      30358.897     -1782.8089      7254.34        2285.9686      32656.409     -3424.1073     -53.107833      1.0660555      51877.968    
     57400   298.56609      30396.96      -1746.0915      7259.2489      2269.9039      32578.437     -3343.1617     -44.006791      1.0649369      51932.461    
     57500   300.9487       30399.045     -1765.8655      7265.8875      2218.6489      32632.411     -3338.8435     -37.890156      1.0654761      51906.182    
     57600   295.80356      30484.511     -1722.9425      7268.571       2280.1396      32679.931     -3395.15       -48.265018      1.0693938      51716.022    
     57700   300.51128      30354.408     -1802.5128      7267.0567      2269.4454      32636.579     -3391.2404     -46.35576       1.0749413      51449.13     
     57800   291.96569      30361.456     -1754.4886      7247.7965      2152.2307      32604.353     -3249.4634     -59.238495      1.0807554      51172.354    
     57900   298.6962       30257.659     -1811.8024      7241.8468      2254.2529      32624.917     -3419.1718     -54.695216      1.0826271      51083.88     
     58000   297.7798       30305.962     -1789.3846      7232.1922      2233.8372      32625.456     -3368.2595     -49.139462      1.0816553      51129.776    
     58100   300.44258      30368.712     -1770.777       7239.8633      2257.512       32650.667     -3372.3939     -58.510795      1.079334       51239.744    
     58200   309.54339      30295.416     -1786.0327      7245.4438      2217.0287      32645.655     -3409.8189     -39.477661      1.0753749      51428.387    
     58300   298.86725      30421.777     -1793.7547      7256.7484      2243.3864      32687.551     -3348.4954     -46.533676      1.0706955      51653.152    
     58400   300.4788       30353.865     -1783.9593      7252.1443      2277.5611      32580.596     -3364.5573     -32.969691      1.0667285      51845.24     
     58500   298.62024      30359.15      -1708.0643      7249.3965      2218.1957      32549.566     -3326.0315     -50.323809      1.0641191      51972.375    
     58600   299.78903      30369.315     -1765.3018      7261.4114      2199.7601      32690.98      -3395.3185     -47.586641      1.0635377      52000.784    
     58700   302.49416      30406.613     -1760.1545      7250.238       2247.4663      32696.426     -3390.1857     -60.590135      1.0664666      51857.973    
     58800   301.87649      30419.768     -1789.1978      7248.7635      2295.3974      32616.375     -3327.5392     -48.177507      1.0713087      51623.587    
     58900   298.67406      30326.261     -1788.3096      7249.1509      2270.7458      32597.35      -3369.0755     -57.906448      1.0765069      51374.307    
     59000   298.38147      30285.886     -1757.1018      7244.2312      2211.5124      32616.205     -3398.5189     -53.244128      1.0805196      51183.517    
     59100   297.49079      30322.208     -1792.7302      7267.0101      2214.1593      32652.816     -3396.3238     -45.933266      1.0820868      51109.391    
     59200   301.73728      30324.151     -1802.4275      7253.3199      2239.1061      32629.826     -3375.5395     -42.85939       1.0822493      51101.715    
     59300   303.73368      30393.012     -1787.8798      7254.9283      2313.6686      32660.087     -3427.5056     -43.915762      1.081029       51159.402    
     59400   303.6394       30398.065     -1794.7541      7257.0503      2288.1848      32674.664     -3408.1814     -41.912759      1.0776197      51321.257    
     59500   298.49826      30313.627     -1790.5305      7258.9968      2224.9425      32584.906     -3346.7332     -41.052468      1.0744346      51473.396    
     59600   300.47828      30256.22      -1794.0944      7253.0208      2279.7765      32552.216     -3422.8254     -34.971285      1.0718999      51595.111    
     59700   299.96366      30287.693     -1789.686       7236.0438      2260.087       32625.922     -3418.179      -48.91344       1.0702107      51676.547    
     59800   302.35285      30301.049     -1778.8902      7251.2812      2221.3608      32576.179     -3354.65       -36.615983      1.070237       51675.277    
     59900   304.43809      30355.184     -1758.0215      7249.4854      2268.0501      32620.984     -3400.5749     -46.795186      1.0725998      51561.443    
     60000   305.69         30369.091     -1747.6902      7248.2612      2225.211       32677.264     -3404.4872     -50.919784      1.0754697      51423.852    
     60100   302.99342      30257.043     -1778.6291      7248.7841      2242.1162      32637.788     -3453.6416     -60.515168      1.0773539      51333.918    
     60200   296.87243      30290.381     -1802.6062      7249.2274      2177.0995      32645.568     -3356.5498     -44.292676      1.079094       51251.138    
     60300   299.69594      30253.12      -1788.8528      7254.965       2256.754       32501.4       -3347.5962     -48.529612      1.0801618      51200.474    
     60400   298.16562      30352.94      -1810.6257      7246.3338      2276.8953      32707.074     -3437.4724     -52.291198      1.0805664      51181.301    
     60500   301.72189      30394.161     -1817.1321      7255.2776      2317.7693      32609.951     -3350.9043     -43.648636      1.0811128      51155.433    
     60600   303.02112      30348.414     -1793.7083      7254.387       2269.4572      32593.051     -3345.2287     -51.977488      1.0821118      51108.209    
     60700   300.60983      30326.663     -1833.0013      7251.9481      2270.8471      32573.902     -3335.4846     -23.716958      1.0826615      51082.257    
     60800   297.94225      30316.24      -1820.7979      7258.4869      2274.6329      32641.53      -3403.5141     -57.701707      1.0820964      51108.935    
     60900   295.40638      30342.598     -1781.6053      7257.046       2205.4701      32697.404     -3447.1409     -11.55415       1.0815637      51134.106    
     61000   301.58986      30293.791     -1798.3417      7262.6332      2219.6298      32578.45      -3343.1588     -49.541829      1.0791878      51246.683    
     61100   300.77607      30413.105     -1797.7241      7262.8715      2278.2175      32681.037     -3386.629      -49.045217      1.0760275      51397.194    
     61200   307.27868      30381.545     -1803.3093      7260.3748      2351.5497      32615.01      -3422.9243     -43.643016      1.0733419      51525.794    
     61300   298.16968      30351.092     -1839.2863      7265.149       2301.1942      32629.164     -3389.6236     -41.136856      1.071133       51632.053    
     61400   292.91503      30360.234     -1792.7817      7261.0168      2292.0128      32639.089     -3424.5185     -37.56453       1.0710584      51635.649    
     61500   300.62332      30286.133     -1798.3911      7238.7766      2322.6264      32522.529     -3378.5485     -44.940099      1.0728751      51548.212    
     61600   301.25742      30365.86      -1794.7737      7261.2707      2265.9121      32717.567     -3461.1174     -47.98122       1.0743904      51475.51     
     61700   308.15376      30278.609     -1821.6272      7255.5627      2284.905       32584.46      -3392.6037     -56.752983      1.0763037      51384.007    
     61800   300.25161      30282.63      -1799.838       7260.4869      2228.6842      32610.429     -3397.4034     -44.27408       1.0787524      51267.368    
     61900   302.47997      30206.109     -1806.8693      7251.3439      2213.1494      32554.996     -3381.9848     -46.619714      1.0791927      51246.449    
     62000   295.75006      30322.515     -1834.9761      7249.0374      2307.9974      32646.492     -3420.4816     -48.380146      1.0780368      51301.401    
     62100   300.80811      30293.184     -1813.7553      7252.3295      2232.7566      32639.722     -3386.8326     -53.00823       1.0777511      51314.996    
     62200   306.46396      30324.335     -1807.4968      7251.1919      2303.2691      32670.346     -3452.4986     -62.575838      1.0770233      51349.676    
     62300   305.30151      30420.331     -1775.8912      7246.3143      2279.6352      32618.295     -3323.8637     -47.116029      1.0749557      51448.441    
     62400   302.42082      30390.19      -1791.7108      7253.4192      2289.0394      32602.942     -3344.633      -41.251425      1.071487       51614.992    
     62500   299.13971      30384.305     -1789.0963      7257.3484      2258.6201      32643.504     -3370.8541     -40.328196      1.0696686      51702.737    
     62600   304.37725      30281.011     -1814.4582      7257.8993      2237.7996      32610.405     -3382.6534     -53.08738       1.0715983      51609.634    
     62700   295.51256      30374.573     -1794.3937      7261.2434      2344.197       32546.821     -3352.3136     -55.389978      1.0761103      51393.239    
     62800   299.93358      30261.281     -1781.8424      7251.1227      2240.7581      32487.636     -3316.9095     -43.852812      1.0808999      51165.512    
     62900   296.95346      30256.183     -1790.0294      7234.2865      2247.9505      32582.404     -3386.9695     -54.974514      1.0846085      50990.562    
     63000   296.77228      30242.453     -1774.3972      7241.3853      2142.9901      32649.146     -3377.8622     -60.765068      1.086556       50899.166    
     63100   299.88849      30318.024     -1804.247       7236.451       2352.4211      32568.989     -3399.9282     -56.794818      1.0843777      51001.415    
     63200   302.59973      30333.715     -1792.5705      7249.5738      2222.0748      32605.675     -3323.6392     -50.278817      1.078236       51291.923    
     63300   298.03621      30395.404     -1779.5683      7262.1742      2268.3383      32611.328     -3343.3216     -46.785625      1.0723441      51573.741    
     63400   298.39262      30350.702     -1810.3996      7264.1185      2265.7147      32675.495     -3423.7074     -46.047655      1.0684702      51760.726    
     63500   294.98805      30296.166     -1776.4773      7246.0749      2247.1293      32586.078     -3387.2231     -45.108952      1.0692909      51721.003    
     63600   296.48375      30262.644     -1801.8335      7250.8011      2217.3113      32605.207     -3391.4545     -43.359622      1.072708       51556.242    
     63700   304.1647       30265.037     -1817.2314      7247.8399      2216.2945      32576.354     -3340.1899     -42.809684      1.0754873      51423.009    
     63800   303.79201      30304.605     -1813.4974      7250.3303      2224.5788      32633.522     -3379.8761     -34.247376      1.0784977      51279.474    
     63900   303.02495      30277.562     -1749.2068      7252.8099      2259.2199      32623.192     -3490.3493     -44.28759       1.0803013      51193.864    
     64000   297.3689       30333.767     -1808.9984      7267.4578      2260.5477      32644.732     -3406.7494     -50.022542      1.0790284      51254.255    
     64100   294.97362      30292.616     -1770.4495      7258.3443      2271.7044      32519.606     -3357.2071     -54.564515      1.0772126      51340.652    
     64200   290.62067      30273.742     -1805.5385      7251.9114      2236.6129      32611.647     -3411.0047     -35.294828      1.0743877      51475.643    
     64300   300.04797      30244.647     -1769.7228      7252.591       2177.6378      32600.214     -3385.338      -55.148309      1.0726374      51559.636    
     64400   297.52645      30364.213     -1807.1204      7257.4601      2326.478       32631.701     -3416.6967     -49.706142      1.0723529      51573.316    
     64500   302.9336       30324.619     -1776.6165      7264.5254      2261.5342      32593.123     -3401.2141     -39.341166      1.0742005      51484.609    
     64600   302.38634      30339.679     -1801.9839      7263.553       2251.5612      32640.108     -3396.5637     -39.47446       1.0763282      51382.838    
     64700   300.1849       30287.082     -1773.4276      7253.8984      2197.5467      32628.081     -3385.924      -58.322718      1.0775         51326.958    
     64800   293.84028      30292.964     -1815.0338      7261.5515      2243.6074      32573.694     -3353.9908     -43.902438      1.0766867      51365.728    
     64900   294.63036      30294.65      -1760.1519      7274.409       2195.5149      32645.218     -3435.4246     -49.725475      1.0771288      51344.646    
     65000   298.88242      30328.984     -1770.2542      7240.6612      2227.3041      32592.014     -3338.2019     -46.305593      1.0764947      51374.891    
     65100   302.6578       30296.516     -1765.5673      7245.3544      2253.6488      32594.041     -3402.0242     -51.653286      1.075653       51415.09     
     65200   301.9816       30291.423     -1808.0281      7246.8776      2216.3574      32645.768     -3389.9844     -42.981748      1.0752877      51432.556    
     65300   298.79621      30314.968     -1807.1021      7255.8506      2250.2531      32611.467     -3369.1509     -49.58248       1.0765003      51374.619    
     65400   304.35312      30196.453     -1840.9323      7248.313       2183.1998      32640.529     -3410.0057     -48.610417      1.0771834      51342.042    
     65500   296.70047      30261.094     -1821.4511      7251.6159      2256.2048      32558.086     -3358.347      -48.46497       1.0786587      51271.821    
     65600   293.32658      30334.726     -1817.3227      7262.1483      2294.123       32563.417     -3334.8859     -56.371346      1.0808228      51169.16     
     65700   305.62696      30266.936     -1818.4949      7249.3009      2272.1356      32587.627     -3409.179      -39.243828      1.0821552      51106.161    
     65800   304.28362      30314.982     -1813.6851      7258.4432      2211.1525      32744.113     -3447.3642     -60.931062      1.0819825      51114.314    
     65900   301.95579      30299.063     -1824.7577      7262.6047      2272.7681      32552.628     -3357.5294     -30.907464      1.0800294      51206.749    
     66000   294.16585      30342.987     -1821.8585      7258.5784      2248.5455      32625.307     -3348.726      -43.166532      1.0765791      51370.861    
     66100   296.61427      30181.776     -1785.5415      7255.7743      2208.594       32496.462     -3372.4029     -44.141112      1.0734762      51519.35     
     66200   294.63748      30235.985     -1842.3394      7252.7308      2173.418       32657.212     -3375.8191     -53.483205      1.0711483      51631.314    
     66300   294.88563      30370.245     -1786.1407      7253.5878      2225.1436      32695.012     -3388.2089     -53.75171       1.0718774      51596.196    
     66400   296.33018      30402.123     -1827.2753      7247.3573      2277.8064      32653.085     -3323.8142     -50.743026      1.0718591      51597.078    
     66500   303.43157      30327.029     -1799.8092      7254.4321      2192.488       32677.437     -3371.4123     -50.282776      1.0723982      51571.139    
     66600   297.84989      30418.085     -1786.9337      7261.127       2288.9495      32746.917     -3462.1656     -54.354132      1.071661       51606.613    
     66700   297.90708      30366.076     -1812.3855      7261.1216      2210.0831      32636.864     -3319.1353     -35.379607      1.0709584      51640.469    
     66800   298.40732      30262.672     -1801.8729      7265.5004      2229.5712      32565.238     -3383.069      -38.335964      1.0721435      51583.391    
     66900   293.83111      30308.006     -1780.0004      7259.8395      2168.1187      32675.982     -3393.2065     -46.604826      1.0744155      51474.31     
     67000   301.0423       30310.303     -1780.4539      7242.4687      2266.3526      32602.721     -3394.7925     -47.186273      1.0768815      51356.435    
     67100   307.49885      30301.73      -1761.6697      7238.1789      2249.1235      32627.88      -3414.4426     -60.245126      1.0778492      51310.329    
     67200   303.74996      30300.175     -1806.4987      7240.2841      2241.4572      32617.435     -3367.0056     -49.242932      1.0771256      51344.795    
     67300   301.45492      30259.856     -1780.3877      7249.4585      2187.5595      32552.336     -3330.1966     -40.790197      1.0770658      51347.646    
     67400   297.57514      30302.597     -1817.8125      7250.3046      2211.0107      32712.711     -3423.5535     -51.526615      1.0771119      51345.45     
     67500   297.93464      30355.551     -1818.2502      7255.2223      2270.1063      32638.929     -3374.3218     -38.373448      1.079102       51250.76     
     67600   308.18416      30348.252     -1770.3388      7244.5475      2301.2162      32559.21      -3371.9607     -37.303445      1.0800903      51203.864    
     67700   308.0661       30316.044     -1807.3275      7255.5735      2250.9179      32649.81      -3425.4165     -30.099042      1.0787408      51267.92     
     67800   301.89743      30320.01      -1801.7992      7248.5468      2205.8855      32666.821     -3374.2546     -47.50719       1.0756844      51413.589    
     67900   295.90039      30368.389     -1829.6369      7247.4208      2256.8179      32662.042     -3362.8358     -28.194567      1.0716519      51607.052    
     68000   297.18136      30319.865     -1809.3767      7252.7002      2231.1221      32653.83      -3386.5254     -46.406474      1.0691648      51727.099    
     68100   297.52851      30286.722     -1801.0744      7260.2645      2222.4591      32621.715     -3400.8518     -39.271813      1.0689781      51736.133    
     68200   298.0873       30271.953     -1804.1611      7246.6481      2226.5764      32643.533     -3409.1135     -55.407123      1.0722592      51577.821    
     68300   301.71512      30283.453     -1792.0254      7240.8239      2223.8058      32607.062     -3389.4262     -29.128217      1.0787602      51266.996    
     68400   302.91054      30336.096     -1821.348       7255.5114      2289.387       32573.28      -3327.567      -55.443218      1.0843906      51000.805    
     68500   301.71264      30342.075     -1759.6147      7254.7809      2262.7163      32627.363     -3412.6525     -53.128147      1.0886146      50802.917    
     68600   296.70766      30282.175     -1813.9806      7253.8401      2202.7695      32653.565     -3396.1831     -40.10849       1.0878663      50837.859    
     68700   293.97908      30284.289     -1808.7345      7259.6071      2246.6148      32582.229     -3374.1311     -41.903388      1.0845238      50994.543    
     68800   294.90565      30305.635     -1809.9703      7240.9634      2261.5572      32627.417     -3391.8605     -42.886486      1.07941        51236.136    
     68900   300.56645      30299.268     -1794.7147      7242.1178      2287.1807      32577.535     -3390.1773     -43.42335       1.0740825      51490.267    
     69000   303.19848      30304.888     -1799.5625      7241.0259      2231.9174      32726.473     -3452.8836     -61.822193      1.0692554      51722.716    
     69100   298.08862      30375.38      -1807.4229      7251.5732      2316.0804      32566.589     -3325.449      -48.046615      1.0686194      51753.503    
     69200   296.68158      30387.973     -1790.2128      7252.6798      2271.0661      32698.379     -3411.0601     -55.80536       1.0724497      51568.662    
     69300   298.49026      30345.468     -1803.7505      7251.3428      2243.6015      32648.52      -3368.3593     -47.565715      1.0783625      51285.904    
     69400   301.00975      30230.43      -1820.2957      7244.9054      2190.2968      32590.333     -3353.7684     -42.687724      1.0833311      51050.683    
     69500   297.01782      30201.423     -1798.0093      7234.2056      2228.826       32584.794     -3418.1765     -52.258619      1.0854008      50953.337    
     69600   297.48309      30228.852     -1838.7617      7238.9869      2218.2234      32634.539     -3395.7817     -50.592456      1.0826738      51081.681    
     69700   297.17435      30401.364     -1787.0257      7234.9809      2178.4375      32766.274     -3374.3384     -40.271883      1.0789611      51257.449    
     69800   305.75078      30269.968     -1793.976       7249.0621      2205.5471      32631.386     -3381.7177     -64.067542      1.0760423      51396.488    
     69900   300.85925      30276.308     -1809.6598      7235.3967      2300.4135      32538         -3356.9442     -52.045662      1.0743871      51475.671    
     70000   297.52844      30277.804     -1764.7294      7249.2641      2238.7682      32559.701     -3388.382      -39.045065      1.0750471      51444.066    
     70100   297.43713      30288.427     -1811.1961      7238.9973      2185.6645      32672.733     -3370.6791     -47.762794      1.0767883      51360.882    
     70200   303.9956       30320.604     -1791.7895      7242.8793      2304.3974      32607.399     -3403.0503     -61.059395      1.0782509      51291.213    
     70300   303.52453      30350.696     -1839.0474      7251.375       2285.2982      32660.947     -3388.6735     -41.843584      1.078114       51297.725    
     70400   301.76045      30301.928     -1803.9502      7247.9083      2255.3003      32619.509     -3397.1519     -42.558739      1.0789941      51255.883    
     70500   298.11645      30306.585     -1801.4806      7245.9793      2224.1817      32619.87      -3360.8508     -42.193458      1.0799878      51208.724    
     70600   297.51453      30298.855     -1777.7146      7227.6399      2168.7467      32740.3       -3428.0268     -53.895042      1.0804552      51186.572    
     70700   301.33875      30238.805     -1795.0044      7248.5005      2185.6743      32640.793     -3424.5671     -39.039085      1.0814609      51138.968    
     70800   298.1957       30354.442     -1816.9124      7242.7109      2204.4798      32655.817     -3307.4932     -47.271871      1.0812334      51149.73     
     70900   306.50693      30342.483     -1786.0115      7248.1617      2269.5788      32637.112     -3397.8766     -49.376375      1.0807136      51174.332    
     71000   302.92772      30360.175     -1808.2552      7246.5977      2284.0481      32676.183     -3407.4972     -51.928781      1.078829       51263.729    
     71100   299.90235      30313.533     -1824.5715      7236.025       2193.5979      32713.612     -3387.2501     -38.134828      1.0767468      51362.862    
     71200   299.14113      30291.946     -1801.0266      7246.7833      2247.0065      32583.196     -3367.8748     -37.386294      1.0753953      51427.409    
     71300   298.90583      30303.107     -1822.9463      7231.7131      2287.3945      32569.043     -3343.9821     -41.414904      1.0751251      51440.333    
     71400   297.56824      30331.909     -1828.8164      7244.2801      2293.5207      32716.199     -3459.8808     -55.500693      1.0763389      51382.324    
     71500   297.11046      30278.872     -1811.8687      7233.2309      2193.9018      32640.608     -3337.6482     -59.910218      1.0808763      51166.63     
     71600   298.29144      30192.909     -1802.3592      7218.8834      2225.2153      32529.158     -3365.181      -34.738967      1.0844875      50996.25     
     71700   300.4892       30205.568     -1809.5399      7230.2274      2273.5185      32473.887     -3330.4084     -54.834112      1.0855002      50948.675    
     71800   298.51256      30355.913     -1782.7097      7229.2144      2321.7377      32593.747     -3393.1311     -35.929283      1.0834303      51046.011    
     71900   303.01915      30312.71      -1840.3779      7242.4296      2271.3794      32756.847     -3481.3418     -58.367635      1.0792639      51243.068    
     72000   298.71493      30319.048     -1801.9048      7234.1875      2236.951       32573.929     -3312.5332     -32.58658       1.0756479      51415.333    
     72100   296.96273      30317.163     -1800.8305      7246.8532      2212.702       32612.565     -3333.1719     -43.048603      1.0731053      51537.154    
     72200   301.18577      30294.063     -1790.1168      7254.0007      2224.9563      32582.444     -3352.5758     -47.675138      1.072902       51546.923    
     72300   301.81924      30429.908     -1783.6595      7244.0785      2335.0348      32683.85      -3429.0204     -44.218372      1.0743219      51478.795    
     72400   302.43068      30403.719     -1770.12        7247.8247      2254.656       32728.826     -3443.0091     -37.766458      1.0760699      51395.172    
     72500   303.93734      30261.941     -1799.8173      7239.5445      2180.3456      32557.271     -3299.7695     -40.151468      1.0781759      51294.781    
     72600   296.70288      30312.274     -1806.8571      7249.6001      2271.1596      32641.436     -3420.5195     -46.317807      1.0797896      51218.122    
     72700   296.68866      30283.175     -1845.6418      7251.9553      2256.2877      32681.234     -3439.931      -43.359812      1.0810835      51156.819    
     72800   300.63351      30246.38      -1785.627       7251.37        2232.9481      32558.786     -3398.7154     -35.490966      1.0824024      51094.487    
     72900   306.64702      30299.172     -1824.0973      7253.8553      2272.445       32559.406     -3347.1533     -38.453969      1.0808643      51167.195    
     73000   302.75695      30368.106     -1796.8172      7249.5209      2329.7413      32647.332     -3433.3677     -51.129541      1.0791671      51247.667    
     73100   296.51892      30378.941     -1809.7012      7258.3913      2245.2367      32743.121     -3431.8729     -48.736049      1.0775974      51322.317    
     73200   300.22422      30304.819     -1776.8389      7255.4208      2257.576       32477.405     -3301.8885     -29.184669      1.074295       51480.085    
     73300   301.84165      30282         -1791.2112      7253.95        2218.5449      32574.206     -3355.5893     -39.635503      1.0683502      51766.54     
     73400   298.75242      30325.831     -1763           7263.3378      2233.17        32632.605     -3424.5454     -36.449521      1.0636518      51995.208    
     73500   297.62797      30310.874     -1791.7858      7261.1184      2283.3364      32635.747     -3446.8087     -52.079168      1.0620738      52072.462    
     73600   298.7513       30282.452     -1770.0559      7264           2167.012       32612.684     -3371.1799     -41.285744      1.065239       51917.733    
     73700   297.70408      30369.88      -1747.0334      7245.4275      2258.9963      32620.626     -3381.7824     -47.689489      1.0706398      51655.836    
     73800   302.82622      30364.639     -1770.4683      7241.2112      2246.8219      32660.113     -3395.0418     -37.707516      1.0755348      51420.738    
     73900   298.4569       30390.988     -1782.6878      7244.3488      2304.3413      32708.246     -3447.9803     -55.217887      1.0788284      51263.755    
     74000   302.06163      30194.282     -1801.3722      7245.646       2155.1265      32626.652     -3419.5021     -33.242631      1.0786692      51271.323    
     74100   294.10908      30303.657     -1794.0304      7255.4278      2206.6225      32564.181     -3309.6025     -41.039931      1.0764352      51377.728    
     74200   299.64077      30281.815     -1799.5419      7253.307       2282.0111      32537.086     -3375.5961     -37.384628      1.074347       51477.591    
     74300   302.52891      30271.628     -1789.7709      7237.1011      2245.1519      32642.813     -3432.3844     -50.202275      1.0731552      51534.762    
     74400   302.86893      30261.869     -1839.2973      7236.5133      2215.9425      32631.203     -3363.5586     -38.106996      1.0729844      51542.961    
     74500   300.18755      30186.569     -1827.8563      7230.2834      2239.3674      32546.687     -3380.4994     -42.384739      1.0752006      51436.724    
     74600   292.5384       30246.015     -1768.2838      7238.099       2209.4354      32549.69      -3364.4003     -38.660621      1.0794798      51232.823    
     74700   293.49821      30328.199     -1795.2803      7234.0107      2294.5979      32586.774     -3362.1118     -51.045543      1.0824887      51090.413    
     74800   303.23223      30262.913     -1812.2813      7244.5778      2252.633       32655.731     -3457.136      -40.774819      1.0826232      51084.066    
     74900   294.5303       30398.653     -1818.9295      7248.619       2282.9532      32620.599     -3317.6762     -37.442837      1.080558       51181.698    
     75000   301.25738      30299.51      -1790.1235      7247.9963      2267.1887      32510.174     -3314.3122     -42.009663      1.0789676      51257.14     
     75100   299.68358      30298.727     -1792.728       7232.2321      2226.8188      32625.366     -3374.3524     -38.91227       1.0761138      51393.072    
     75200   299.13971      30238.196     -1793.3185      7256.2306      2214.6583      32698.753     -3512.8789     -46.963586      1.0734789      51519.218    
     75300   292.52196      30336.786     -1763.978       7262.6649      2228.4935      32647.136     -3418.1646     -40.45956       1.0725333      51564.643    
     75400   300.43253      30327.527     -1799.9118      7243.3854      2231.0437      32593.227     -3319.6841     -44.323217      1.0726991      51556.674    
     75500   300.62371      30377.085     -1802.9255      7259.5087      2291.4781      32656.699     -3415.3167     -35.532808      1.0753975      51427.305    
     75600   298.47355      30377.526     -1769.0142      7247.6108      2230.1167      32680.111     -3373.1009     -59.710188      1.0795354      51230.181    
     75700   301.61675      30267.636     -1814.9156      7245.5182      2300.3969      32560.425     -3398.391      -46.320949      1.0836952      51033.532    
     75800   294.4313       30285.352     -1799.7709      7247.7392      2232.0357      32635.535     -3405.9117     -44.429031      1.0863522      50908.716    
     75900   290.17673      30208.656     -1787.4968      7249.4756      2106.7885      32592.961     -3320.3101     -53.518916      1.0865635      50898.815    
     76000   294.8045       30203.707     -1814.032       7255.4314      2223.1058      32554.741     -3397.5389     -39.601286      1.0826794      51081.413    
     76100   296.30434      30274.597     -1814.0496      7247.9597      2237.4272      32651.199     -3427.6337     -41.653672      1.078902       51260.257    
     76200   300.91354      30274.951     -1800.7156      7244.7939      2220.6356      32589.254     -3367.8785     -31.103736      1.0767992      51360.359    
     76300   299.17982      30354.496     -1790.4359      7254.8841      2293.819       32630.594     -3400.4344     -55.841891      1.077012       51350.214    
     76400   299.43789      30367.202     -1855.2697      7258.0118      2256.4023      32719.262     -3390.8158     -40.899676      1.0778811      51308.809    
     76500   301.08584      30221.642     -1840.9663      7245.5415      2234.207       32684.279     -3472.4323     -49.423575      1.0811796      51152.273    
     76600   293.6543       30255.182     -1841.0206      7234.8957      2199.9152      32564.641     -3294.1634     -30.837816      1.0847089      50985.839    
     76700   295.31721      30276.472     -1813.914       7244.6709      2242.959       32555.915     -3323.4733     -49.873156      1.0876961      50845.817    
     76800   299.74204      30291.476     -1801.7719      7253.472       2193.0827      32659.41      -3390.2594     -41.37986       1.0890056      50784.673    
     76900   299.9694       30333.826     -1841.5344      7262.8581      2240.9649      32716.639     -3415.391      -50.401656      1.0873926      50860.008    
     77000   296.17653      30353.521     -1826.8436      7260.7467      2262.5077      32644.847     -3371.0595     -38.108777      1.0850362      50970.461    
     77100   297.28941      30227.215     -1848.3425      7240.3029      2218.5862      32619.95      -3380.9811     -43.143872      1.082336       51097.622    
     77200   291.53397      30284.204     -1823.8266      7237.9748      2234.4354      32671.494     -3419.0654     -41.421312      1.0814895      51137.617    
     77300   296.1425       30317.388     -1805.8359      7236.6526      2273.9205      32609.728     -3374.7257     -43.815388      1.0819554      51115.598    
     77400   301.9025       30294.98      -1785.96        7243.1725      2225.4768      32624.913     -3383.9647     -51.156137      1.0830478      51064.04     
     77500   300.28885      30294.163     -1830.2712      7233.066       2291.7827      32583.122     -3359.4831     -47.985437      1.0817352      51125.999    
     77600   298.75015      30256.785     -1757.2882      7240.6307      2215.4263      32646.331     -3454.935      -56.333301      1.0810149      51160.067    
     77700   299.41356      30200.741     -1857.984       7232.5916      2267.9177      32572.279     -3394.0648     -42.999202      1.0795192      51230.951    
     77800   290.58345      30205.955     -1789.3523      7246.3634      2176.8607      32624.87      -3421.898      -52.095834      1.0811472      51153.805    
     77900   296.25544      30114.492     -1836.7656      7255.7792      2189.7907      32546.394     -3413.6707     -48.577417      1.0833495      51049.817    
     78000   299.33529      30205.544     -1832.0987      7252.8379      2211.3433      32511.33      -3310.2956     -46.817284      1.0852769      50959.157    
     78100   302.4042       30229.311     -1807.3874      7238.8728      2264.0526      32597.291     -3435.9906     -46.926723      1.0866285      50895.771    
     78200   302.81347      30272.195     -1822.5363      7238.9053      2261.4819      32597.964     -3386.8834     -38.020207      1.0851291      50966.096    
     78300   301.53964      30285.984     -1814.2408      7253.1806      2243.9849      32574.179     -3361.056      -32.830884      1.0804548      51186.586    
     78400   300.69569      30211.164     -1800.893       7261.5004      2132.9993      32653.974     -3410.8668     -48.637117      1.0755357      51420.697    
     78500   294.66025      30231.454     -1797.6962      7249.9863      2219.0853      32582.927     -3390.3584     -54.094503      1.0728207      51550.828    
     78600   296.7357       30272.068     -1812.9369      7250.5553      2191.0408      32602.083     -3332.6064     -45.887356      1.0726026      51561.309    
     78700   300.23801      30327.743     -1783.1561      7247.8281      2225.237       32632.204     -3376.5866     -39.076064      1.0739172      51498.193    
     78800   304.99584      30245.219     -1800.884       7244.8041      2296.5441      32549.041     -3413.7888     -51.052878      1.0760172      51397.687    
     78900   300.56285      30263.411     -1854.6844      7251.1153      2217.0975      32608.997     -3353.7296     -26.81254       1.0783786      51285.137    
     79000   301.34229      30186.893     -1889.2114      7237.638       2273.8706      32518.926     -3334.4342     -41.943137      1.082458       51091.864    
     79100   296.74633      30208.359     -1840.8905      7245.1499      2248.13        32551.422     -3383.4444     -35.60494       1.0869045      50882.847    
     79200   298.69544      30194.236     -1812.0962      7243.9394      2209.1984      32607.187     -3414.5531     -60.395908      1.0911605      50684.382    
     79300   300.85799      30273.693     -1818.362       7239.4001      2250.6455      32604.805     -3379.1103     -44.836954      1.0920354      50643.773    
     79400   301.87211      30316.532     -1836.8459      7247.306       2293.9994      32602.358     -3359.8762     -50.077849      1.0883694      50814.361    
     79500   295.58586      30383.178     -1810.2107      7247.7178      2279.9047      32682.604     -3377.0298     -59.361605      1.0831407      51059.658    
     79600   300.36296      30204.503     -1817.7823      7252.7747      2231.2821      32547.954     -3378.6635     -51.520695      1.0784941      51279.647    
     79700   293.73652      30225.636     -1799.0302      7245.803       2224.5813      32558.677     -3369.9125     -55.775961      1.0772322      51339.716    
     79800   297.69261      30225.028     -1826.9225      7254.3805      2228.2173      32547.844     -3355.5474     -44.470581      1.0782378      51291.836    
     79900   300.94708      30235.294     -1859.8797      7246.9037      2231.8807      32631.31      -3392.1561     -44.78025       1.0815598      51134.293    
     80000   298.31596      30334.601     -1810.6574      7236.2814      2293.723       32588.065     -3353.5376     -42.306058      1.0859494      50927.599    
     80100   301.56282      30322.539     -1792.5735      7228.9865      2258.168       32640.257     -3381.4963     -52.753603      1.0863369      50909.431    
     80200   303.76557      30217.466     -1832.6175      7235.0489      2284.5787      32543.094     -3384.2268     -49.687983      1.0847168      50985.468    
     80300   294.47267      30247.634     -1821.4552      7251.3378      2287.8244      32556.881     -3392.5098     -57.053208      1.0828767      51072.107    
     80400   295.8648       30265.852     -1819.7158      7244.2556      2279.8216      32565.318     -3373.9283     -51.796209      1.0812813      51147.461    
     80500   299.09835      30293.433     -1787.9086      7255.6308      2228.8715      32536.814     -3319.7363     -42.551912      1.0802319      51197.151    
     80600   297.82075      30350.128     -1812.6926      7251.8429      2335.5964      32666.809     -3454.9353     -58.145613      1.0780539      51300.586    
     80700   298.06566      30361.657     -1770.1939      7242.2325      2317.0099      32627.914     -3421.4522     -56.594508      1.0766606      51366.97     
     80800   300.2965       30319.697     -1862.5146      7248.0192      2291.2098      32555.461     -3300.7718     -33.539797      1.0755912      51418.044    
     80900   301.47746      30289.187     -1805.1471      7241.8134      2238.0095      32598.13      -3366.3712     -39.695367      1.0782499      51291.258    
     81000   297.85898      30297.788     -1847.6442      7246.0181      2302.6531      32627.997     -3395.6383     -58.539989      1.0830815      51062.452    
     81100   295.6962       30303.617     -1838.921       7251.2551      2264.1681      32585.528     -3337.4461     -43.803569      1.0890598      50782.149    
     81200   297.94589      30270.314     -1821.6022      7257.0759      2203.3485      32609.009     -3341.4769     -60.286558      1.0920129      50644.818    
     81300   298.907        30303.119     -1857.9334      7251.1766      2260.9127      32646.669     -3375.4849     -44.518788      1.0920184      50644.562    
     81400   302.67318      30288.339     -1854.9645      7255.8147      2314.2228      32642.359     -3429.6608     -59.957757      1.0888695      50791.024    
     81500   303.14549      30250.098     -1862.2074      7263.2943      2233.0208      32569.924     -3324.0716     -52.537866      1.0850419      50970.193    
     81600   299.55406      30228.289     -1833.348       7248.039       2218.39        32551.978     -3338.2119     -42.224258      1.0824979      51089.981    
     81700   294.13179      30269.588     -1809.2845      7261.5004      2258.0389      32578.216     -3388.3894     -53.970576      1.0812495      51148.968    
     81800   300.07739      30232.82      -1837.5932      7264.4087      2207.0021      32682.543     -3443.969      -62.103581      1.0809803      51161.706    
     81900   300.64689      30345.464     -1803.9859      7260.3393      2295.9168      32552.192     -3322.242      -59.656863      1.0832271      51055.589    
     82000   304.45476      30315.168     -1831.8481      7259.6875      2300.7306      32502.693     -3291.3548     -46.057437      1.0845719      50992.283    
     82100   292.32522      30426.841     -1813.7345      7242.2841      2292.0505      32743.758     -3408.3223     -49.636174      1.0846427      50988.952    
     82200   301.01741      30202.223     -1841.1724      7236.5556      2210.0506      32583.329     -3349.8339     -58.208892      1.0836363      51036.31     
     82300   294.51801      30298.476     -1845.5097      7262.6994      2233.2803      32605.752     -3341.3769     -39.808341      1.0826929      51080.78     
     82400   300.51926      30247.244     -1847.4826      7262.2693      2272.3513      32563.619     -3386.399      -40.274467      1.082694       51080.728    
     82500   301.0541       30296.902     -1805.9145      7266.9035      2272.259       32565.526     -3361.1134     -62.997133      1.082752       51077.988    
     82600   302.11637      30294.224     -1842.9748      7255.3236      2260.4512      32629.358     -3384.2628     -46.648608      1.0817594      51124.856    
     82700   296.58616      30292.301     -1807.2114      7262.294       2240.7569      32561.344     -3347.7383     -41.021442      1.0818283      51121.599    
     82800   290.6508       30295.69      -1840.0638      7254.4856      2233.3527      32567.427     -3295.5758     -46.699326      1.0803729      51190.468    
     82900   295.29936      30286.708     -1836.2362      7255.2129      2295.6573      32533.472     -3341.5622     -42.267281      1.0792782      51242.392    
     83000   302.56421      30262.632     -1857.3041      7256.6083      2258.5613      32644.377     -3413.7376     -46.727373      1.0787357      51268.159    
     83100   298.49076      30326.417     -1818.5104      7250.2536      2273.8552      32580.313     -3339.7669     -41.248738      1.0806254      51178.509    
     83200   294.81586      30370.108     -1825.9678      7252.3135      2338.8539      32564.426     -3336.7223     -44.301804      1.0831103      51061.091    
     83300   301.86919      30220.648     -1857.5794      7256.5858      2229.8403      32571.084     -3368.1952     -32.772644      1.0839189      51023.002    
     83400   293.62402      30234.112     -1775.0279      7266.2156      2254.2906      32534.263     -3422.3162     -44.127562      1.0836861      51033.963    
     83500   292.37644      30245.957     -1860.0919      7262.8515      2242.1922      32584.553     -3374.7242     -29.512524      1.0809607      51162.633    
     83600   298.01239      30272.014     -1814.6093      7256.1869      2241.8368      32583.447     -3374.3793     -41.868275      1.0795631      51228.867    
     83700   301.3766       30291.354     -1812.848       7247.3775      2216.978       32602.527     -3337.2851     -45.237276      1.078727       51268.576    
     83800   302.73517      30266.068     -1809.0323      7244.9417      2217.3943      32593.685     -3349.8226     -51.706089      1.0781287      51297.027    
     83900   298.92975      30306.207     -1780.5596      7253.8099      2206.7311      32692.635     -3438.2713     -47.58187       1.0765977      51369.976    
     84000   300.90285      30234.366     -1773.6778      7254.7904      2190.849       32576.478     -3390.2808     -45.211687      1.0759633      51400.26     
     84100   296.81221      30211.377     -1801.2172      7262.3552      2220.2762      32499.435     -3346.7673     -43.439133      1.0759869      51399.134    
     84200   292.88587      30277.064     -1841.2446      7250.874       2289.1314      32599.936     -3391.0312     -52.074387      1.0781242      51297.238    
     84300   298.57794      30328.16      -1763.2078      7254.8628      2213.2587      32610.109     -3377.2713     -31.955432      1.0815206      51136.148    
     84400   305.0073       30260.135     -1821.2555      7249.0804      2226.0421      32599.835     -3378.7111     -35.199969      1.0831531      51059.076    
     84500   303.33386      30236.29      -1788.2119      7242.5979      2206.5795      32564.804     -3375.2705     -33.32745       1.0843953      51000.585    
     84600   297.65946      30231.094     -1799.6345      7237.7982      2268.8739      32506.268     -3363.0526     -38.127111      1.0849972      50972.294    
     84700   298.04886      30187.447     -1853.6327      7241.4041      2181.8135      32613.237     -3366.9131     -47.26937       1.0850436      50970.114    
     84800   301.57798      30159.194     -1800.372       7244.7844      2201.8941      32545.239     -3408.7285     -42.633033      1.0855122      50948.113    
     84900   298.22212      30251.953     -1836.4723      7256.3785      2279.0632      32584.386     -3400.0302     -49.588189      1.0816927      51128.012    
     85000   302.99688      30236.379     -1834.5631      7255.0885      2223.4079      32596.133     -3391.4407     -31.773603      1.0750864      51442.187    
     85100   300.63289      30320.469     -1750.7539      7255.9239      2179.2957      32610.196     -3354.427      -38.259033      1.0686839      51750.376    
     85200   304.57712      30295.723     -1815.2802      7257.9014      2289.1254      32624.424     -3438.4875     -43.267052      1.0642052      51968.167    
     85300   299.74047      30385.252     -1819.1135      7254.9724      2265.1157      32724.996     -3417.5705     -43.615137      1.0640979      51973.409    
     85400   301.32481      30307.024     -1762.2811      7245.4853      2232.2679      32586.801     -3382.239      -34.292861      1.07033        51670.789    
     85500   297.54685      30264.512     -1792.0638      7250.7029      2203.4122      32651.647     -3420.4941     -46.684538      1.0789175      51259.522    
     85600   296.18442      30253.207     -1765.5177      7247.6936      2186.6269      32583.286     -3373.36       -45.327069      1.0860297      50923.833    
     85700   306.18347      30168.744     -1814.033       7248.3855      2228.2828      32518.575     -3392.9085     -39.084488      1.0881534      50824.446    
     85800   305.83124      30281.26      -1811.7862      7262.5287      2190.4895      32642.538     -3377.6971     -42.451766      1.0867649      50889.384    
     85900   303.61667      30359.242     -1818.6354      7256.4351      2290.3924      32609.134     -3358.5817     -40.485046      1.0835498      51040.382    
     86000   299.52494      30262.98      -1799.0185      7241.7475      2236.1991      32671.23      -3459.9222     -48.732389      1.0798069      51217.304    
     86100   296.19029      30233.038     -1815.9793      7249.5194      2232.1976      32573.423     -3380.6073     -48.669713      1.0766326      51368.31     
     86200   296.84652      30250.425     -1785.1561      7247.3526      2180.9366      32569.992     -3353.702      -32.67393       1.0752881      51432.536    
     86300   303.04951      30250.622     -1809.3612      7246.6042      2253.4784      32626.449     -3427.1581     -60.357721      1.0757907      51408.509    
     86400   300.49145      30332.543     -1810.4793      7240.6032      2235.2204      32641.466     -3356.1216     -38.741711      1.0773403      51334.565    
     86500   303.73342      30303.674     -1792.6402      7238.9926      2282.8404      32601.413     -3392.5346     -52.746874      1.0785711      51275.986    
     86600   301.63776      30215.144     -1782.6106      7243.656       2212.663       32518.442     -3361.3807     -35.79742       1.0777021      51317.331    
     86700   293.17391      30260.671     -1809.5359      7252.7302      2231.0146      32564.704     -3346.5526     -53.161861      1.075631       51416.14     
     86800   302.35257      30178.207     -1797.8863      7254.7882      2201.9186      32540.769     -3385.5091     -56.302566      1.075254       51434.167    
     86900   303.86501      30247.462     -1777.5133      7243.5915      2261.1702      32562.265     -3405.7265     -54.860408      1.0761785      51389.982    
     87000   301.00923      30301.346     -1814.3655      7250.0985      2282.3377      32565.389     -3356.5926     -45.68763       1.077875       51309.098    
     87100   298.56373      30315.074     -1776.4845      7238.4793      2316.6656      32549.219     -3378.7964     -56.510702      1.0793722      51237.929    
     87200   297.84176      30286.787     -1750.466       7243.4827      2280.376       32532.721     -3397.7353     -43.154161      1.0801264      51202.151    
     87300   297.33233      30286.612     -1806.7118      7248.4681      2258.9772      32565.97      -3358.3503     -42.085928      1.0782156      51292.893    
     87400   296.97991      30304.353     -1792.014       7245.0962      2271.0623      32639.844     -3446.2888     -36.287744      1.0755046      51422.184    
     87500   302.6779       30261.2       -1778.094       7244.5061      2188.9119      32636.598     -3397.1192     -56.924914      1.0744417      51473.055    
     87600   302.74184      30321.092     -1811.4512      7242.0349      2260.9876      32606.991     -3355.5745     -44.948378      1.0728998      51547.029    
     87700   304.65321      30339.544     -1775.6085      7240.973       2298.4416      32626.904     -3431.4252     -41.775644      1.0724101      51570.568    
     87800   303.99395      30353.496     -1775.9568      7236.8865      2279.485       32579.605     -3348.6405     -39.889807      1.0728337      51550.202    
     87900   298.19759      30316.203     -1808.7696      7258.2456      2251.9564      32648.098     -3410.4253     -43.867156      1.0751152      51440.808    
     88000   300.4175       30224.028     -1795.4005      7252.0424      2153.7548      32595.333     -3361.9676     -41.245357      1.0779098      51307.444    
     88100   300.62178      30227.102     -1764.6991      7243.071       2207.946       32582.851     -3415.351      -46.509459      1.0798367      51215.886    
     88200   301.84399      30218.044     -1831.9499      7245.7864      2181.393       32670.179     -3428.792      -38.896016      1.0804376      51187.405    
     88300   302.92859      30283.082     -1752.0734      7247.7117      2197.0088      32600.393     -3379.6123     -51.670403      1.0808996      51165.527    
     88400   301.43832      30362.475     -1796.3294      7246.3539      2312.9684      32562.247     -3363.267      -19.944306      1.0778937      51308.21     
     88500   301.98043      30309.901     -1759.597       7247.5537      2161.5615      32710.283     -3415.8049     -53.222801      1.0750618      51443.364    
     88600   298.79981      30230.699     -1831.2675      7262.9143      2243.1626      32606.112     -3423.2196     -45.505761      1.0728852      51547.73     
     88700   296.56042      30241.827     -1806.7279      7258.8512      2229.1891      32620.404     -3435.4502     -44.22802       1.0721151      51584.757    
     88800   303.75581      30184.422     -1800.8096      7248.4062      2198.9316      32536.636     -3375.4897     -42.237539      1.0709362      51641.539    
     88900   301.20577      30301.441     -1749.9575      7241.2659      2188.984       32637.025     -3382.8957     -53.274066      1.0691912      51725.825    
     89000   303.75695      30327.271     -1778.6622      7238.9207      2294.1655      32547.251     -3373.3836     -22.808854      1.0676718      51799.436    
     89100   300.95322      30360.139     -1783.2902      7243.9007      2257.5873      32629.236     -3354.7253     -53.162555      1.0670937      51827.497    
     89200   307.94785      30224.009     -1747.5302      7246.1101      2154.3838      32563.752     -3382.2659     -29.477961      1.0692653      51722.239    
     89300   298.19619      30321.406     -1776.8276      7232.9868      2240.5318      32690.293     -3428.1203     -55.006691      1.0709302      51641.832    
     89400   302.80945      30197.475     -1815.0346      7244.6812      2175.976       32558.574     -3345.3731     -40.571099      1.0754183      51426.309    
     89500   292.66733      30291.79      -1801.1848      7240.6284      2215.5766      32722.93      -3458.689      -50.722777      1.0819691      51114.951    
     89600   295.35063      30179.768     -1817.3099      7252.8619      2231.6131      32465.936     -3344.7502     -32.107048      1.0870644      50875.364    
     89700   297.1657       30221.941     -1802.5334      7246.5763      2224.5451      32562.282     -3389.6646     -41.119577      1.0874241      50858.533    
     89800   298.37375      30324.684     -1814.6938      7257.48        2270.1879      32585.002     -3350.8469     -44.860558      1.083428       51046.119    
     89900   302.43273      30297.055     -1791.633       7254.584       2241.4205      32628.92      -3395.8284     -62.273725      1.0778253      51311.466    
     90000   305.90225      30250.758     -1817.578       7254.4859      2255.0038      32557.739     -3369.996      -49.393137      1.0725266      51564.962    
     90100   296.46499      30300.157     -1786.5334      7256.4459      2218.8548      32632.858     -3380.0702     -62.882858      1.0692944      51720.832    
     90200   296.27232      30225.417     -1777.0013      7242.7981      2170.4496      32597.602     -3379.0269     -52.540929      1.0700427      51684.663    
     90300   300.7301       30198.394     -1800.2977      7242.4522      2231.8967      32525.497     -3361.6225     -62.321784      1.0746431      51463.405    
     90400   301.57535      30248.202     -1789.2766      7248.4495      2174.8009      32638.101     -3405.8738     -40.514708      1.0805954      51179.929    
     90500   298.48589      30310.48      -1783.178       7242.397       2247.4837      32602.157     -3362.4203     -56.993319      1.0830374      51064.529    
     90600   301.83825      30235.793     -1761.6309      7241.7452      2120.5787      32590.218     -3325.4915     -50.571311      1.0818781      51119.249    
     90700   299.32922      30230.416     -1813.1137      7251.4311      2270.3043      32608.689     -3444.8459     -62.872267      1.0770997      51346.031    
     90800   299.57157      30235.34      -1787.237       7248.7422      2211.2877      32535.044     -3358.212      -35.363253      1.0742299      51483.204    
     90900   300.03006      30359.729     -1783.0106      7244.0284      2266.5195      32670.213     -3412.1877     -48.037879      1.0719017      51595.027    
     91000   302.80731      30369.148     -1737.0649      7248.3724      2287.7566      32589.711     -3387.1077     -55.169804      1.0710981      51633.736    
     91100   297.59612      30403.277     -1798.0802      7242.8237      2313.1926      32605.41      -3340.9455     -41.126722      1.0717631      51601.696    
     91200   301.93403      30239.97      -1819.4898      7252.9751      2276.9184      32551.282     -3382.4573     -60.627197      1.0737435      51506.525    
     91300   298.87846      30263.296     -1779.9234      7254.8195      2199.4753      32622.316     -3406.9876     -47.851991      1.0765914      51370.273    
     91400   298.93544      30276.196     -1777.6994      7254.7083      2228.0984      32641.892     -3467.1492     -26.064342      1.0783218      51287.838    
     91500   303.92566      30222.16      -1773.1155      7246.297       2217.0759      32534.846     -3386.8312     -37.87323       1.0777015      51317.36     
     91600   302.1563       30269.438     -1795.9579      7247.1933      2258.6594      32518.543     -3354.03       -26.443691      1.0757085      51412.436    
     91700   304.9303       30316.609     -1805.1201      7248.6742      2290.5691      32553.301     -3352.6127     -40.525645      1.0731885      51533.159    
     91800   304.78248      30368.754     -1781.1895      7258.5639      2324.1291      32633.412     -3448.9748     -39.619133      1.0717078      51604.361    
     91900   300.43746      30341.74      -1770.6103      7249.7282      2279.4975      32602.743     -3390.4912     -52.899336      1.0709936      51638.772    
     92000   297.22558      30297.706     -1788.7725      7253.6225      2217.5338      32564.929     -3337.5115     -36.77936       1.0703993      51667.442    
     92100   304.44401      30183.442     -1757.5689      7236.1045      2174.2778      32557.339     -3399.0419     -52.624889      1.0719262      51593.846    
     92200   298.40725      30323.25      -1786.8083      7246.8805      2249.8771      32613.185     -3383.7792     -40.111071      1.0741124      51488.835    
     92300   306.66626      30274.017     -1822.185       7247.0133      2295.8992      32518.633     -3345.7718     -44.325894      1.0769695      51352.24     
     92400   303.02312      30321.834     -1826.2268      7240.1168      2293.8828      32593.786     -3368.4124     -34.111724      1.0788651      51262.01     
     92500   298.0478       30210.982     -1826.322       7245.189       2216.2759      32560.268     -3367.2969     -39.272423      1.0792926      51241.708    
     92600   295.38913      30220.173     -1795.6585      7249.9995      2204.0387      32548.05      -3363.1719     -44.85277       1.0791801      51247.05     
     92700   296.76484      30291.459     -1768.6432      7241.2621      2278.5304      32525.961     -3348.0198     -58.805837      1.0794223      51235.551    
     92800   299.35994      30330.508     -1810.6024      7232.4591      2273.8605      32595.275     -3340.8775     -42.930444      1.0775131      51326.334    
     92900   300.38194      30328.301     -1835.6729      7249.169       2288.594       32692.019     -3450.2146     -40.435895      1.0752637      51433.704    
     93000   298.38053      30314.525     -1823.3153      7251.7277      2241.6143      32687.428     -3405.0601     -60.23237       1.0762922      51384.554    
     93100   297.80642      30205.104     -1797.4577      7253.5384      2231.9494      32537.169     -3399.3575     -42.425492      1.0799185      51212.01     
     93200   295.54631      30237.314     -1818.3128      7252.7513      2194.8586      32564.536     -3325.8829     -52.096551      1.0831115      51061.035    
     93300   301.51473      30255.711     -1798.4145      7265.5873      2216.5873      32575.064     -3388.5691     -39.260299      1.0847832      50982.348    
     93400   301.42236      30302.948     -1810.4278      7266.9289      2281.2442      32679.808     -3477.9648     -60.31282       1.0830742      51062.795    
     93500   302.75537      30282.43      -1829.2979      7252.7785      2197.8943      32587.81      -3312.7818     -35.768121      1.0771916      51341.653    
     93600   298.6835       30321.41      -1814.6784      7253.7991      2318.0979      32512.667     -3323.2695     -48.145981      1.0718665      51596.721    
     93700   298.47443      30316.056     -1811.7701      7255.103       2254.2974      32604.38      -3363.3387     -44.198456      1.066897       51837.051    
     93800   297.77454      30344.298     -1778.5117      7249.9452      2236.9805      32690.674     -3417.1374     -58.24501       1.0643451      51961.34     
     93900   301.78262      30370.942     -1803.8186      7255.0705      2274.7591      32605.4       -3332.4679     -48.823018      1.0656782      51896.335    
     94000   306.35814      30348.179     -1804.8368      7262.1085      2211.6937      32664.217     -3340.9766     -65.610492      1.0716087      51609.133    
     94100   303.21714      30350.935     -1808.0452      7259.0578      2313.0231      32616.958     -3401.1627     -51.059883      1.0815388      51135.284    
     94200   299.06148      30272.869     -1871.3364      7244.7841      2214.7559      32667.938     -3355.1031     -48.906497      1.0919861      50646.061    
     94300   295.72593      30288.773     -1852.0904      7245.3955      2217.6326      32624.656     -3329.0028     -39.250729      1.09813        50362.704    
     94400   298.51245      30242.202     -1855.3043      7237.4725      2275.0828      32552.084     -3340.5308     -49.394805      1.098114       50363.435    
     94500   298.38732      30214.824     -1842.8549      7244.7787      2230.3272      32655.246     -3445.319      -50.418331      1.0932064      50589.53     
     94600   296.65462      30212.916     -1807.1087      7240.8667      2229.0204      32587.872     -3416.0991     -43.074157      1.0869288      50881.709    
     94700   295.28218      30290.088     -1825.1646      7246.5356      2252.1124      32611.928     -3375.6526     -41.162319      1.0806446      51177.596    
     94800   303.41099      30291.232     -1815.3595      7246.8854      2270.8384      32590.288     -3384.8284     -39.274536      1.0764752      51375.819    
     94900   304.56154      30299.746     -1809.6018      7261.9         2280.6755      32590.16      -3409.6374     -36.518587      1.075444       51425.084    
     95000   299.96988      30326.269     -1808.2296      7255.692       2279.8084      32637.008     -3419.1831     -41.779339      1.075395       51427.426    
     95100   298.2927       30240.91      -1805.2983      7264.0649      2207.0545      32595.706     -3398.2865     -47.46827       1.0772799      51337.442    
     95200   290.22075      30341.423     -1790.527       7250.2761      2270.5531      32631.584     -3397.9076     -46.87739       1.0788733      51261.623    
     95300   300.92988      30230.656     -1798.0855      7247.1147      2228.5468      32603.63      -3423.221      -49.876177      1.0790116      51255.05     
     95400   298.07058      30309.124     -1828.4325      7253.9019      2218.9077      32673.555     -3393.9662     -37.780584      1.0774609      51328.82     
     95500   303.51831      30263.845     -1808.3118      7251.4184      2236.6376      32576.126     -3370.0373     -43.439507      1.0761605      51390.841    
     95600   293.22667      30436.216     -1813.7057      7258.9663      2284.3782      32680.151     -3339.0594     -56.047795      1.0764125      51378.81     
     95700   298.79095      30329.565     -1796.4753      7261.264       2272.2637      32619.322     -3392.6009     -56.732219      1.0781447      51296.264    
     95800   297.62194      30256.68      -1809.5373      7262.7417      2167.973       32650.478     -3384.0382     -54.005437      1.0797121      51221.799    
     95900   296.05537      30258.666     -1801.7922      7252.2877      2198.1802      32641.909     -3400.3713     -55.500267      1.0808883      51166.059    
     96000   300.77074      30293.88      -1802.1439      7256.9735      2210.6158      32619.556     -3363.6137     -49.98921       1.0808806      51166.423    
     96100   306.69861      30270.927     -1810.2741      7253.9062      2215.1334      32655.245     -3402.0682     -62.649412      1.0805157      51183.702    
     96200   300.71966      30334.787     -1765.2647      7245.4212      2212.955       32659.657     -3388.4561     -49.157088      1.0795728      51228.407    
     96300   302.91965      30263.512     -1842.3362      7243.8539      2219.6858      32666.605     -3403.48       -39.595527      1.0781311      51296.909    
     96400   298.10132      30295.808     -1828.8671      7246.438       2275.4572      32592.519     -3378.0201     -32.874152      1.0781911      51294.056    
     96500   292.91992      30331.596     -1838.7242      7246.5171      2328.8966      32600.905     -3379.7962     -47.691512      1.0790222      51254.55     
     96600   295.39915      30185.17      -1835.4555      7237.4821      2223.2712      32534.199     -3343.4484     -53.537042      1.0813621      51143.643    
     96700   293.27632      30249.925     -1796.2683      7239.5464      2226.1788      32655.002     -3440.9567     -55.190837      1.0846126      50990.368    
     96800   302.09192      30228.146     -1818.7924      7234.9297      2266.6591      32632.415     -3458.2895     -49.226288      1.0867353      50890.77     
     96900   304.25943      30228.324     -1853.2878      7237.8974      2236.32        32635.242     -3401.3986     -48.013624      1.0867884      50888.282    
     97000   298.28937      30305.81      -1810.1766      7242.2332      2226.9338      32625.959     -3356.7356     -44.938529      1.0844496      50998.034    
     97100   295.46954      30290.619     -1799.8844      7249.7791      2211.3433      32686.882     -3422.1088     -56.68929       1.079232       51244.584    
     97200   295.75141      30207.292     -1833.5787      7251.2122      2250.2889      32555.615     -3399.0659     -38.802688      1.0736735      51509.882    
     97300   296.47541      30230.393     -1809.4477      7239.8254      2269.1888      32582.084     -3423.0289     -47.44974       1.0710517      51635.97     
     97400   298.44099      30328.237     -1783.0444      7240.7641      2191.183       32678.199     -3367.5256     -49.47898       1.0714982      51614.456    
     97500   302.56963      30303.143     -1808.7427      7250.699       2226.3867      32615.918     -3361.6915     -38.500949      1.0743951      51475.289    
     97600   301.27098      30295.464     -1805.7114      7258.8977      2192.6354      32697.716     -3430.2826     -36.818756      1.0781041      51298.194    
     97700   297.77955      30352.374     -1814.0324      7258.035       2332.5295      32614.654     -3418.9891     -37.907008      1.080837       51168.487    
     97800   302.50521      30260.061     -1822.196       7251.4186      2208.4407      32600.527     -3352.8131     -45.284985      1.0832667      51053.722    
     97900   295.96273      30301.356     -1806.7348      7238.7232      2219.9859      32616.529     -3340.462      -47.170485      1.0856293      50942.615    
     98000   298.47609      30223.595     -1839.8521      7259.7501      2267.1183      32529.412     -3376.3308     -37.548346      1.0854602      50950.553    
     98100   294.24934      30310.432     -1810.3616      7253.086       2288.2141      32667.959     -3462.9201     -46.381176      1.0847437      50984.206    
     98200   300.89581      30324.557     -1852.1606      7251.156       2295.0861      32644.396     -3386.6601     -49.338157      1.0830014      51066.228    
     98300   304.80833      30303.84      -1786.94        7248.0348      2258.3395      32564.069     -3364.2058     -36.061661      1.082842       51073.742    
     98400   300.42588      30292.128     -1798.8325      7248.9608      2211.2427      32633.755     -3386.3667     -38.706442      1.0818292      51121.558    
     98500   295.76599      30315.442     -1851.847       7249.1382      2265.5369      32676.326     -3411.1974     -33.476192      1.0788946      51260.609    
     98600   294.23342      30351.432     -1818.7827      7243.7772      2313.4231      32631.309     -3394.2289     -45.414689      1.0757554      51410.197    
     98700   301.08335      30293.831     -1762.5226      7245.4253      2253.9825      32552.838     -3372.8316     -44.625525      1.0737089      51508.183    
     98800   303.2234       30315.476     -1771.5977      7239.0842      2245.3622      32641.51      -3413.4366     -46.58623       1.07225        51578.267    
     98900   303.59861      30271.952     -1784.135       7242.4333      2207.3112      32638.044     -3410.9452     -42.157364      1.0719938      51590.591    
     99000   301.35643      30188.159     -1805.479       7245.1955      2183.6903      32588.906     -3405.7724     -38.077297      1.0737071      51508.268    
     99100   293.04848      30313.414     -1799.2257      7251.1304      2280.8788      32573.797     -3361.3969     -53.740961      1.0778774      51308.983    
     99200   297.76276      30346.603     -1815.6086      7233.4082      2224.7738      32682.997     -3361.1332     -37.588845      1.0799997      51208.159    
     99300   300.73893      30321.332     -1787.8124      7230.4065      2263.4906      32684.326     -3432.6983     -57.131269      1.0820224      51112.433    
     99400   297.96562      30333.33      -1785.7127      7228.3036      2318.13        32546.03      -3354.4953     -40.266114      1.0816007      51132.359    
     99500   303.21765      30230.226     -1802.9717      7232.9848      2248.6673      32532.606     -3343.7055     -57.5935        1.0788255      51263.891    
     99600   301.96996      30219.883     -1781.4018      7231.2316      2263.0827      32596.46      -3462.3533     -47.608469      1.0764521      51376.923    
     99700   296.82249      30189.856     -1828.14        7244.3425      2193.2171      32566.885     -3365.9036     -40.419231      1.0754657      51424.045    
     99800   295.5851       30123.351     -1826.9145      7234.6868      2226.4055      32542.538     -3422.4287     -51.664692      1.0751811      51437.657    
     99900   297.42372      30195.815     -1840.0887      7248.5249      2222.0363      32603.484     -3418.8304     -41.18637       1.0773282      51335.142    
    100000   300.32016      30230.387     -1766.5914      7232.4764      2215.7408      32571.091     -3407.8721     -36.875149      1.081456       51139.202    
    100100   299.51511      30316.24      -1792.4901      7245.642       2299.6629      32583.559     -3394.6        -47.716032      1.0853009      50958.03     
    100200   304.5064       30257.726     -1819.0444      7243.1287      2203.8498      32655.837     -3391.5683     -55.924228      1.0864         50906.474    
    100300   301.75345      30231.244     -1834.0395      7238.5714      2282.1969      32581.038     -3418.4421     -39.98159       1.0848621      50978.639    
    100400   293.96927      30236.79      -1785.6453      7229.5125      2241.4776      32564.684     -3392.2077     -42.519994      1.0800057      51207.873    
    100500   296.4612       30210.076     -1873.6616      7244.0408      2218.3129      32597.732     -3363.017      -34.323755      1.0741434      51487.35     
    100600   299.03532      30278.816     -1785.0264      7243.073       2240.1743      32609.988     -3407.6716     -40.605945      1.0716712      51606.125    
    100700   296.03089      30367.099     -1787.3178      7239.7457      2226.7987      32703.69      -3395.662      -38.880425      1.0714471      51616.916    
    100800   301.55119      30314.787     -1781.8021      7233.4511      2279.3334      32581.444     -3366.1645     -50.126898      1.0726548      51558.803    
    100900   298.6823       30329.425     -1792.1536      7239.9083      2338.7389      32535.687     -3370.6154     -41.536614      1.0742051      51484.392    
    101000   302.86642      30188.156     -1790.015       7253.4576      2176.988       32567.583     -3395.0657     -44.045107      1.0763616      51381.242    
    101100   295.06639      30251.046     -1802.2037      7237.5982      2235.0847      32698.712     -3495.0914     -44.431698      1.0786672      51271.418    
    101200   293.95827      30241.727     -1805.3083      7228.4893      2236.023       32583.812     -3380.2526     -41.515126      1.0805254      51183.246    
    101300   297.42036      30249.075     -1826.5808      7225.3836      2192.8643      32609.613     -3338.2936     -34.833985      1.0814505      51139.461    
    101400   301.01287      30307.826     -1773.3222      7233.7102      2295.9986      32639.707     -3450.5315     -58.071165      1.0817548      51125.076    
    101500   299.94081      30358.891     -1792.713       7232.1509      2316.1612      32597.758     -3372.5965     -41.494898      1.0796801      51223.318    
    101600   303.40781      30247.611     -1759.7231      7234.612       2187.1784      32606.604     -3391.1844     -47.614635      1.0762678      51385.72     
    101700   292.52981      30320.775     -1800.5571      7248.2414      2243.8489      32608.604     -3378.3132     -20.284386      1.0710918      51634.04     
    101800   300.79019      30202.161     -1801.9603      7255.9736      2172.4423      32627.05      -3418.0422     -53.519151      1.0670387      51830.166    
    101900   302.18948      30335.447     -1744.7471      7258.1872      2231.1606      32634.151     -3417.4792     -46.120193      1.0659665      51882.301    
    102000   301.34191      30394.372     -1784.528       7246.7386      2334.8704      32620.667     -3402.7305     -38.860926      1.0668357      51840.032    
    102100   297.13521      30386.022     -1756.7092      7231.2322      2243.906       32657.782     -3372.2293     -37.191659      1.0713978      51619.293    
    102200   297.15581      30314.915     -1758.9916      7234.8488      2285.5823      32614.954     -3436.0372     -44.430494      1.0770518      51348.315    
    102300   297.22722      30290.754     -1799.6732      7245.8369      2168.2175      32692.229     -3394.8001     -40.453073      1.0816524      51129.913    
    102400   301.30659      30274.525     -1793.1455      7234.9133      2173.7317      32651.822     -3361.8908     -50.965715      1.083807       51028.268    
    102500   303.69176      30353.286     -1800.1694      7240.1216      2294.0287      32626.525     -3383.7405     -43.326654      1.0828448      51073.612    
    102600   305.94915      30311.061     -1800.6238      7232.9201      2198.0633      32763.286     -3456.6734     -45.332146      1.0793288      51239.988    
    102700   302.77145      30265.084     -1827.2497      7238.2935      2223.9008      32652.45      -3403.0073     -39.36035       1.0759667      51400.097    
    102800   299.05679      30284.283     -1815.1355      7240.6038      2184.416       32684.053     -3379.0735     -50.530886      1.0742315      51483.127    
    102900   295.0703       30358.315     -1825.1134      7256.1374      2259.2798      32652.847     -3356.354      -49.680435      1.0756231      51416.519    
    103000   297.29762      30383.78      -1841.8093      7239.3988      2277.5349      32718.576     -3371.3065     -57.951667      1.0776556      51319.545    
    103100   302.95732      30357.559     -1807.6791      7246.0707      2286.7062      32661.369     -3407.6659     -39.535742      1.080109       51202.974    
    103200   306.10154      30324.433     -1836.4867      7244.0057      2249.7934      32658.965     -3358.5091     -53.396953      1.0817925      51123.294    
    103300   296.36307      30334.975     -1813.8239      7252.337       2310.1487      32580.641     -3368.1777     -47.054715      1.0828575      51073.014    
    103400   297.03972      30275.718     -1830.9357      7253.298       2231.8479      32660.228     -3416.8716     -41.170995      1.0820457      51111.329    
    103500   302.74738      30215.484     -1832.0973      7264.3153      2189.5095      32631.273     -3413.0993     -44.311674      1.0821296      51107.368    
    103600   303.13225      30285.709     -1813.6376      7256.1447      2208.1718      32645.249     -3380.2516     -51.075382      1.083046       51064.125    
    103700   306.08507      30341.05      -1793.8464      7249.1296      2189.1081      32681.198     -3371.1272     -34.218041      1.0842405      51007.867    
    103800   299.95372      30398.922     -1784.1986      7255.8192      2227.1674      32660.117     -3342.487      -39.197736      1.0838498      51026.253    
    103900   292.0746       30363.203     -1777.8268      7254.0179      2235.0247      32633.269     -3353.0785     -50.658481      1.0817956      51123.145    
    104000   301.6223       30216.012     -1804.791       7245.0307      2188.2898      32664.891     -3451.4439     -46.405065      1.0802477      51196.403    
    104100   301.91777      30256.071     -1795.1432      7247.324       2159.5413      32621.013     -3345.9079     -51.050201      1.0779016      51307.831    
    104200   303.83807      30312.144     -1794.9906      7260.9898      2197.2376      32649.696     -3377.8569     -44.225946      1.0766662      51366.707    
    104300   301.36872      30370.306     -1833.7956      7239.9443      2265.4234      32675.634     -3353.9396     -45.132935      1.0773552      51333.857    
    104400   300.42453      30242.652     -1806.8546      7233.1585      2222.8366      32621.49      -3393.3938     -53.700891      1.0798852      51213.588    
    104500   297.03715      30237.634     -1769.8274      7240.6455      2245.484       32486.422     -3336.3881     -48.897614      1.081828       51121.617    
    104600   306.66537      30127.856     -1855.2222      7236.7755      2198.5753      32593.57      -3410.7342     -54.645951      1.081369       51143.315    
    104700   299.29466      30313.193     -1803.0732      7249.742       2307.803       32576.757     -3395.8725     -42.189114      1.0829234      51069.905    
    104800   296.45249      30447.897     -1795.1184      7245.284       2227.6284      32710.948     -3323.2959     -37.628667      1.0831686      51058.346    
    104900   310.17125      30297.7       -1827.5877      7219.5054      2270.9832      32707.458     -3451.8506     -39.001584      1.0825952      51085.388    
    105000   296.6909       30330.006     -1816.6321      7239.6467      2212.3924      32734.07      -3410.8775     -47.551236      1.0813604      51143.723    
    105100   297.59468      30251.624     -1848.2351      7244.0757      2247.1534      32514.61      -3281.6348     -42.632288      1.0805198      51183.507    
    105200   300.23884      30231.224     -1843.3556      7243.2964      2230.2474      32616.137     -3376.7943     -56.728011      1.0805751      51180.891    
    105300   302.76184      30252.779     -1872.6735      7246.367       2240.9065      32602.408     -3340.969      -42.478486      1.0809223      51164.451    
    105400   300.33805      30369.726     -1819.7148      7250.0605      2262.8277      32680.705     -3386.8462     -37.83893       1.0817422      51125.669    
    105500   305.20096      30320.295     -1825.2974      7234.6398      2275.1291      32627.195     -3375.2626     -36.515142      1.0816869      51128.286    
    105600   298.91689      30278.523     -1791.49        7244.7404      2263.6402      32551.085     -3355.1396     -54.125392      1.082897       51071.15     
    105700   293.18367      30283.981     -1878.5015      7235.2856      2320.8894      32635.731     -3411.5997     -37.736682      1.0826846      51081.17     
    105800   295.45454      30247.847     -1827.8048      7242.9303      2190.0972      32667.306     -3414.6804     -30.063777      1.0840291      51017.814    
    105900   300.81627      30254.971     -1839.8484      7239.8457      2267.9736      32606.875     -3399.9939     -40.405518      1.0850181      50971.313    
    106000   304.2328       30284.311     -1829.5784      7241.396       2260.9536      32633.152     -3418.9935     -22.269504      1.0859049      50929.685    
    106100   301.40684      30312.134     -1810.0618      7238.0092      2319.9431      32607.202     -3418.5284     -42.361884      1.0871594      50870.915    
    106200   301.41687      30258.746     -1846.1574      7237.611       2269.468       32585.359     -3371.4534     -34.880627      1.087742       50843.668    
    106300   303.22588      30213.11      -1830.9875      7246.8897      2235.208       32501.95      -3332.8298     -25.980182      1.087688       50846.196    
    106400   299.27156      30284.085     -1833.8627      7254.7978      2293.0346      32624.607     -3425.6373     -47.766309      1.0858362      50932.906    
    106500   305.07369      30226.198     -1824.8871      7253.7114      2234.7838      32554.09      -3369.3681     -42.061561      1.0832385      51055.051    
    106600   303.92703      30336.147     -1784.4989      7254.3029      2276.4792      32629.928     -3415.2605     -45.237537      1.0812486      51149.008    
    106700   306.11649      30314.715     -1859.6312      7252.5581      2259.9453      32633.065     -3353.8364     -40.92441       1.0775437      51324.876    
    106800   301.39929      30255.388     -1852.4578      7259.8511      2317.4359      32524.447     -3366.859      -48.986199      1.0763369      51382.422    
    106900   298.0238       30256.221     -1844.3013      7255.7738      2173.1577      32606.505     -3315.0756     -41.434641      1.0779879      51303.727    
    107000   298.85836      30266.639     -1841.6605      7252.6147      2265.9705      32614.299     -3399.5684     -46.020463      1.0818745      51119.417    
    107100   307.62814      30205.959     -1804.0411      7250.7989      2213.4948      32586.142     -3414.9056     -47.901493      1.0870244      50877.235    
    107200   303.4202       30334.993     -1817.0267      7249.9701      2260.6023      32634.267     -3366.9502     -46.656353      1.0903682      50721.21     
    107300   306.20959      30316.936     -1841.497       7240.9175      2359.7573      32494.732     -3305.3395     -51.114927      1.0902368      50727.324    
    107400   296.87564      30326.483     -1774.0082      7258.08        2262.0417      32578.709     -3372.453      -45.954687      1.0879305      50834.859    
    107500   299.24418      30228.493     -1822.1551      7254.5759      2199.4599      32601.995     -3380.4675     -46.690334      1.0818667      51119.789    
    107600   298.57782      30266.276     -1830.1089      7246.9674      2251.6822      32634.197     -3405.4548     -51.371441      1.075933       51401.712    
    107700   306.01327      30248.703     -1835.9965      7259.6652      2243.1542      32592.832     -3380.5116     -52.134864      1.0742395      51482.741    
    107800   301.77879      30351.436     -1856.9726      7245.8521      2374.4884      32614.439     -3414.4821     -34.375934      1.0766233      51368.75     
    107900   296.43869      30325.07      -1816.5421      7249.004       2289.1742      32566.519     -3338.8814     -43.369553      1.0812864      51147.22     
    108000   295.29903      30237.989     -1817.1138      7253.3882      2247.5738      32567.22      -3386.025      -48.701983      1.0840371      51017.438    
    108100   298.8027       30231.541     -1819.5331      7253.5213      2263.9773      32523.112     -3362.0158     -48.717556      1.0848667      50978.427    
    108200   301.36977      30270.912     -1815.5198      7250.0499      2294.7933      32564.994     -3389.6363     -54.027148      1.0832671      51053.703    
    108300   299.22741      30327.465     -1789.3696      7254.969       2281.8559      32573.47      -3371.7508     -42.432656      1.0808997      51165.523    
    108400   301.8855       30306.927     -1813.7663      7253.2946      2300.4947      32616.223     -3425.6533     -45.635869      1.07804        51301.246    
    108500   302.89001      30288.505     -1833.6961      7246.5114      2223.6941      32626.251     -3361.1507     -34.484133      1.0751145      51440.843    
    108600   298.36772      30299.776     -1772.7674      7246.2064      2237.2675      32574.083     -3370.1779     -37.19964       1.0743303      51478.39     
    108700   299.00185      30233.334     -1835.1951      7243.2012      2248.0247      32601.523     -3412.6014     -31.300636      1.0759606      51400.392    
    108800   298.98336      30240.022     -1860.106       7255.042       2206.4148      32636.991     -3376.2008     -42.104249      1.0801641      51200.365    
    108900   302.91634      30301.184     -1821.5482      7247.4061      2325.3562      32557.1       -3403.6228     -24.237776      1.086492       50902.166    
    109000   304.56676      30314.717     -1833.9768      7249.0027      2251.6842      32601.575     -3334.7189     -38.647239      1.0897964      50747.823    
    109100   303.95332      30238.899     -1861.6122      7254.1941      2276.6571      32512.099     -3329.3712     -33.081212      1.0900548      50735.795    
    109200   299.47322      30251.07      -1824.7945      7238.1558      2275.2172      32580.619     -3393.3859     -42.729119      1.0885972      50803.729    
    109300   300.23779      30245.358     -1816.9685      7246.6355      2233.7438      32608.801     -3414.6477     -31.868339      1.0840512      51016.774    
    109400   300.92261      30279.702     -1832.3149      7235.5013      2291.598       32582.111     -3381.6767     -35.918357      1.0787736      51266.358    
    109500   302.30922      30317.309     -1775.0672      7239.4473      2268.9797      32540.117     -3330.7216     -44.217019      1.0763316      51382.674    
    109600   303.78969      30333.408     -1846.6257      7252.4131      2243.9056      32667.184     -3380.2211     -22.370316      1.0746408      51463.515    
    109700   300.30628      30333.174     -1815.1615      7250.8643      2256.5386      32648.443     -3409.4155     -16.726147      1.0759934      51398.823    
    109800   296.70542      30280.525     -1809.0698      7246.5581      2213.6363      32662.624     -3408.4179     -44.259043      1.0789561      51257.686    
    109900   297.88671      30247.231     -1813.0709      7246.3963      2201.921       32625.189     -3378.843      -54.320913      1.0826249      51083.984    
    110000   298.32287      30296.34      -1818.7571      7241.5404      2260.2234      32655.662     -3418.2191     -43.344656      1.08593        50928.507    
    110100   301.28021      30371.204     -1813.7139      7245.7186      2236.6         32655.273     -3332.7171     -37.666148      1.0884723      50809.558    
    110128   305.97437      30320.127     -1828.728       7245.8337      2297.8206      32549.686     -3327.4681     -34.600831      1.0887886      50794.794    
Loop time of 1088.82 on 6 procs for 100000 steps with 5016 atoms

Performance: 7.935 ns/day, 3.025 hours/ns, 91.842 timesteps/s, 460.682 katom-step/s
98.9% CPU use with 6 MPI tasks x no OpenMP threads

MPI task timing breakdown:
Section |  min time  |  avg time  |  max time  |%varavg| %total
---------------------------------------------------------------
Pair    | 362.35     | 378.62     | 399.2      |  72.7 | 34.77
Bond    | 242.82     | 288.23     | 340.98     | 209.5 | 26.47
Kspace  | 249        | 321.28     | 383.53     | 272.9 | 29.51
Neigh   | 21.866     | 21.933     | 22.034     |   1.1 |  2.01
Comm    | 33.628     | 35.284     | 37.321     |  18.8 |  3.24
Output  | 0.16424    | 0.18242    | 0.24071    |   6.2 |  0.02
Modify  | 27.09      | 28.665     | 29.905     |  18.3 |  2.63
Other   |            | 14.62      |            |       |  1.34

Nlocal:            836 ave         844 max         826 min
Histogram: 1 1 0 0 1 0 0 0 2 1
Nghost:        8471.17 ave        8483 max        8455 min
Histogram: 1 0 1 0 0 0 1 1 1 1
Neighs:         298671 ave      301768 max      295692 min
Histogram: 1 0 1 2 0 0 0 0 0 2

Total # of neighbors = 1792024
Ave neighs/atom = 357.26156
Ave special neighs/atom = 6.2631579
Neighbor list builds = 2574
Dangerous builds = 0
unfix relax



Total wall time: 0:19:29
