LAMMPS (22 Dec 2022)
# PREREQUISITES:
#
#     You must use moltemplate.sh to create 3 files:
#        system.data  system.in.init  system.in.settings
#     (Follow the instructions in README_setup.sh,
#      or run the file as a script using ./README_setup.sh)

# ------------------------------- Initialization Section --------------------

units real
atom_style full
pair_style lj/class2/coul/long 10.0 10.0
bond_style class2
angle_style class2
dihedral_style class2
improper_style class2
kspace_style pppm/cg 0.001

pair_modify     mix sixthpower tail yes
special_bonds   lj/coul 0 0 1


# ------------------------------- Atom Definition Section -------------------

read_data       "reacted_lmp.data"
Reading data file ...
  orthogonal box = (5.1901177 5.1901177 5.1901177) to (43.100212 43.100212 43.100212)
  2 by 3 by 4 MPI processor grid
  reading atoms ...
  5010 atoms
  reading velocities ...
  5010 velocities
  scanning bonds ...
  4 = max bonds/atom
  scanning angles ...
  6 = max angles/atom
  scanning dihedrals ...
  15 = max dihedrals/atom
  scanning impropers ...
  4 = max impropers/atom
  reading bonds ...
  5242 bonds
  reading angles ...
  10472 angles
  reading dihedrals ...
  15498 dihedrals
  reading impropers ...
  6664 impropers
Finding 1-2 1-3 1-4 neighbors ...
  special bond factors lj:    0        0        1       
  special bond factors coul:  0        0        1       
     4 = max # of 1-2 neighbors
     9 = max # of 1-3 neighbors
    13 = max # of special neighbors
  special bonds CPU = 0.005 seconds
  read_data CPU = 0.416 seconds

include calc.pram

# Masses

mass		1    12.01115  # c
mass		2    12.01115  # c1
mass		3    12.01115  # c3h
mass		4     1.00797  # h
mass		5     1.00797  # hc
mass		6    15.99940  # o3e
mass		7    15.99940  # oc
mass		8    15.99940  # oh

# Potentials

pair_coeff	 1  1    0.05400    4.01000  # c,c
pair_coeff	 2  2    0.05400    4.01000  # c1,c1
pair_coeff	 3  3    0.05400    4.01000  # c3h,c3h
pair_coeff	 4  4    0.02000    2.99500  # h,h
pair_coeff	 5  5    0.02000    2.99500  # hc,hc
pair_coeff	 6  6    0.24000    3.53500  # o3e,o3e
pair_coeff	 7  7    0.24000    3.53500  # oc,oc
pair_coeff	 8  8    0.24000    3.53500  # oh,oh

# Bond Coeffs

bond_coeff	 1    1.53000  299.67000 -501.77000  679.81000  # c,c
bond_coeff	 2    1.53000  299.67000 -501.77000  679.81000  # c,c1
bond_coeff	 3    1.53000  299.67000 -501.77000  679.81000  # c,c3h
bond_coeff	 4    1.10100  345.00000 -691.89000  844.60000  # c,hc
bond_coeff	 5    1.42000  400.39540 -835.19510 1313.01420  # c,o3e
bond_coeff	 6    1.42000  400.39540 -835.19510 1313.01420  # c,oc
bond_coeff	 7    1.42000  400.39540 -835.19510 1313.01420  # c,oh
bond_coeff	 8    1.10100  345.00000 -691.89000  844.60000  # c1,hc
bond_coeff	 9    1.42000  400.39540 -835.19510 1313.01420  # c1,oc
bond_coeff	10    1.10100  345.00000 -691.89000  844.60000  # c3h,hc
bond_coeff	11    1.42000  400.39540 -835.19510 1313.01420  # c3h,o3e
bond_coeff	12    0.96000  493.84800    0.00000    0.00000  # h,oh

# Angle Coeffs

angle_coeff	 1  112.67000   39.51600   -7.44300   -9.55830  # c,c,c
angle_coeff	 2  112.67000   39.51600   -7.44300   -9.55830  # c,c,c1
angle_coeff	 3  110.77000   41.45300  -10.60400    5.12900  # c,c,hc
angle_coeff	 4  111.27000   54.53810   -8.36420  -13.08380  # c,c,oc
angle_coeff	 5  112.67000   39.51600   -7.44300   -9.55830  # c,c1,c
angle_coeff	 6  110.77000   41.45300  -10.60400    5.12900  # c,c1,hc
angle_coeff	 7  111.27000   54.53810   -8.36420  -13.08380  # c,c1,oc
angle_coeff	 8  112.67000   39.51600   -7.44300   -9.55830  # c,c3h,c
angle_coeff	 9  110.77000   41.45300  -10.60400    5.12900  # c,c3h,hc
angle_coeff	10  111.27000   54.53810   -8.36420  -13.08380  # c,c3h,o3e
angle_coeff	11  104.50000   35.74540  -10.00670   -6.27290  # c,o3e,c3h
angle_coeff	12  104.50000   35.74540  -10.00670   -6.27290  # c,oc,c
angle_coeff	13  104.50000   35.74540  -10.00670   -6.27290  # c,oc,c1
angle_coeff	14  109.00000   58.50000    0.00000    0.00000  # c,oh,h
angle_coeff	15  110.77000   41.45300  -10.60400    5.12900  # c1,c,hc
angle_coeff	16  111.27000   54.53810   -8.36420  -13.08380  # c1,c,oc
angle_coeff	17  111.27000   54.53810   -8.36420  -13.08380  # c1,c,oh
angle_coeff	18  110.77000   41.45300  -10.60400    5.12900  # c3h,c,hc
angle_coeff	19  111.27000   54.53810   -8.36420  -13.08380  # c3h,c,o3e
angle_coeff	20  111.27000   54.53810   -8.36420  -13.08380  # c3h,c,oc
angle_coeff	21  107.66000   39.64100  -12.92100   -2.43180  # hc,c,hc
angle_coeff	22  108.72800   58.54460  -10.80880  -12.40060  # hc,c,o3e
angle_coeff	23  108.72800   58.54460  -10.80880  -12.40060  # hc,c,oc
angle_coeff	24  108.72800   58.54460  -10.80880  -12.40060  # hc,c,oh
angle_coeff	25  108.72800   58.54460  -10.80880  -12.40060  # hc,c1,oc
angle_coeff	26  108.72800   58.54460  -10.80880  -12.40060  # hc,c3h,o3e

# BondBond Coeffs

angle_coeff	 1 bb    0.00000    1.53000    1.53000  # c,c,c
angle_coeff	 2 bb    0.00000    1.53000    1.53000  # c,c,c1
angle_coeff	 3 bb    3.38720    1.53000    1.10100  # c,c,hc
angle_coeff	 4 bb   11.43180    1.53000    1.42000  # c,c,oc
angle_coeff	 5 bb    0.00000    1.53000    1.53000  # c,c1,c
angle_coeff	 6 bb    3.38720    1.53000    1.10100  # c,c1,hc
angle_coeff	 7 bb   11.43180    1.53000    1.42000  # c,c1,oc
angle_coeff	 8 bb    0.00000    1.53000    1.53000  # c,c3h,c
angle_coeff	 9 bb    3.38720    1.53000    1.10100  # c,c3h,hc
angle_coeff	10 bb   11.43180    1.53000    1.42000  # c,c3h,o3e
angle_coeff	11 bb   -7.11310    1.42000    1.42000  # c,o3e,c3h
angle_coeff	12 bb   -7.11310    1.42000    1.42000  # c,oc,c
angle_coeff	13 bb   -7.11310    1.42000    1.42000  # c,oc,c1
angle_coeff	14 bb    0.00000    1.42000    0.96000  # c,oh,h
angle_coeff	15 bb    3.38720    1.53000    1.10100  # c1,c,hc
angle_coeff	16 bb   11.43180    1.53000    1.42000  # c1,c,oc
angle_coeff	17 bb   11.43180    1.53000    1.42000  # c1,c,oh
angle_coeff	18 bb    3.38720    1.53000    1.10100  # c3h,c,hc
angle_coeff	19 bb   11.43180    1.53000    1.42000  # c3h,c,o3e
angle_coeff	20 bb   11.43180    1.53000    1.42000  # c3h,c,oc
angle_coeff	21 bb    5.33160    1.10100    1.10100  # hc,c,hc
angle_coeff	22 bb   23.19790    1.10100    1.42000  # hc,c,o3e
angle_coeff	23 bb   23.19790    1.10100    1.42000  # hc,c,oc
angle_coeff	24 bb   23.19790    1.10100    1.42000  # hc,c,oh
angle_coeff	25 bb   23.19790    1.10100    1.42000  # hc,c1,oc
angle_coeff	26 bb   23.19790    1.10100    1.42000  # hc,c3h,o3e

# BondAngle Coeffs

angle_coeff	 1 ba    8.01600    8.01600    1.53000    1.53000  # c,c,c
angle_coeff	 2 ba    8.01600    8.01600    1.53000    1.53000  # c,c,c1
angle_coeff	 3 ba   11.42100   20.75400    1.53000    1.10100  # c,c,hc
angle_coeff	 4 ba    2.68680   20.40330    1.53000    1.42000  # c,c,oc
angle_coeff	 5 ba    8.01600    8.01600    1.53000    1.53000  # c,c1,c
angle_coeff	 6 ba   11.42100   20.75400    1.53000    1.10100  # c,c1,hc
angle_coeff	 7 ba    2.68680   20.40330    1.53000    1.42000  # c,c1,oc
angle_coeff	 8 ba    8.01600    8.01600    1.53000    1.53000  # c,c3h,c
angle_coeff	 9 ba   11.42100   20.75400    1.53000    1.10100  # c,c3h,hc
angle_coeff	10 ba    2.68680   20.40330    1.53000    1.42000  # c,c3h,o3e
angle_coeff	11 ba   -2.81120   -2.81120    1.42000    1.42000  # c,o3e,c3h
angle_coeff	12 ba   -2.81120   -2.81120    1.42000    1.42000  # c,oc,c
angle_coeff	13 ba   -2.81120   -2.81120    1.42000    1.42000  # c,oc,c1
angle_coeff	14 ba    0.00000    0.00000    1.42000    0.96000  # c,oh,h
angle_coeff	15 ba   20.75400   11.42100    1.53000    1.10100  # c1,c,hc
angle_coeff	16 ba    2.68680   20.40330    1.53000    1.42000  # c1,c,oc
angle_coeff	17 ba    2.68680   20.40330    1.53000    1.42000  # c1,c,oh
angle_coeff	18 ba   11.42100   20.75400    1.53000    1.10100  # c3h,c,hc
angle_coeff	19 ba    2.68680   20.40330    1.53000    1.42000  # c3h,c,o3e
angle_coeff	20 ba   20.40330    2.68680    1.53000    1.42000  # c3h,c,oc
angle_coeff	21 ba   18.10300   18.10300    1.10100    1.10100  # hc,c,hc
angle_coeff	22 ba    4.61890   55.32700    1.10100    1.42000  # hc,c,o3e
angle_coeff	23 ba    4.61890   55.32700    1.10100    1.42000  # hc,c,oc
angle_coeff	24 ba    4.61890   55.32700    1.10100    1.42000  # hc,c,oh
angle_coeff	25 ba    4.61890   55.32700    1.10100    1.42000  # hc,c1,oc
angle_coeff	26 ba    4.61890   55.32700    1.10100    1.42000  # hc,c3h,o3e

# Dihedral Coeffs

dihedral_coeff	 1    0.00000    0.00000    0.03160    0.00000   -0.16810    0.00000  # c,c,c,hc
dihedral_coeff	 2    0.71370    0.00000    0.26600    0.00000   -0.25450    0.00000  # c,c,c,oc
dihedral_coeff	 3    0.00000    0.00000    0.05140    0.00000   -0.14300    0.00000  # c,c,c1,c
dihedral_coeff	 4    0.00000    0.00000    0.03160    0.00000   -0.16810    0.00000  # c,c,c1,hc
dihedral_coeff	 5   -0.52030    0.00000   -0.30280    0.00000   -0.34500    0.00000  # c,c,oc,c
dihedral_coeff	 6   -0.52030    0.00000   -0.30280    0.00000   -0.34500    0.00000  # c,c,oc,c1
dihedral_coeff	 7    0.00000    0.00000    0.03160    0.00000   -0.16810    0.00000  # c,c1,c,hc
dihedral_coeff	 8    0.71370    0.00000    0.26600    0.00000   -0.25450    0.00000  # c,c1,c,oc
dihedral_coeff	 9    0.71370    0.00000    0.26600    0.00000   -0.25450    0.00000  # c,c1,c,oh
dihedral_coeff	10   -0.52030    0.00000   -0.30280    0.00000   -0.34500    0.00000  # c,c1,oc,c
dihedral_coeff	11    0.00000    0.00000    0.03160    0.00000   -0.16810    0.00000  # c,c3h,c,hc
dihedral_coeff	12    0.71370    0.00000    0.26600    0.00000   -0.25450    0.00000  # c,c3h,c,o3e
dihedral_coeff	13    0.71370    0.00000    0.26600    0.00000   -0.25450    0.00000  # c,c3h,c,oc
dihedral_coeff	14   -0.52030    0.00000   -0.30280    0.00000   -0.34500    0.00000  # c,c3h,o3e,c
dihedral_coeff	15    0.53020    0.00000    0.00000    0.00000   -0.39660    0.00000  # c,o3e,c3h,hc
dihedral_coeff	16   -0.52030    0.00000   -0.30280    0.00000   -0.34500    0.00000  # c,oc,c,c1
dihedral_coeff	17   -0.52030    0.00000   -0.30280    0.00000   -0.34500    0.00000  # c,oc,c,c3h
dihedral_coeff	18    0.53020    0.00000    0.00000    0.00000   -0.39660    0.00000  # c,oc,c,hc
dihedral_coeff	19    0.53020    0.00000    0.00000    0.00000   -0.39660    0.00000  # c,oc,c1,hc
dihedral_coeff	20    0.00000    0.00000    0.05140    0.00000   -0.14300    0.00000  # c1,c,c,c1
dihedral_coeff	21    0.00000    0.00000    0.03160    0.00000   -0.16810    0.00000  # c1,c,c,hc
dihedral_coeff	22   -0.52030    0.00000   -0.30280    0.00000   -0.34500    0.00000  # c1,c,oc,c1
dihedral_coeff	23    0.00000    0.00000    0.00000    0.00000    0.13000  180.00000  # c1,c,oh,h
dihedral_coeff	24    0.53020    0.00000    0.00000    0.00000   -0.39660    0.00000  # c1,oc,c,hc
dihedral_coeff	25    0.53020    0.00000    0.00000    0.00000   -0.39660    0.00000  # c3h,o3e,c,hc
dihedral_coeff	26    0.00000    0.00000    0.00000    0.00000    0.13000  180.00000  # h,oh,c,hc
dihedral_coeff	27   -0.14320    0.00000    0.06170    0.00000   -0.10830    0.00000  # hc,c,c,hc
dihedral_coeff	28   -0.14350    0.00000    0.25300    0.00000   -0.09050    0.00000  # hc,c,c,oc
dihedral_coeff	29   -0.14320    0.00000    0.06170    0.00000   -0.10830    0.00000  # hc,c,c1,hc
dihedral_coeff	30   -0.14350    0.00000    0.25300    0.00000   -0.09050    0.00000  # hc,c,c1,oc
dihedral_coeff	31   -0.14320    0.00000    0.06170    0.00000   -0.10830    0.00000  # hc,c,c3h,hc
dihedral_coeff	32   -0.14350    0.00000    0.25300    0.00000   -0.09050    0.00000  # hc,c,c3h,o3e
dihedral_coeff	33   -0.14350    0.00000    0.25300    0.00000   -0.09050    0.00000  # hc,c1,c,oc
dihedral_coeff	34   -0.14350    0.00000    0.25300    0.00000   -0.09050    0.00000  # hc,c1,c,oh
dihedral_coeff	35   -0.14350    0.00000    0.25300    0.00000   -0.09050    0.00000  # hc,c3h,c,o3e
dihedral_coeff	36   -0.14350    0.00000    0.25300    0.00000   -0.09050    0.00000  # hc,c3h,c,oc
dihedral_coeff	37   -0.18200    0.00000   -0.10840    0.00000   -0.70470    0.00000  # o3e,c3h,c,oc
dihedral_coeff	38   -0.18200    0.00000   -0.10840    0.00000   -0.70470    0.00000  # oc,c,c1,oc
dihedral_coeff	39   -0.18200    0.00000   -0.10840    0.00000   -0.70470    0.00000  # oc,c1,c,oh

# MiddleBondTorsion Coeffs

dihedral_coeff	 1 mbt  -14.87900   -3.65810   -0.31380    1.53000  # c,c,c,hc
dihedral_coeff	 2 mbt  -21.88420   -7.67640   -0.68680    1.53000  # c,c,c,oc
dihedral_coeff	 3 mbt  -17.78700   -7.18770    0.00000    1.53000  # c,c,c1,c
dihedral_coeff	 4 mbt  -14.87900   -3.65810   -0.31380    1.53000  # c,c,c1,hc
dihedral_coeff	 5 mbt   -5.92880   -2.70070   -0.31750    1.42000  # c,c,oc,c
dihedral_coeff	 6 mbt   -5.92880   -2.70070   -0.31750    1.42000  # c,c,oc,c1
dihedral_coeff	 7 mbt  -14.87900   -3.65810   -0.31380    1.53000  # c,c1,c,hc
dihedral_coeff	 8 mbt  -21.88420   -7.67640   -0.68680    1.53000  # c,c1,c,oc
dihedral_coeff	 9 mbt  -21.88420   -7.67640   -0.68680    1.53000  # c,c1,c,oh
dihedral_coeff	10 mbt   -5.92880   -2.70070   -0.31750    1.42000  # c,c1,oc,c
dihedral_coeff	11 mbt  -14.87900   -3.65810   -0.31380    1.53000  # c,c3h,c,hc
dihedral_coeff	12 mbt  -21.88420   -7.67640   -0.68680    1.53000  # c,c3h,c,o3e
dihedral_coeff	13 mbt  -21.88420   -7.67640   -0.68680    1.53000  # c,c3h,c,oc
dihedral_coeff	14 mbt   -5.92880   -2.70070   -0.31750    1.42000  # c,c3h,o3e,c
dihedral_coeff	15 mbt   -6.80070   -4.65460   -1.41010    1.42000  # c,o3e,c3h,hc
dihedral_coeff	16 mbt   -5.92880   -2.70070   -0.31750    1.42000  # c,oc,c,c1
dihedral_coeff	17 mbt   -5.92880   -2.70070   -0.31750    1.42000  # c,oc,c,c3h
dihedral_coeff	18 mbt   -6.80070   -4.65460   -1.41010    1.42000  # c,oc,c,hc
dihedral_coeff	19 mbt   -6.80070   -4.65460   -1.41010    1.42000  # c,oc,c1,hc
dihedral_coeff	20 mbt  -17.78700   -7.18770    0.00000    1.53000  # c1,c,c,c1
dihedral_coeff	21 mbt  -14.87900   -3.65810   -0.31380    1.53000  # c1,c,c,hc
dihedral_coeff	22 mbt   -5.92880   -2.70070   -0.31750    1.42000  # c1,c,oc,c1
dihedral_coeff	23 mbt    0.00000    0.00000    0.00000    1.42000  # c1,c,oh,h
dihedral_coeff	24 mbt   -6.80070   -4.65460   -1.41010    1.42000  # c1,oc,c,hc
dihedral_coeff	25 mbt   -6.80070   -4.65460   -1.41010    1.42000  # c3h,o3e,c,hc
dihedral_coeff	26 mbt    0.00000    0.00000    0.00000    1.42000  # h,oh,c,hc
dihedral_coeff	27 mbt  -14.26100   -0.53220   -0.48640    1.53000  # hc,c,c,hc
dihedral_coeff	28 mbt  -16.79750   -1.22960   -0.27500    1.53000  # hc,c,c,oc
dihedral_coeff	29 mbt  -14.26100   -0.53220   -0.48640    1.53000  # hc,c,c1,hc
dihedral_coeff	30 mbt  -16.79750   -1.22960   -0.27500    1.53000  # hc,c,c1,oc
dihedral_coeff	31 mbt  -14.26100   -0.53220   -0.48640    1.53000  # hc,c,c3h,hc
dihedral_coeff	32 mbt  -16.79750   -1.22960   -0.27500    1.53000  # hc,c,c3h,o3e
dihedral_coeff	33 mbt  -16.79750   -1.22960   -0.27500    1.53000  # hc,c1,c,oc
dihedral_coeff	34 mbt  -16.79750   -1.22960   -0.27500    1.53000  # hc,c1,c,oh
dihedral_coeff	35 mbt  -16.79750   -1.22960   -0.27500    1.53000  # hc,c3h,c,o3e
dihedral_coeff	36 mbt  -16.79750   -1.22960   -0.27500    1.53000  # hc,c3h,c,oc
dihedral_coeff	37 mbt  -17.25850   -3.61570   -0.83640    1.53000  # o3e,c3h,c,oc
dihedral_coeff	38 mbt  -17.25850   -3.61570   -0.83640    1.53000  # oc,c,c1,oc
dihedral_coeff	39 mbt  -17.25850   -3.61570   -0.83640    1.53000  # oc,c1,c,oh

# EndBondTorsion Coeffs

dihedral_coeff	 1 ebt    0.08140    0.05910    0.22190    0.24860    0.24220   -0.09250    1.53000    1.10100  # c,c,c,hc
dihedral_coeff	 2 ebt   -0.31900    0.44110   -0.71740    1.15380    0.84090   -0.91380    1.53000    1.42000  # c,c,c,oc
dihedral_coeff	 3 ebt   -0.07320    0.00000    0.00000   -0.07320    0.00000    0.00000    1.53000    1.53000  # c,c,c1,c
dihedral_coeff	 4 ebt    0.08140    0.05910    0.22190    0.24860    0.24220   -0.09250    1.53000    1.10100  # c,c,c1,hc
dihedral_coeff	 5 ebt   -0.24560    1.05170   -0.77950    0.47410    1.26350    0.55760    1.53000    1.42000  # c,c,oc,c
dihedral_coeff	 6 ebt    0.47410    1.26350    0.55760   -0.24560    1.05170   -0.77950    1.53000    1.42000  # c,c,oc,c1
dihedral_coeff	 7 ebt    0.08140    0.05910    0.22190    0.24860    0.24220   -0.09250    1.53000    1.10100  # c,c1,c,hc
dihedral_coeff	 8 ebt   -0.31900    0.44110   -0.71740    1.15380    0.84090   -0.91380    1.53000    1.42000  # c,c1,c,oc
dihedral_coeff	 9 ebt   -0.31900    0.44110   -0.71740    1.15380    0.84090   -0.91380    1.53000    1.42000  # c,c1,c,oh
dihedral_coeff	10 ebt   -0.24560    1.05170   -0.77950    0.47410    1.26350    0.55760    1.53000    1.42000  # c,c1,oc,c
dihedral_coeff	11 ebt    0.08140    0.05910    0.22190    0.24860    0.24220   -0.09250    1.53000    1.10100  # c,c3h,c,hc
dihedral_coeff	12 ebt   -0.31900    0.44110   -0.71740    1.15380    0.84090   -0.91380    1.53000    1.42000  # c,c3h,c,o3e
dihedral_coeff	13 ebt   -0.31900    0.44110   -0.71740    1.15380    0.84090   -0.91380    1.53000    1.42000  # c,c3h,c,oc
dihedral_coeff	14 ebt   -0.24560    1.05170   -0.77950    0.47410    1.26350    0.55760    1.53000    1.42000  # c,c3h,o3e,c
dihedral_coeff	15 ebt   -0.60540    1.33390    0.96480   -0.16200    0.15640   -1.14080    1.42000    1.10100  # c,o3e,c3h,hc
dihedral_coeff	16 ebt   -0.24560    1.05170   -0.77950    0.47410    1.26350    0.55760    1.42000    1.53000  # c,oc,c,c1
dihedral_coeff	17 ebt    0.47410    1.26350    0.55760   -0.24560    1.05170   -0.77950    1.42000    1.53000  # c,oc,c,c3h
dihedral_coeff	18 ebt   -0.60540    1.33390    0.96480   -0.16200    0.15640   -1.14080    1.42000    1.10100  # c,oc,c,hc
dihedral_coeff	19 ebt   -0.60540    1.33390    0.96480   -0.16200    0.15640   -1.14080    1.42000    1.10100  # c,oc,c1,hc
dihedral_coeff	20 ebt   -0.07320    0.00000    0.00000   -0.07320    0.00000    0.00000    1.53000    1.53000  # c1,c,c,c1
dihedral_coeff	21 ebt    0.24860    0.24220   -0.09250    0.08140    0.05910    0.22190    1.53000    1.10100  # c1,c,c,hc
dihedral_coeff	22 ebt   -0.24560    1.05170   -0.77950    0.47410    1.26350    0.55760    1.53000    1.42000  # c1,c,oc,c1
dihedral_coeff	23 ebt    0.00000    0.00000    0.00000    0.00000    0.00000    0.00000    1.53000    0.96000  # c1,c,oh,h
dihedral_coeff	24 ebt   -0.16200    0.15640   -1.14080   -0.60540    1.33390    0.96480    1.42000    1.10100  # c1,oc,c,hc
dihedral_coeff	25 ebt   -0.60540    1.33390    0.96480   -0.16200    0.15640   -1.14080    1.42000    1.10100  # c3h,o3e,c,hc
dihedral_coeff	26 ebt    0.00000    0.00000    0.00000    0.00000    0.00000    0.00000    0.96000    1.10100  # h,oh,c,hc
dihedral_coeff	27 ebt    0.21300    0.31200    0.07770    0.21300    0.31200    0.07770    1.10100    1.10100  # hc,c,c,hc
dihedral_coeff	28 ebt    0.96810    0.95510    0.04360    0.59030    0.66690    0.85840    1.10100    1.42000  # hc,c,c,oc
dihedral_coeff	29 ebt    0.21300    0.31200    0.07770    0.21300    0.31200    0.07770    1.10100    1.10100  # hc,c,c1,hc
dihedral_coeff	30 ebt    0.96810    0.95510    0.04360    0.59030    0.66690    0.85840    1.10100    1.42000  # hc,c,c1,oc
dihedral_coeff	31 ebt    0.21300    0.31200    0.07770    0.21300    0.31200    0.07770    1.10100    1.10100  # hc,c,c3h,hc
dihedral_coeff	32 ebt    0.96810    0.95510    0.04360    0.59030    0.66690    0.85840    1.10100    1.42000  # hc,c,c3h,o3e
dihedral_coeff	33 ebt    0.96810    0.95510    0.04360    0.59030    0.66690    0.85840    1.10100    1.42000  # hc,c1,c,oc
dihedral_coeff	34 ebt    0.96810    0.95510    0.04360    0.59030    0.66690    0.85840    1.10100    1.42000  # hc,c1,c,oh
dihedral_coeff	35 ebt    0.96810    0.95510    0.04360    0.59030    0.66690    0.85840    1.10100    1.42000  # hc,c3h,c,o3e
dihedral_coeff	36 ebt    0.96810    0.95510    0.04360    0.59030    0.66690    0.85840    1.10100    1.42000  # hc,c3h,c,oc
dihedral_coeff	37 ebt    1.01650    0.75530   -0.46090    1.01650    0.75530   -0.46090    1.42000    1.42000  # o3e,c3h,c,oc
dihedral_coeff	38 ebt    1.01650    0.75530   -0.46090    1.01650    0.75530   -0.46090    1.42000    1.42000  # oc,c,c1,oc
dihedral_coeff	39 ebt    1.01650    0.75530   -0.46090    1.01650    0.75530   -0.46090    1.42000    1.42000  # oc,c1,c,oh

# AngleTorsion Coeffs

dihedral_coeff	 1 at    0.31130    0.45160   -0.19880   -0.24540    0.00000   -0.11360  112.67000  110.77000  # c,c,c,hc
dihedral_coeff	 2 at    0.56230   -0.30410   -0.40150    0.96720   -0.75660   -1.23310  112.67000  111.27000  # c,c,c,oc
dihedral_coeff	 3 at    0.38860   -0.31390    0.13890    0.38860   -0.31390    0.13890  112.67000  112.67000  # c,c,c1,c
dihedral_coeff	 4 at    0.31130    0.45160   -0.19880   -0.24540    0.00000   -0.11360  112.67000  110.77000  # c,c,c1,hc
dihedral_coeff	 5 at   -2.74660    1.48770   -0.89550    0.56760    0.94500    0.07030  111.27000  104.50000  # c,c,oc,c
dihedral_coeff	 6 at    0.56760    0.94500    0.07030   -2.74660    1.48770   -0.89550  111.27000  104.50000  # c,c,oc,c1
dihedral_coeff	 7 at    0.31130    0.45160   -0.19880   -0.24540    0.00000   -0.11360  112.67000  110.77000  # c,c1,c,hc
dihedral_coeff	 8 at    0.56230   -0.30410   -0.40150    0.96720   -0.75660   -1.23310  112.67000  111.27000  # c,c1,c,oc
dihedral_coeff	 9 at    0.56230   -0.30410   -0.40150    0.96720   -0.75660   -1.23310  112.67000  111.27000  # c,c1,c,oh
dihedral_coeff	10 at   -2.74660    1.48770   -0.89550    0.56760    0.94500    0.07030  111.27000  104.50000  # c,c1,oc,c
dihedral_coeff	11 at    0.31130    0.45160   -0.19880   -0.24540    0.00000   -0.11360  112.67000  110.77000  # c,c3h,c,hc
dihedral_coeff	12 at    0.56230   -0.30410   -0.40150    0.96720   -0.75660   -1.23310  112.67000  111.27000  # c,c3h,c,o3e
dihedral_coeff	13 at    0.56230   -0.30410   -0.40150    0.96720   -0.75660   -1.23310  112.67000  111.27000  # c,c3h,c,oc
dihedral_coeff	14 at   -2.74660    1.48770   -0.89550    0.56760    0.94500    0.07030  111.27000  104.50000  # c,c3h,o3e,c
dihedral_coeff	15 at   -1.82340    1.63930    0.51440   -0.77770    0.43400   -0.66530  104.50000  108.72800  # c,o3e,c3h,hc
dihedral_coeff	16 at   -2.74660    1.48770   -0.89550    0.56760    0.94500    0.07030  104.50000  111.27000  # c,oc,c,c1
dihedral_coeff	17 at    0.56760    0.94500    0.07030   -2.74660    1.48770   -0.89550  104.50000  111.27000  # c,oc,c,c3h
dihedral_coeff	18 at   -1.82340    1.63930    0.51440   -0.77770    0.43400   -0.66530  104.50000  108.72800  # c,oc,c,hc
dihedral_coeff	19 at   -1.82340    1.63930    0.51440   -0.77770    0.43400   -0.66530  104.50000  108.72800  # c,oc,c1,hc
dihedral_coeff	20 at    0.38860   -0.31390    0.13890    0.38860   -0.31390    0.13890  112.67000  112.67000  # c1,c,c,c1
dihedral_coeff	21 at   -0.24540    0.00000   -0.11360    0.31130    0.45160   -0.19880  112.67000  110.77000  # c1,c,c,hc
dihedral_coeff	22 at   -2.74660    1.48770   -0.89550    0.56760    0.94500    0.07030  111.27000  104.50000  # c1,c,oc,c1
dihedral_coeff	23 at    0.00000    0.00000    0.00000    0.00000    0.00000    0.00000  111.27000  109.00000  # c1,c,oh,h
dihedral_coeff	24 at   -0.77770    0.43400   -0.66530   -1.82340    1.63930    0.51440  104.50000  108.72800  # c1,oc,c,hc
dihedral_coeff	25 at   -1.82340    1.63930    0.51440   -0.77770    0.43400   -0.66530  104.50000  108.72800  # c3h,o3e,c,hc
dihedral_coeff	26 at    0.00000    0.00000    0.00000    0.00000    0.00000    0.00000  109.00000  108.72800  # h,oh,c,hc
dihedral_coeff	27 at   -0.80850    0.55690   -0.24660   -0.80850    0.55690   -0.24660  110.77000  110.77000  # hc,c,c,hc
dihedral_coeff	28 at    2.36680    2.49200   -1.01220   -0.18920    0.49180    0.72730  110.77000  111.27000  # hc,c,c,oc
dihedral_coeff	29 at   -0.80850    0.55690   -0.24660   -0.80850    0.55690   -0.24660  110.77000  110.77000  # hc,c,c1,hc
dihedral_coeff	30 at    2.36680    2.49200   -1.01220   -0.18920    0.49180    0.72730  110.77000  111.27000  # hc,c,c1,oc
dihedral_coeff	31 at   -0.80850    0.55690   -0.24660   -0.80850    0.55690   -0.24660  110.77000  110.77000  # hc,c,c3h,hc
dihedral_coeff	32 at    2.36680    2.49200   -1.01220   -0.18920    0.49180    0.72730  110.77000  111.27000  # hc,c,c3h,o3e
dihedral_coeff	33 at    2.36680    2.49200   -1.01220   -0.18920    0.49180    0.72730  110.77000  111.27000  # hc,c1,c,oc
dihedral_coeff	34 at    2.36680    2.49200   -1.01220   -0.18920    0.49180    0.72730  110.77000  111.27000  # hc,c1,c,oh
dihedral_coeff	35 at    2.36680    2.49200   -1.01220   -0.18920    0.49180    0.72730  110.77000  111.27000  # hc,c3h,c,o3e
dihedral_coeff	36 at    2.36680    2.49200   -1.01220   -0.18920    0.49180    0.72730  110.77000  111.27000  # hc,c3h,c,oc
dihedral_coeff	37 at    0.55110    0.97370   -0.66730    0.55110    0.97370   -0.66730  111.27000  111.27000  # o3e,c3h,c,oc
dihedral_coeff	38 at    0.55110    0.97370   -0.66730    0.55110    0.97370   -0.66730  111.27000  111.27000  # oc,c,c1,oc
dihedral_coeff	39 at    0.55110    0.97370   -0.66730    0.55110    0.97370   -0.66730  111.27000  111.27000  # oc,c1,c,oh

# AngleAngleTorsion Coeffs

dihedral_coeff	 1 aat  -16.16400  112.67000  110.77000  # c,c,c,hc
dihedral_coeff	 2 aat  -29.04200  112.67000  111.27000  # c,c,c,oc
dihedral_coeff	 3 aat  -22.04500  112.67000  112.67000  # c,c,c1,c
dihedral_coeff	 4 aat  -16.16400  112.67000  110.77000  # c,c,c1,hc
dihedral_coeff	 5 aat  -19.00590  111.27000  104.50000  # c,c,oc,c
dihedral_coeff	 6 aat  -19.00590  111.27000  104.50000  # c,c,oc,c1
dihedral_coeff	 7 aat  -16.16400  112.67000  110.77000  # c,c1,c,hc
dihedral_coeff	 8 aat  -29.04200  112.67000  111.27000  # c,c1,c,oc
dihedral_coeff	 9 aat  -29.04200  112.67000  111.27000  # c,c1,c,oh
dihedral_coeff	10 aat  -19.00590  111.27000  104.50000  # c,c1,oc,c
dihedral_coeff	11 aat  -16.16400  112.67000  110.77000  # c,c3h,c,hc
dihedral_coeff	12 aat  -29.04200  112.67000  111.27000  # c,c3h,c,o3e
dihedral_coeff	13 aat  -29.04200  112.67000  111.27000  # c,c3h,c,oc
dihedral_coeff	14 aat  -19.00590  111.27000  104.50000  # c,c3h,o3e,c
dihedral_coeff	15 aat  -16.44380  104.50000  108.72800  # c,o3e,c3h,hc
dihedral_coeff	16 aat  -19.00590  104.50000  111.27000  # c,oc,c,c1
dihedral_coeff	17 aat  -19.00590  104.50000  111.27000  # c,oc,c,c3h
dihedral_coeff	18 aat  -16.44380  104.50000  108.72800  # c,oc,c,hc
dihedral_coeff	19 aat  -16.44380  104.50000  108.72800  # c,oc,c1,hc
dihedral_coeff	20 aat  -22.04500  112.67000  112.67000  # c1,c,c,c1
dihedral_coeff	21 aat  -16.16400  112.67000  110.77000  # c1,c,c,hc
dihedral_coeff	22 aat  -19.00590  111.27000  104.50000  # c1,c,oc,c1
dihedral_coeff	23 aat    0.00000  111.27000  109.00000  # c1,c,oh,h
dihedral_coeff	24 aat  -16.44380  104.50000  108.72800  # c1,oc,c,hc
dihedral_coeff	25 aat  -16.44380  104.50000  108.72800  # c3h,o3e,c,hc
dihedral_coeff	26 aat    0.00000  109.00000  108.72800  # h,oh,c,hc
dihedral_coeff	27 aat  -12.56400  110.77000  110.77000  # hc,c,c,hc
dihedral_coeff	28 aat  -20.20060  110.77000  111.27000  # hc,c,c,oc
dihedral_coeff	29 aat  -12.56400  110.77000  110.77000  # hc,c,c1,hc
dihedral_coeff	30 aat  -20.20060  110.77000  111.27000  # hc,c,c1,oc
dihedral_coeff	31 aat  -12.56400  110.77000  110.77000  # hc,c,c3h,hc
dihedral_coeff	32 aat  -20.20060  110.77000  111.27000  # hc,c,c3h,o3e
dihedral_coeff	33 aat  -20.20060  110.77000  111.27000  # hc,c1,c,oc
dihedral_coeff	34 aat  -20.20060  110.77000  111.27000  # hc,c1,c,oh
dihedral_coeff	35 aat  -20.20060  110.77000  111.27000  # hc,c3h,c,o3e
dihedral_coeff	36 aat  -20.20060  110.77000  111.27000  # hc,c3h,c,oc
dihedral_coeff	37 aat  -14.04840  111.27000  111.27000  # o3e,c3h,c,oc
dihedral_coeff	38 aat  -14.04840  111.27000  111.27000  # oc,c,c1,oc
dihedral_coeff	39 aat  -14.04840  111.27000  111.27000  # oc,c1,c,oh

# BondBond13 Coeffs

dihedral_coeff	 1 bb13    0.00000    1.53000    1.10100  # c,c,c,hc
dihedral_coeff	 2 bb13    0.00000    1.53000    1.42000  # c,c,c,oc
dihedral_coeff	 3 bb13    0.00000    1.53000    1.53000  # c,c,c1,c
dihedral_coeff	 4 bb13    0.00000    1.53000    1.10100  # c,c,c1,hc
dihedral_coeff	 5 bb13    0.00000    1.53000    1.42000  # c,c,oc,c
dihedral_coeff	 6 bb13    0.00000    1.53000    1.42000  # c,c,oc,c1
dihedral_coeff	 7 bb13    0.00000    1.53000    1.10100  # c,c1,c,hc
dihedral_coeff	 8 bb13    0.00000    1.53000    1.42000  # c,c1,c,oc
dihedral_coeff	 9 bb13    0.00000    1.53000    1.42000  # c,c1,c,oh
dihedral_coeff	10 bb13    0.00000    1.53000    1.42000  # c,c1,oc,c
dihedral_coeff	11 bb13    0.00000    1.53000    1.10100  # c,c3h,c,hc
dihedral_coeff	12 bb13    0.00000    1.53000    1.42000  # c,c3h,c,o3e
dihedral_coeff	13 bb13    0.00000    1.53000    1.42000  # c,c3h,c,oc
dihedral_coeff	14 bb13    0.00000    1.53000    1.42000  # c,c3h,o3e,c
dihedral_coeff	15 bb13    0.00000    1.42000    1.10100  # c,o3e,c3h,hc
dihedral_coeff	16 bb13    0.00000    1.42000    1.53000  # c,oc,c,c1
dihedral_coeff	17 bb13    0.00000    1.42000    1.53000  # c,oc,c,c3h
dihedral_coeff	18 bb13    0.00000    1.42000    1.10100  # c,oc,c,hc
dihedral_coeff	19 bb13    0.00000    1.42000    1.10100  # c,oc,c1,hc
dihedral_coeff	20 bb13    0.00000    1.53000    1.53000  # c1,c,c,c1
dihedral_coeff	21 bb13    0.00000    1.53000    1.10100  # c1,c,c,hc
dihedral_coeff	22 bb13    0.00000    1.53000    1.42000  # c1,c,oc,c1
dihedral_coeff	23 bb13    0.00000    1.53000    0.96000  # c1,c,oh,h
dihedral_coeff	24 bb13    0.00000    1.42000    1.10100  # c1,oc,c,hc
dihedral_coeff	25 bb13    0.00000    1.42000    1.10100  # c3h,o3e,c,hc
dihedral_coeff	26 bb13    0.00000    0.96000    1.10100  # h,oh,c,hc
dihedral_coeff	27 bb13    0.00000    1.10100    1.10100  # hc,c,c,hc
dihedral_coeff	28 bb13    0.00000    1.10100    1.42000  # hc,c,c,oc
dihedral_coeff	29 bb13    0.00000    1.10100    1.10100  # hc,c,c1,hc
dihedral_coeff	30 bb13    0.00000    1.10100    1.42000  # hc,c,c1,oc
dihedral_coeff	31 bb13    0.00000    1.10100    1.10100  # hc,c,c3h,hc
dihedral_coeff	32 bb13    0.00000    1.10100    1.42000  # hc,c,c3h,o3e
dihedral_coeff	33 bb13    0.00000    1.10100    1.42000  # hc,c1,c,oc
dihedral_coeff	34 bb13    0.00000    1.10100    1.42000  # hc,c1,c,oh
dihedral_coeff	35 bb13    0.00000    1.10100    1.42000  # hc,c3h,c,o3e
dihedral_coeff	36 bb13    0.00000    1.10100    1.42000  # hc,c3h,c,oc
dihedral_coeff	37 bb13    0.00000    1.42000    1.42000  # o3e,c3h,c,oc
dihedral_coeff	38 bb13    0.00000    1.42000    1.42000  # oc,c,c1,oc
dihedral_coeff	39 bb13    0.00000    1.42000    1.42000  # oc,c1,c,oh

# Improper Coeffs

improper_coeff	 1    0.00000    0.00000  # c,c,c,hc
improper_coeff	 2    0.00000    0.00000  # c,c,c1,hc
improper_coeff	 3    0.00000    0.00000  # c,c,hc,c1
improper_coeff	 4    0.00000    0.00000  # c,c,hc,hc
improper_coeff	 5    0.00000    0.00000  # c,c,hc,oc
improper_coeff	 6    0.00000    0.00000  # c,c,oc,hc
improper_coeff	 7    0.00000    0.00000  # c,c1,hc,hc
improper_coeff	 8    0.00000    0.00000  # c,c1,hc,oc
improper_coeff	 9    0.00000    0.00000  # c,c1,hc,oh
improper_coeff	10    0.00000    0.00000  # c,c1,oc,hc
improper_coeff	11    0.00000    0.00000  # c,c3h,hc,hc
improper_coeff	12    0.00000    0.00000  # c,c3h,hc,o3e
improper_coeff	13    0.00000    0.00000  # c,c3h,hc,oc
improper_coeff	14    0.00000    0.00000  # c,c3h,o3e,hc
improper_coeff	15    0.00000    0.00000  # c,hc,hc,o3e
improper_coeff	16    0.00000    0.00000  # c,hc,hc,oc
improper_coeff	17    0.00000    0.00000  # c,hc,hc,oh
improper_coeff	18    0.00000    0.00000  # c1,c,c,c
improper_coeff	19    0.00000    0.00000  # c1,c,c,hc
improper_coeff	20    0.00000    0.00000  # c1,c,c,oc
improper_coeff	21    0.00000    0.00000  # c1,c,oc,hc
improper_coeff	22    0.00000    0.00000  # c3h,c,c,hc
improper_coeff	23    0.00000    0.00000  # c3h,c,c,o3e
improper_coeff	24    0.00000    0.00000  # c3h,c,hc,o3e
improper_coeff	25    0.00000    0.00000  # c3h,c,o3e,hc

# AngleAngle Coeffs

improper_coeff	 1 aa    0.00000    0.00000    0.11840  112.67000  110.77000  110.77000  # c,c,c,hc
improper_coeff	 2 aa    0.00000   -1.31990    0.00000  112.67000  110.77000  110.77000  # c,c,c1,hc
improper_coeff	 3 aa    0.00000   -1.31990    0.00000  110.77000  112.67000  110.77000  # c,c,hc,c1
improper_coeff	 4 aa    0.00000   -0.48250    0.00000  110.77000  110.77000  107.66000  # c,c,hc,hc
improper_coeff	 5 aa    3.91770    2.59260    0.00000  110.77000  111.27000  108.72800  # c,c,hc,oc
improper_coeff	 6 aa    0.00000    2.59260    3.91770  111.27000  110.77000  108.72800  # c,c,oc,hc
improper_coeff	 7 aa    0.27380   -0.48250    0.27380  110.77000  110.77000  107.66000  # c,c1,hc,hc
improper_coeff	 8 aa    3.91770    2.59260    0.16890  110.77000  111.27000  108.72800  # c,c1,hc,oc
improper_coeff	 9 aa    3.91770    2.59260    0.16890  110.77000  111.27000  108.72800  # c,c1,hc,oh
improper_coeff	10 aa    0.16890    2.59260    3.91770  111.27000  110.77000  108.72800  # c,c1,oc,hc
improper_coeff	11 aa    0.00000   -0.48250    0.00000  110.77000  110.77000  107.66000  # c,c3h,hc,hc
improper_coeff	12 aa    3.91770    2.59260    0.00000  110.77000  111.27000  108.72800  # c,c3h,hc,o3e
improper_coeff	13 aa    0.00000    2.59260    0.00000  110.77000  111.27000  108.72800  # c,c3h,hc,oc
improper_coeff	14 aa    0.00000    2.59260    3.91770  111.27000  110.77000  108.72800  # c,c3h,o3e,hc
improper_coeff	15 aa    2.42590    2.42590    2.12830  107.66000  108.72800  108.72800  # c,hc,hc,o3e
improper_coeff	16 aa    2.42590    2.42590    2.12830  107.66000  108.72800  108.72800  # c,hc,hc,oc
improper_coeff	17 aa    2.42590    2.42590    2.12830  107.66000  108.72800  108.72800  # c,hc,hc,oh
improper_coeff	18 aa   -0.17290   -0.17290   -0.17290  112.67000  112.67000  112.67000  # c1,c,c,c
improper_coeff	19 aa    0.00000    0.00000    0.11840  112.67000  110.77000  110.77000  # c1,c,c,hc
improper_coeff	20 aa   -0.83300   -0.83300   -3.57440  112.67000  111.27000  111.27000  # c1,c,c,oc
improper_coeff	21 aa    0.00000    2.59260    3.91770  111.27000  110.77000  108.72800  # c1,c,oc,hc
improper_coeff	22 aa    0.00000    0.00000    0.11840  112.67000  110.77000  110.77000  # c3h,c,c,hc
improper_coeff	23 aa   -0.83300   -0.83300   -3.57440  112.67000  111.27000  111.27000  # c3h,c,c,o3e
improper_coeff	24 aa    3.91770    2.59260    0.00000  110.77000  111.27000  108.72800  # c3h,c,hc,o3e
improper_coeff	25 aa    0.00000    2.59260    3.91770  111.27000  110.77000  108.72800  # c3h,c,o3e,hc

# ------------------------------- OPT Section -------------------------------
minimize 1.0e-5 1.0e-7 100000 400000
PPPM initialization ...
  using 12-bit tables for long-range coulomb (../kspace.cpp:342)
  G vector (1/distance) = 0.11665513
  grid = 4 4 4
  stencil order = 5
  estimated absolute RMS force accuracy = 0.24122568
  estimated relative force accuracy = 0.00072644397
  using double precision KISS FFT
  3d grid and FFT values/proc = 294 4
Generated 28 of 28 mixed pair_coeff terms from sixthpower/sixthpower mixing rule
Neighbor list info ...
  update: every = 1 steps, delay = 0 steps, check = yes
  max neighbors/atom: 2000, page size: 100000
  master list distance cutoff = 12
  ghost atom cutoff = 12
  binsize = 6, bins = 7 7 7
  1 neighbor lists, perpetual/occasional/extra = 1 0 0
  (1) pair lj/class2/coul/long, perpetual
      attributes: half, newton on
      pair build: half/bin/newton
      stencil: half/bin/3d
      bin: standard
WARNING: Inconsistent image flags (../domain.cpp:815)
  PPPM/cg optimization cutoff: 1e-05
  Total charged atoms: 100.0%
  Min/max charged atoms/proc: 100.0% 100.0%
Per MPI rank memory allocation (min/avg/max) = 16.62 | 16.62 | 16.63 Mbytes
   Step          Temp          E_pair         E_mol          TotEng         Press     
         0   590.86377      897.25628      11315.839      21035.21      -232.90118    
       112   590.86377      164.59691      3132.9982      12119.71       4135.1055    
Loop time of 1.15654 on 24 procs for 112 steps with 5010 atoms

99.2% CPU use with 24 MPI tasks x no OpenMP threads

Minimization stats:
  Stopping criterion = linesearch alpha is zero
  Energy initial, next-to-last, final = 
      12213.0955827968   3297.59513397391   3297.59513397391
  Force two-norm initial, final = 3324.3709 52.164869
  Force max component initial, final = 136.48056 7.4681131
  Final line search alpha, max atom move = 2.8632351e-12 2.1382964e-11
  Iterations, force evaluations = 112 282

MPI task timing breakdown:
Section |  min time  |  avg time  |  max time  |%varavg| %total
---------------------------------------------------------------
Pair    | 0.58776    | 0.71529    | 0.84554    |   7.8 | 61.85
Bond    | 0.16989    | 0.19055    | 0.21162    |   2.3 | 16.48
Kspace  | 0.063135   | 0.19727    | 0.33409    |  15.6 | 17.06
Neigh   | 0.008304   | 0.0083428  | 0.0083649  |   0.0 |  0.72
Comm    | 0.036829   | 0.037856   | 0.039251   |   0.4 |  3.27
Output  | 0          | 0          | 0          |   0.0 |  0.00
Modify  | 0          | 0          | 0          |   0.0 |  0.00
Other   |            | 0.00722    |            |       |  0.62

Nlocal:         208.75 ave         228 max         187 min
Histogram: 1 0 3 2 4 4 4 4 0 2
Nghost:        4669.08 ave        4733 max        4602 min
Histogram: 3 0 2 2 6 1 2 4 3 1
Neighs:        69416.6 ave       82907 max       58070 min
Histogram: 2 2 3 2 6 2 4 0 2 1

Total # of neighbors = 1665998
Ave neighs/atom = 332.53453
Ave special neighs/atom = 6.1964072
Neighbor list builds = 3
Dangerous builds = 0
# ------------------------------- Run Section -------------------------------
#

timestep 0.25
neighbor        2.0 bin
neigh_modify    delay 0 every 1 check yes

thermo_style custom step temp pe evdwl ecoul ebond eangle edihed eimp density vol
thermo 20000

variable        Rho equal density
variable        Temp equal temp
variable        Volume equal vol
fix             fDENS all ave/time 100 100 300000 v_Temp v_Rho v_Volume file temp_vs_density.txt
fix def1 all print 100 "${Temp} ${Rho} ${Volume} " file press.dat screen no

label           loop
variable        a loop 26
variable        b equal 600-20*($a-1)
variable        b equal 600-20*(1-1)
fix             fMOM all momentum 100 linear 1 1 1 angular
fix             fNPT all npt temp $b $b $(100.0*dt) iso 1 1 $(100.0*dt)
fix             fNPT all npt temp 600 $b $(100.0*dt) iso 1 1 $(100.0*dt)
fix             fNPT all npt temp 600 600 $(100.0*dt) iso 1 1 $(100.0*dt)
fix             fNPT all npt temp 600 600 25 iso 1 1 $(100.0*dt)
fix             fNPT all npt temp 600 600 25 iso 1 1 25
run             1200000
PPPM initialization ...
  using 12-bit tables for long-range coulomb (../kspace.cpp:342)
  G vector (1/distance) = 0.11665513
  grid = 4 4 4
  stencil order = 5
  estimated absolute RMS force accuracy = 0.24122568
  estimated relative force accuracy = 0.00072644397
  using double precision KISS FFT
  3d grid and FFT values/proc = 294 4
Generated 28 of 28 mixed pair_coeff terms from sixthpower/sixthpower mixing rule
WARNING: Inconsistent image flags (../domain.cpp:815)
Per MPI rank memory allocation (min/avg/max) = 15.49 | 15.5 | 15.5 Mbytes
   Step          Temp          PotEng         E_vdwl         E_coul         E_bond        E_angle        E_dihed        E_impro        Density         Volume    
       112   590.86377      3297.5951     -1183.0884      2488.4295      267.43613      8720.1677     -5814.7968     -39.808759      0.93009739     54483.448    
     20000   606.45397      12448.834     -369.67763      2517.7716      3704.9418      13066.3       -5264.6019     -64.977842      0.8984541      56402.339    
     40000   604.67439      12464.578     -502.9356       2530.016       3713.9623      13147.356     -5230.2783     -54.881026      0.92407007     54838.82     
     60000   597.11579      12327.825     -461.21477      2533.9931      3693.5981      13066.571     -5302.6371     -61.328365      0.92163202     54983.889    
     80000   597.47066      12319.285     -464.00157      2526.2979      3758.5905      13020.059     -5316.359      -64.256563      0.93022337     54476.069    
    100000   601.18311      12157.098     -512.18961      2502.1948      3749.1459      13028.88      -5406.7911     -64.558407      0.93553132     54166.987    
    120000   598.20384      12323.575     -401.71946      2502.7956      3676.8973      13094.448     -5338.6818     -68.467211      0.91533866     55361.927    
    140000   602.20361      12293.92      -403.62963      2528.4096      3657.486       12975.825     -5261.5635     -61.665186      0.9191124      55134.619    
    160000   597.3357       12250.342     -526.13882      2529.901       3770.7858      13056.168     -5372.1286     -67.918739      0.93610112     54134.015    
    180000   600.70472      12146.488     -483.38744      2518.2996      3601.8421      13003.324     -5293.8176     -59.323419      0.922674       54921.795    
    200000   614.66658      12172.956     -452.21119      2522.4871      3714.7011      12924.862     -5326.6683     -69.475837      0.90744689     55843.392    
    220000   596.67736      12313.779     -399.19279      2515.8349      3717.813       12926.416     -5238.2434     -68.103884      0.91778485     55214.37     
    240000   599.3229       12221.811     -555.56204      2490.1383      3719.0846      13132.992     -5358.8228     -65.730039      0.93195559     54374.814    
    260000   605.07894      12334.371     -419.98604      2508.0015      3677.6204      13118.951     -5339.2312     -69.86219       0.91998041     55082.6      
    280000   583.0122       12412.543     -381.54949      2524.1814      3631.5141      13099.882     -5250.7158     -69.481817      0.91956147     55107.695    
    300000   598.70401      12315.885     -441.72532      2512.1564      3840.4494      12920.947     -5313.9731     -60.909175      0.94079931     53863.679    
    320000   606.73566      12198.139     -477.4321       2503.9896      3655.9942      13063.924     -5337.7128     -70.400184      0.9262603      54709.148    
    340000   591.84635      11981.963     -485.92881      2508.4082      3589.7119      12968.236     -5399.8606     -57.443333      0.92293325     54906.368    
    360000   599.65871      12327.129     -477.13175      2508.356       3744.0332      13068.736     -5325.2364     -50.610335      0.93393023     54259.848    
    380000   613.51716      12228.488     -498.89111      2508.8889      3696.3069      12928.491     -5204.1583     -62.345332      0.92077747     55034.918    
    400000   592.87435      12104.766     -421.37387      2512.2765      3593.0615      13009.105     -5380.2169     -65.736812      0.92512006     54776.579    
    420000   590.12857      12266.127     -469.51283      2506.9576      3757.4281      13001.98      -5321.85       -68.836733      0.94867924     53416.276    
    440000   590.4623       12292.926     -478.97314      2508.1483      3753.2363      12941.937     -5222.0185     -70.830393      0.92379759     54854.995    
    460000   594.38495      12270.888     -418.51582      2507.4327      3743.0851      12968.9       -5323.0437     -66.385079      0.92032343     55062.069    
    480000   596.09755      12210.364     -401.32413      2503.3425      3647.6172      12948.167     -5282.8604     -64.29951       0.91995209     55084.295    
    500000   598.97906      12312.732     -528.78278      2498.2516      3728.3207      13201.768     -5382.5147     -64.059732      0.92822634     54593.271    
    520000   595.04251      12043.37      -445.66016      2485.0988      3580.1688      12956.845     -5323.4551     -68.667824      0.9191343      55133.306    
    540000   605.51831      12341.141     -417.261        2512.7187      3663.7918      13043.595     -5258.6812     -63.430527      0.93358162     54280.109    
    560000   595.99014      12170.874     -449.45609      2504.8052      3563.4212      13129.947     -5363.6413     -73.873519      0.91703383     55259.589    
    580000   588.5569       12275.056     -394.92585      2510.3392      3696.3373      12955.986     -5283.4724     -69.45408       0.91857826     55166.679    
    600000   594.40855      12275.267     -514.67449      2493.4849      3722.7745      13085.238     -5314.8607     -55.97039       0.93006378     54485.416    
    620000   598.20777      12381.444     -399.85424      2521.7225      3648.2747      13131.404     -5309.3116     -70.3607        0.91149733     55595.24     
    640000   612.5751       12153.061     -454.14894      2518.9654      3528.7458      12999.578     -5241.1897     -57.475067      0.93164439     54392.978    
    660000   592.5275       12162.544     -565.64653      2505.3852      3660.2192      13082.842     -5322.5521     -56.933621      0.93443055     54230.796    
    680000   604.61448      12276.558     -450.85921      2525.3278      3783.8227      13001.403     -5375.2552     -67.064828      0.92217559     54951.479    
    700000   602.13759      12384.824     -462.30641      2492.0587      3826.0065      13134.897     -5397.4341     -67.523394      0.91973259     55097.441    
    720000   591.07473      12291.866     -421.72368      2500.0811      3655.4024      13076.821     -5321.0435     -56.295636      0.91420349     55430.671    
    740000   590.54893      12253.976     -496.38984      2523.413       3749.058       13018.135     -5330.3632     -68.791468      0.92360085     54866.68     
    760000   601.93396      12353.542     -487.90139      2527.6082      3852.6828      12949.192     -5287.6792     -59.951045      0.92396307     54845.171    
    780000   609.85876      12403.432     -434.05531      2541.3058      3783.9153      13052.726     -5327.8639     -71.422197      0.91604286     55319.368    
    800000   596.4609       12219.285     -541.04756      2498.076       3836.8564      12961.872     -5325.2753     -70.841822      0.93375936     54269.777    
    820000   597.59711      12193.019     -444.57555      2532.2599      3644.135       13062.531     -5395.2707     -65.587679      0.93428082     54239.487    
    840000   604.80483      12309.906     -459.52702      2496.4786      3679.2567      13074.16      -5274.6461     -64.475564      0.91156586     55591.06     
    860000   607.32196      12283.57      -414.57642      2520.1655      3574.7504      12945.37      -5135.1429     -66.090953      0.92007284     55077.066    
    880000   585.49051      12488.485     -464.03745      2540.957       3871.5675      12963.527     -5211.455      -70.61341       0.91868167     55160.47     
    900000   596.14077      12280.325     -493.28028      2526.6991      3725.7548      12993.496     -5265.9635     -66.542056      0.92910742     54541.5      
    920000   597.44054      12206.524     -560.17736      2520.6037      3710.5567      13075.016     -5338.6234     -60.891252      0.93002987     54487.403    
    940000   610.54397      12337.373     -456.11257      2532.5899      3714.6203      13054.696     -5295.1648     -72.840875      0.92738719     54642.67     
    960000   610.18912      12230.851     -594.1946       2522.5893      3734.5963      13058.183     -5276.2544     -72.893613      0.94935562     53378.219    
    980000   591.44506      12351.184     -435.24979      2502.8517      3775.4899      13008.331     -5297.1571     -62.683525      0.93566691     54159.137    
   1000000   609.75232      12200.954     -498.32018      2482.5739      3701.7982      13021.847     -5300.2551     -64.856238      0.92773847     54621.98     
   1020000   603.92959      12297.034     -452.13653      2513.6428      3708.1578      13023.338     -5289.1792     -65.419292      0.93039999     54465.727    
   1040000   597.9352       12235.42      -453.55441      2488.6277      3690.6102      13054.105     -5338.2671     -66.447792      0.93742864     54057.355    
   1060000   588.66867      12264.845     -523.94623      2500.3914      3680.2518      13088.221     -5278.24       -61.490762      0.93584105     54149.059    
   1080000   598.01595      12134.135     -533.18421      2501.9234      3673.6789      12994.041     -5293.363      -67.886145      0.92693895     54669.094    
   1100000   603.99968      12239.832     -448.14157      2499.5189      3638.6529      13050.929     -5300.9618     -59.048133      0.92097604     55023.052    
   1120000   603.09438      12236.775     -500.58371      2504.0182      3611.3752      13185.025     -5359.8241     -62.331735      0.93097712     54431.963    
   1140000   601.41376      12509.52      -485.57916      2519.2153      3858.4737      13133.266     -5304.6185     -70.889827      0.92717577     54655.13     
   1160000   596.01776      12076.626     -461.96699      2507.703       3655.9565      12861.2       -5282.0612     -64.262164      0.92864399     54568.718    
   1180000   599.50194      12132.913     -455.18739      2524.1591      3606.2391      12962.109     -5304.236      -58.963336      0.93229815     54354.835    
   1200000   602.81876      12330.831     -463.83847      2527.0129      3658.1716      13134.286     -5325.5963     -57.454344      0.93012701     54481.713    
   1200112   607.99292      12357.755     -477.20597      2508.6513      3626.5589      13271.377     -5353.2199     -76.546919      0.92766914     54626.062    
Loop time of 3895.94 on 24 procs for 1200000 steps with 5010 atoms

Performance: 6.653 ns/day, 3.607 hours/ns, 308.013 timesteps/s, 1.543 Matom-step/s
99.5% CPU use with 24 MPI tasks x no OpenMP threads

MPI task timing breakdown:
Section |  min time  |  avg time  |  max time  |%varavg| %total
---------------------------------------------------------------
Pair    | 1829.9     | 2052.6     | 2268.5     | 272.8 | 52.69
Bond    | 648.96     | 719.71     | 815.76     | 130.0 | 18.47
Kspace  | 645.86     | 899.13     | 1109.5     | 433.2 | 23.08
Neigh   | 48.92      | 48.98      | 49.041     |   0.5 |  1.26
Comm    | 127.01     | 129.01     | 131.62     |  11.9 |  3.31
Output  | 0.0098699  | 0.010465   | 0.0235     |   2.7 |  0.00
Modify  | 32.32      | 33.991     | 35.42      |  16.2 |  0.87
Other   |            | 12.5       |            |       |  0.32

Nlocal:         208.75 ave         227 max         188 min
Histogram: 3 1 2 1 2 4 3 2 4 2
Nghost:        4618.71 ave        4657 max        4582 min
Histogram: 3 2 4 1 2 2 3 2 3 2
Neighs:          69341 ave       79829 max       61169 min
Histogram: 2 5 3 2 4 2 0 2 3 1

Total # of neighbors = 1664183
Ave neighs/atom = 332.17226
Ave special neighs/atom = 6.1964072
Neighbor list builds = 16524
Dangerous builds = 0
unfix           fNPT
unfix           fMOM
next            a
jump            SELF loop
variable        a loop 26
variable        b equal 600-20*($a-1)
variable        b equal 600-20*(2-1)
fix             fMOM all momentum 100 linear 1 1 1 angular
fix             fNPT all npt temp $b $b $(100.0*dt) iso 1 1 $(100.0*dt)
fix             fNPT all npt temp 580 $b $(100.0*dt) iso 1 1 $(100.0*dt)
fix             fNPT all npt temp 580 580 $(100.0*dt) iso 1 1 $(100.0*dt)
fix             fNPT all npt temp 580 580 25 iso 1 1 $(100.0*dt)
fix             fNPT all npt temp 580 580 25 iso 1 1 25
run             1200000
PPPM initialization ...
  using 12-bit tables for long-range coulomb (../kspace.cpp:342)
  G vector (1/distance) = 0.11658148
  grid = 4 4 4
  stencil order = 5
  estimated absolute RMS force accuracy = 0.24132474
  estimated relative force accuracy = 0.00072674229
  using double precision KISS FFT
  3d grid and FFT values/proc = 294 4
Generated 28 of 28 mixed pair_coeff terms from sixthpower/sixthpower mixing rule
WARNING: Inconsistent image flags (../domain.cpp:815)
Per MPI rank memory allocation (min/avg/max) = 15.5 | 15.5 | 15.5 Mbytes
   Step          Temp          PotEng         E_vdwl         E_coul         E_bond        E_angle        E_dihed        E_impro        Density         Volume    
   1200112   607.99292      12357.754     -477.20597      2507.9302      3626.5589      13271.377     -5353.2199     -76.546919      0.92766914     54626.062    
   1220000   572.62181      11973.602     -455.72959      2513.8118      3594.1671      12756.652     -5229.6408     -65.729914      0.92980254     54500.725    
   1240000   579.70829      11885.503     -480.18841      2475.7867      3645.5817      12676.579     -5229.5214     -63.501038      0.9247461      54798.731    
   1260000   581.02819      11974.912     -482.05104      2484.6652      3588.5304      12910.829     -5330.0215     -56.273919      0.91003972     55684.286    
   1280000   580.05533      11809.286     -516.26008      2516.7139      3570.3648      12768.463     -5337.8359     -51.907901      0.91417897     55432.157    
   1300000   576.57443      11950.568     -511.15478      2511.0318      3589.9597      12852.213     -5280.4185     -70.615169      0.9315415      54398.985    
   1320000   569.2622       11994.386     -554.85018      2521.4002      3643.8547      12834.131     -5233.6217     -76.154833      0.93667916     54100.609    
   1340000   564.18572      12002.483     -506.1979       2501.5196      3569.1303      13036.14      -5391.3911     -68.004327      0.9372353      54068.506    
   1360000   570.29576      11897.575     -578.39185      2499.3753      3568.6162      12910.989     -5298.9842     -63.744531      0.94723644     53497.638    
   1380000   577.79211      11981.728     -480.23279      2510.259       3604.4789      12923.673     -5366.6816     -69.43204       0.92507788     54779.077    
   1400000   582.27518      11990.769     -556.10579      2514.8709      3597.7953      12987.262     -5351.0883     -62.450713      0.92530145     54765.841    
   1420000   575.30595      12011.388     -463.62286      2480.2774      3547.402       12952.279     -5303.222      -62.39743       0.92745294     54638.797    
   1440000   588.81947      12128.849     -430.87071      2517.9945      3568.7295      12966.935     -5291.8649     -62.826679      0.92355947     54869.138    
   1460000   580.35909      11859.808     -511.96935      2517.9517      3493.0041      12944.957     -5377.2898     -66.15545       0.91076417     55639.993    
   1480000   573.11301      11850.21      -531.77498      2484.823       3574.302       12933.11      -5405.2331     -64.481397      0.93072824     54446.518    
   1500000   587.55765      12145.238     -459.67494      2511.4779      3684.5439      12846.28      -5237.5037     -60.189602      0.93561461     54162.165    
   1520000   589.93808      11988.157     -491.09348      2491.1325      3627.2487      12923.065     -5358.1089     -64.426266      0.92587215     54732.084    
   1540000   577.99339      12044.976     -458.33513      2514.5719      3612.2642      13009.204     -5436.2858     -56.143048      0.92874509     54562.778    
   1560000   570.50797      11971.972     -521.37474      2532.4516      3608.5015      12868.23      -5308.7512     -66.503891      0.93845963     53997.967    
   1580000   573.24679      12121.191     -536.82119      2515.6719      3605.8371      13033.836     -5283.5505     -73.325594      0.93942029     53942.749    
   1600000   579.603        12109.893     -392.55451      2514.1182      3563.0287      12909.022     -5277.0666     -65.801059      0.91446106     55415.058    
   1620000   581.76166      12032.289     -468.88009      2534.6362      3656.3061      12797.731     -5283.254      -64.672923      0.92127852     55004.987    
   1640000   585.03933      12025.06      -559.20065      2527.2687      3653.8399      12931.806     -5327.5446     -61.530756      0.91664272     55283.167    
   1660000   589.70492      11927.261     -552.70627      2504.5844      3526.5419      12987.241     -5331.0389     -68.69375       0.93361184     54278.353    
   1680000   588.82496      11862.575     -491.73599      2474.4816      3578.9023      12762.505     -5262.2244     -59.445973      0.92906536     54543.969    
   1700000   578.08861      11883.002     -453.21196      2486.3181      3465.3485      12925.441     -5341.03       -60.320386      0.93286674     54321.706    
   1720000   585.68731      11825.629     -546.48863      2486.8469      3543.9954      12818.967     -5279.6987     -57.905682      0.93393978     54259.293    
   1740000   582.99774      11879.892     -579.23554      2497.7594      3614.7708      12807.472     -5252.8922     -68.254503      0.94413274     53673.504    
   1760000   587.21452      12077.761     -453.42037      2504.8179      3660.2631      12827.373     -5261.9114     -59.393912      0.92762844     54628.459    
   1780000   572.50767      12000.021     -432.07658      2530.561       3552.2988      12939.738     -5382.9628     -68.841185      0.93298495     54314.823    
   1800000   578.34497      11857.507     -530.69032      2496.7522      3540.3649      12912.263     -5363.2928     -57.314577      0.94610826     53561.431    
   1820000   578.33054      11836.989     -508.79855      2504.9615      3505.5824      12831.859     -5304.3751     -50.889454      0.93500476     54197.491    
   1840000   570.25556      11958.336     -459.45004      2498.3331      3556.722       12882.888     -5316.9286     -63.509687      0.93274646     54328.711    
   1860000   573.71642      11843.137     -558.65899      2504.5769      3643.6351      12824.072     -5365.9386     -64.939818      0.94368566     53698.932    
   1880000   577.69509      11890.787     -508.21828      2501.0284      3480.554       13001.732     -5376.1904     -67.381923      0.94169955     53812.187    
   1900000   580.31422      11942.104     -500.47866      2493.6588      3580.2971      12915.785     -5349.2593     -58.504879      0.94090918     53857.39     
   1920000   582.12026      12026.645     -451.12946      2510.115       3655.3853      12829.688     -5311.0735     -65.407483      0.9233112      54883.893    
   1940000   585.21302      11795.717     -487.30382      2497.3327      3502.8269      12848.562     -5358.4811     -68.071951      0.93272523     54329.947    
   1960000   580.20435      11908.264     -561.23734      2516.5757      3622.6254      12959.116     -5424.6048     -64.336466      0.93211483     54365.525    
   1980000   587.98207      11948.73      -519.66207      2510.649       3558.2899      12992.611     -5389.8152     -63.645524      0.93073025     54446.401    
   2000000   579.16717      11938.692     -513.73713      2501.8427      3627.1334      12891.71      -5357.3807     -70.865843      0.91828693     55184.181    
   2020000   576.16074      11786.345     -626.94008      2487.6946      3590.2664      12924.373     -5383.2872     -66.284219      0.94062569     53873.622    
   2040000   601.21765      11818.123     -575.47511      2501.0132      3588.3942      12858.544     -5345.3479     -69.793333      0.9392454      53952.793    
   2060000   581.80192      11985.925     -474.31849      2511.6583      3668.2444      12734.791     -5248.9881     -65.532863      0.93577357     54152.964    
   2080000   590.90172      11944.212     -543.17112      2503.706       3669.7667      12807.524     -5278.2253     -74.840551      0.95207535     53225.737    
   2100000   579.95381      12003.253     -478.21839      2524.6964      3546.0616      12873.813     -5260.0866     -63.680469      0.93492262     54202.253    
   2120000   580.58921      11820.316     -522.92182      2515.266       3509.3009      12777.172     -5251.3383     -66.13079       0.93603547     54137.812    
   2140000   592.83588      12039.471     -435.06341      2523.8016      3583.5075      12902.008     -5320.1788     -75.613761      0.91916199     55131.645    
   2160000   584.31079      11842.084     -492.10675      2497.8829      3499.2661      12924.645     -5388.1316     -59.339741      0.93813206     54016.822    
   2180000   588.3126       11736.231     -446.40663      2475.9658      3508.3839      12757.722     -5353.0889     -66.379524      0.93666178     54101.612    
   2200000   588.19229      11859.088     -531.59051      2516.0834      3614.5531      12784.555     -5314.6763     -71.325786      0.95413764     53110.694    
   2220000   576.58137      11914.854     -453.78381      2526.9186      3518.3998      12925.096     -5396.7126     -65.94832       0.93041632     54464.772    
   2240000   582.82096      11894.005     -489.70198      2511.0429      3569.7588      12815.697     -5323.8097     -48.330581      0.92107006     55017.435    
   2260000   576.49809      11913.077     -514.74672      2501.5569      3612.6755      12807.1       -5296.3426     -57.261696      0.92214353     54953.39     
   2280000   574.34013      11710.119     -499.12549      2481.3741      3494.7166      12869.754     -5433.3374     -64.317237      0.95086575     53293.446    
   2300000   578.76236      12083.987     -523.45748      2531.9343      3682.1571      12911.577     -5314.5088     -64.500156      0.93601593     54138.942    
   2320000   570.10921      11994.855     -555.90329      2500.8483      3769.3295      12780.076     -5297.1022     -62.127686      0.93110405     54424.543    
   2340000   580.3732       11944.453     -502.92265      2492.3631      3617.8843      12854.997     -5320.0761     -57.505519      0.92398441     54843.904    
   2360000   575.40142      11969.896     -479.02214      2495.441       3584.6572      12854.867     -5282.4342     -63.200727      0.92603445     54722.492    
   2380000   583.17642      11932.544     -434.95891      2504.1364      3600.4935      12771.074     -5299.0155     -68.841005      0.9301614      54479.698    
   2400000   581.13419      11928.007     -422.90009      2510.9099      3587.5159      12867.035     -5410.4088     -62.771712      0.92389261     54849.354    
   2400112   580.99233      11894.814     -445.37257      2513.1744      3573.7423      12833.359     -5365.1879     -73.632889      0.92535744     54762.528    
Loop time of 3948.18 on 24 procs for 1200000 steps with 5010 atoms

Performance: 6.565 ns/day, 3.656 hours/ns, 303.937 timesteps/s, 1.523 Matom-step/s
99.5% CPU use with 24 MPI tasks x no OpenMP threads

MPI task timing breakdown:
Section |  min time  |  avg time  |  max time  |%varavg| %total
---------------------------------------------------------------
Pair    | 1865.5     | 2069.2     | 2369.6     | 322.0 | 52.41
Bond    | 654.7      | 715.93     | 811.13     | 149.7 | 18.13
Kspace  | 586.2      | 942.47     | 1181.8     | 533.9 | 23.87
Neigh   | 44.573     | 44.611     | 44.643     |   0.3 |  1.13
Comm    | 126.57     | 128.89     | 131.66     |  12.2 |  3.26
Output  | 0.0044588  | 0.0050605  | 0.017953   |   3.8 |  0.00
Modify  | 32.485     | 34.309     | 36.021     |  16.9 |  0.87
Other   |            | 12.73      |            |       |  0.32

Nlocal:         208.75 ave         231 max         186 min
Histogram: 1 1 3 3 4 3 4 1 2 2
Nghost:        4602.79 ave        4681 max        4528 min
Histogram: 2 1 2 3 5 4 2 3 0 2
Neighs:        68864.1 ave       81285 max       58093 min
Histogram: 1 2 3 5 3 3 4 1 0 2

Total # of neighbors = 1652738
Ave neighs/atom = 329.88782
Ave special neighs/atom = 6.1964072
Neighbor list builds = 15212
Dangerous builds = 0
unfix           fNPT
unfix           fMOM
next            a
jump            SELF loop
variable        a loop 26
variable        b equal 600-20*($a-1)
variable        b equal 600-20*(3-1)
fix             fMOM all momentum 100 linear 1 1 1 angular
fix             fNPT all npt temp $b $b $(100.0*dt) iso 1 1 $(100.0*dt)
fix             fNPT all npt temp 560 $b $(100.0*dt) iso 1 1 $(100.0*dt)
fix             fNPT all npt temp 560 560 $(100.0*dt) iso 1 1 $(100.0*dt)
fix             fNPT all npt temp 560 560 25 iso 1 1 $(100.0*dt)
fix             fNPT all npt temp 560 560 25 iso 1 1 25
run             1200000
PPPM initialization ...
  using 12-bit tables for long-range coulomb (../kspace.cpp:342)
  G vector (1/distance) = 0.11651122
  grid = 4 4 4
  stencil order = 5
  estimated absolute RMS force accuracy = 0.24141896
  estimated relative force accuracy = 0.00072702602
  using double precision KISS FFT
  3d grid and FFT values/proc = 294 4
Generated 28 of 28 mixed pair_coeff terms from sixthpower/sixthpower mixing rule
WARNING: Inconsistent image flags (../domain.cpp:815)
Per MPI rank memory allocation (min/avg/max) = 15.5 | 15.5 | 15.5 Mbytes
   Step          Temp          PotEng         E_vdwl         E_coul         E_bond        E_angle        E_dihed        E_impro        Density         Volume    
   2400112   580.99233      11894.802     -445.37257      2512.4759      3573.7423      12833.359     -5365.1879     -73.632889      0.92535744     54762.528    
   2420000   553.46641      11523.903     -587.10218      2494.3668      3425.0873      12680.094     -5277.6137     -71.438367      0.93100319     54430.439    
   2440000   554.00642      11714.09      -526.89218      2504.0591      3495.1544      12759.817     -5307.1123     -71.469707      0.93582429     54150.029    
   2460000   552.16593      11393.711     -493.46444      2486.5068      3343.2112      12606.31      -5344.7623     -63.525344      0.95257996     53197.542    
   2480000   562.96055      11570.396     -552.64851      2467.4622      3428.7568      12805.95      -5377.4507     -61.577755      0.94048958     53881.418    
   2500000   555.34435      11693.053     -510.45398      2507.3325      3484.0764      12778.766     -5369.8358     -56.698689      0.92544211     54757.517    
   2520000   568.42043      11542.783     -537.27756      2538.9028      3371.8781      12705.048     -5337.1083     -59.397201      0.94767787     53472.719    
   2540000   553.18008      11442.856     -539.97057      2510.7964      3399.1655      12624.845     -5345.0589     -66.515621      0.93282237     54324.29     
   2560000   565.25621      11644.527     -494.15574      2502.9472      3465.3125      12735.898     -5361.1144     -64.969765      0.94062962     53873.397    
   2580000   554.88749      11522.407     -523.58697      2495.1001      3454.9927      12757.984     -5456.8623     -65.343501      0.94337026     53716.886    
   2600000   567.08535      11474.773     -528.65573      2483.4161      3482.0444      12693.742     -5453.8742     -62.502707      0.93857913     53991.092    
   2620000   559.92477      11456.048     -579.6197       2518.9141      3427.1516      12589.358     -5288.2145     -72.051825      0.94737891     53489.593    
   2640000   551.17455      11455.309     -584.60704      2517.2432      3364.2247      12640.977     -5285.6706     -57.503527      0.95486332     53070.331    
   2660000   561.4038       11540.536     -638.41452      2535.8287      3551.9446      12686.811     -5389.5956     -68.323499      0.94649548     53539.518    
   2680000   565.57199      11579.294     -611.72707      2502.5344      3509.6615      12758.926     -5372.3118     -67.658797      0.94085932     53860.244    
   2700000   560.92544      11678.747     -470.55853      2489.0556      3582.4931      12630.756     -5350.0162     -64.475797      0.9350813      54193.055    
   2720000   558.76209      11476.273     -519.63153      2500.084       3430.6489      12630.064     -5370.035      -58.364019      0.95040579     53319.238    
   2740000   563.64448      11624.259     -595.2934       2492.9185      3510.4103      12759.635     -5342.1563     -64.538493      0.94879326     53409.857    
   2760000   555.478        11531.54      -593.58779      2472.7128      3474.1893      12813.315     -5433.8361     -64.723764      0.94717747     53500.969    
   2780000   564.06342      11408.788     -636.8655       2521.4953      3399.4577      12597.469     -5270.7042     -62.549859      0.95192801     53233.976    
   2800000   556.95317      11590.917     -577.19163      2489.1084      3596.5602      12642.921     -5355.8907     -66.694808      0.9479181      53459.168    
   2820000   562.29596      11635.288     -545.0638       2503.298       3437.1049      12751.257     -5307.9979     -63.290925      0.93602818     54138.234    
   2840000   549.76281      11657.667     -554.49276      2481.19        3544.5432      12829.023     -5434.4089     -68.415262      0.93419806     54244.292    
   2860000   572.04002      11581.339     -599.0387       2514.8408      3537.439       12701.828     -5362.7363     -72.206935      0.95185964     53237.799    
   2880000   547.18893      11606.461     -556.85448      2516.5891      3626.6941      12658.679     -5429.4394     -69.233539      0.93364619     54276.355    
   2900000   554.0836       11563.986     -539.88023      2501.2111      3453.738       12765.12      -5410.8687     -67.252229      0.94498423     53625.141    
   2920000   560.1865       11587.286     -504.23219      2501.0556      3438.1442      12787.939     -5427.8053     -67.723396      0.945793       53579.285    
   2940000   550.51417      11481.012     -672.10709      2501.1297      3420.6495      12790.877     -5355.703      -63.922752      0.94816567     53445.209    
   2960000   564.48326      11549.297     -471.7239       2497.45        3388.7871      12715.818     -5380.6279     -60.683522      0.94553626     53593.833    
   2980000   557.07139      11461.831     -583.13472      2475.3435      3468.8672      12711.958     -5409.5123     -62.046712      0.9347191      54214.055    
   3000000   572.72592      11617.931     -564.44513      2516.1065      3536.9058      12702.584     -5368.8501     -64.784973      0.93863779     53987.718    
   3020000   559.74649      11779.272     -614.62555      2506.0438      3519.1939      12839.404     -5268.3169     -64.618531      0.94556313     53592.31     
   3040000   559.7368       11511.623     -546.05535      2538.5337      3446.3125      12706.72      -5437.7089     -57.331641      0.92556017     54750.533    
   3060000   569.84279      11470.12      -566.70067      2468.2043      3558.8964      12658.509     -5444.741      -64.68525       0.95157239     53253.87     
   3080000   564.49258      11587.938     -542.93592      2504.2655      3540.8184      12693.257     -5404.1429     -63.691979      0.94018378     53898.943    
   3100000   559.27888      11525.878     -515.27807      2494.3808      3342.0292      12752.114     -5343.6464     -63.786492      0.93665336     54102.099    
   3120000   554.41967      11617.845     -563.06784      2459.1582      3542.3783      12686.223     -5301.6222     -65.954714      0.94262329     53759.453    
   3140000   553.36788      11443.544     -556.7806       2492.9958      3354.4774      12658.507     -5308.7293     -57.22329       0.95884444     52849.983    
   3160000   558.72894      11575.952     -497.98519      2503.9555      3440.7203      12640.641     -5316.7098     -56.46874       0.93779762     54036.086    
   3180000   555.78878      11561.027     -560.78727      2480.8497      3461.5505      12788.902     -5416.8137     -54.549113      0.94275637     53751.864    
   3200000   562.48985      11544.756     -556.23958      2489.4668      3458.3461      12813.307     -5458.1146     -64.163677      0.95693996     52955.164    
   3220000   567.73435      11315.321     -574.55994      2509.6712      3414.611       12555.357     -5383.4827     -66.813817      0.94949531     53370.366    
   3240000   551.55618      11773.123     -591.96621      2482.9969      3580.3582      12833.777     -5326.8716     -66.408463      0.93126953     54414.872    
   3260000   562.45307      11639.875     -527.98451      2492.1831      3380.0321      12856.392     -5353.6212     -68.250934      0.92995654     54491.7      
   3280000   560.36586      11412.605     -612.2676       2494.3044      3493.2657      12639.523     -5401.3863     -62.432096      0.95552425     53033.623    
   3300000   556.04251      11561.053     -624.23911      2497.8199      3394.0842      12793.254     -5299.1606     -61.92994       0.93976044     53923.224    
   3320000   552.36021      11430.592     -563.27461      2492.6453      3549.2371      12557.727     -5397.7719     -68.604042      0.9476208      53475.939    
   3340000   560.33493      11557.062     -606.19209      2487.9274      3528.9535      12768.765     -5416.1651     -66.457048      0.93677929     54094.826    
   3360000   558.47582      11741.302     -499.42824      2494.1885      3551.0533      12799.999     -5394.8675     -69.667013      0.93806462     54020.706    
   3380000   560.39791      11621.303     -573.01704      2491.569       3608.6365      12672.219     -5389.6059     -50.458843      0.9395769      53933.757    
   3400000   553.44453      11468.484     -558.08039      2491.7342      3411.206       12743.846     -5418.5789     -62.327157      0.94800468     53454.285    
   3420000   555.08228      11549.204     -593.24481      2479.3251      3540.9069      12733.076     -5407.047      -65.418714      0.93738855     54059.667    
   3440000   555.32995      11637.556     -612.75108      2495.9996      3532.5597      12814.943     -5387.0218     -67.491716      0.93353145     54283.027    
   3460000   549.5219       11569.341     -532.23243      2514.9008      3446.4033      12701.708     -5360.9975     -61.236184      0.934088       54250.683    
   3480000   551.7502       11677.561     -529.24963      2486.1959      3449.888       12811.953     -5339.2334     -63.921528      0.93101631     54429.672    
   3500000   553.68142      11416.513     -594.7813       2500.3926      3425.9855      12702.65      -5411.7604     -66.294933      0.94572314     53583.243    
   3520000   567.62166      11513.486     -612.86898      2503.621       3439.0503      12746.304     -5354.9956     -68.205602      0.9494249      53374.324    
   3540000   565.57403      11595.278     -585.20465      2513.3709      3482.4696      12786.053     -5401.2989     -60.775658      0.93611529     54133.196    
   3560000   557.18964      11626.674     -529.52308      2502.2106      3413.1247      12803.035     -5363.8187     -59.554695      0.93889327     53973.028    
   3580000   565.45714      11359.016     -603.36949      2475.4968      3493.4119      12527.097     -5322.4355     -71.182204      0.95408628     53113.553    
   3600000   554.22409      11412.315     -576.81899      2493.5385      3415.8527      12569.214     -5284.8496     -64.854841      0.9479316      53458.406    
   3600112   548.27398      11363.097     -609.57269      2481.6167      3420.9553      12624.556     -5349.6129     -64.653142      0.9435356      53707.473    
Loop time of 3936.41 on 24 procs for 1200000 steps with 5010 atoms

Performance: 6.585 ns/day, 3.645 hours/ns, 304.847 timesteps/s, 1.527 Matom-step/s
99.5% CPU use with 24 MPI tasks x no OpenMP threads

MPI task timing breakdown:
Section |  min time  |  avg time  |  max time  |%varavg| %total
---------------------------------------------------------------
Pair    | 1850.4     | 2093.3     | 2385       | 298.4 | 53.18
Bond    | 668.18     | 715.65     | 762.48     | 100.6 | 18.18
Kspace  | 571.31     | 909.54     | 1189.7     | 469.3 | 23.11
Neigh   | 42.434     | 42.481     | 42.511     |   0.3 |  1.08
Comm    | 127.44     | 129.32     | 132.26     |  11.4 |  3.29
Output  | 0.0035877  | 0.0039222  | 0.01118    |   2.4 |  0.00
Modify  | 31.843     | 33.705     | 35.139     |  17.0 |  0.86
Other   |            | 12.42      |            |       |  0.32

Nlocal:         208.75 ave         228 max         191 min
Histogram: 2 1 3 3 3 5 1 4 1 1
Nghost:        4705.33 ave        4747 max        4656 min
Histogram: 1 2 1 4 2 3 4 2 3 2
Neighs:        70661.7 ave       82829 max       63390 min
Histogram: 5 4 4 2 3 1 0 1 1 3

Total # of neighbors = 1695881
Ave neighs/atom = 338.4992
Ave special neighs/atom = 6.1964072
Neighbor list builds = 14547
Dangerous builds = 0
unfix           fNPT
unfix           fMOM
next            a
jump            SELF loop
variable        a loop 26
variable        b equal 600-20*($a-1)
variable        b equal 600-20*(4-1)
fix             fMOM all momentum 100 linear 1 1 1 angular
fix             fNPT all npt temp $b $b $(100.0*dt) iso 1 1 $(100.0*dt)
fix             fNPT all npt temp 540 $b $(100.0*dt) iso 1 1 $(100.0*dt)
fix             fNPT all npt temp 540 540 $(100.0*dt) iso 1 1 $(100.0*dt)
fix             fNPT all npt temp 540 540 25 iso 1 1 $(100.0*dt)
fix             fNPT all npt temp 540 540 25 iso 1 1 25
run             1200000
PPPM initialization ...
  using 12-bit tables for long-range coulomb (../kspace.cpp:342)
  G vector (1/distance) = 0.11705967
  grid = 4 4 4
  stencil order = 5
  estimated absolute RMS force accuracy = 0.24067575
  estimated relative force accuracy = 0.00072478786
  using double precision KISS FFT
  3d grid and FFT values/proc = 294 4
Generated 28 of 28 mixed pair_coeff terms from sixthpower/sixthpower mixing rule
WARNING: Inconsistent image flags (../domain.cpp:815)
Per MPI rank memory allocation (min/avg/max) = 15.5 | 15.5 | 15.5 Mbytes
   Step          Temp          PotEng         E_vdwl         E_coul         E_bond        E_angle        E_dihed        E_impro        Density         Volume    
   3600112   548.27398      11363.381     -609.57269      2487.2538      3420.9553      12624.556     -5349.6129     -64.653142      0.9435356      53707.473    
   3620000   538.77312      11239.84      -587.59225      2486.664       3406.5026      12551.715     -5407.4496     -64.568848      0.92809266     54601.135    
   3640000   541.33003      11062.007     -510.54235      2509.1383      3220.9644      12344.694     -5300.9526     -56.103492      0.93718884     54071.187    
   3660000   540.30379      11228.391     -639.8548       2503.4469      3463.0322      12455.872     -5339.6078     -68.876942      0.95878075     52853.494    
   3680000   533.54771      11311.997     -598.25501      2512.8303      3416.1205      12568.748     -5373.271      -70.15951       0.93835304     54004.101    
   3700000   550.14702      11187.715     -667.47372      2504.0214      3324.5909      12535.967     -5302.6503     -61.136547      0.96279004     52633.399    
   3720000   519.46206      11142.124     -600.35731      2531.3124      3315.7024      12453.627     -5357.3232     -57.098932      0.95582056     53017.182    
   3740000   538.47528      11159.588     -617.47375      2494.994       3311.9904      12566.921     -5384.882      -66.831453      0.95871118     52857.329    
   3760000   550.0124       11232.365     -618.97886      2481.0612      3369.1688      12624.16      -5414.9196     -62.409788      0.9571259      52944.876    
   3780000   525.62018      11179.975     -525.89095      2471.7238      3311.1844      12482.144     -5340.8048     -72.35025       0.96990572     52247.256    
   3800000   548.33231      11013.624     -615.97783      2468.8025      3305.1246      12402.57      -5337.4021     -64.577025      0.95919954     52830.418    
   3820000   526.06969      11184.795     -670.54499      2496.1739      3432.9207      12356.469     -5218.3609     -68.054954      0.96366438     52585.644    
   3840000   533.07073      11193.523     -664.46785      2492.601       3436.862       12578.544     -5442.8547     -64.724979      0.95300564     53173.78     
   3860000   541.37392      11115.007     -735.59932      2517.9664      3288.8201      12632.342     -5374.6332     -70.68227       0.96348867     52595.235    
   3880000   547.87259      10878.043     -687.20633      2522.9435      3303.2896      12283.467     -5333.6151     -65.50671       0.96864942     52315.018    
   3900000   542.86031      11067.918     -593.56131      2492.6126      3233.5752      12581.157     -5434.9391     -65.839652      0.9504013      53319.49     
   3920000   542.56464      11136.653     -708.95745      2495.6697      3304.9632      12573.733     -5316.9153     -67.175098      0.94897506     53399.625    
   3940000   537.00229      11210.181     -623.4835       2513.4427      3410.802       12491.757     -5375.9015     -61.27533       0.95865595     52860.375    
   3960000   537.68735      11306         -601.65963      2500.3016      3344.6446      12634.411     -5362.2838     -65.00412       0.96246692     52651.069    
   3980000   534.06153      11043.997     -662.99429      2480.0139      3354.7768      12475.791     -5398.6181     -60.244947      0.95907843     52837.089    
   4000000   532.5678       11235.983     -623.61004      2481.8968      3511.7041      12481.26      -5410.8981     -60.313708      0.96038495     52765.209    
   4020000   533.65272      11107.815     -652.91805      2490.2662      3367.2561      12504.402     -5400.8186     -55.896888      0.95011498     53335.558    
   4040000   540.6785       11134.504     -622.51977      2474.2269      3273.2328      12658.697     -5444.0132     -60.91903       0.96559841     52480.319    
   4060000   537.26309      11148.169     -603.97086      2470.8767      3364.1281      12511.819     -5383.9588     -65.082553      0.95140628     53263.168    
   4080000   549.56104      11131.774     -570.72652      2478.9868      3368.7843      12479.73      -5412.6674     -66.781899      0.95159271     53252.733    
   4100000   527.15541      11268.657     -568.02309      2493.0516      3424.9643      12469.878     -5339.2063     -67.659037      0.95792946     52900.463    
   4120000   547.55918      11251.091     -604.95264      2503.5097      3372.6139      12595.011     -5411.0189     -58.707547      0.94689201     53517.098    
   4140000   542.59933      11256.746     -663.82072      2523.9472      3357.9309      12742.458     -5499.4178     -58.901278      0.94718771     53500.391    
   4160000   534.66457      11177.171     -595.27971      2507.5425      3353.6258      12480.253     -5371.6622     -52.809725      0.94900901     53397.715    
   4180000   545.92338      11135.432     -557.76579      2502.4488      3238.6825      12519.016     -5361.3966     -62.316832      0.9545724      53086.505    
   4200000   546.57477      11207.471     -671.28137      2506.7094      3452.4127      12583.661     -5464.234      -55.381678      0.96184561     52685.079    
   4220000   557.38561      11054.271     -662.29558      2500.8986      3293.5844      12647.615     -5518.8777     -62.447194      0.96884248     52304.594    
   4240000   533.82059      11226.949     -642.08602      2501.6414      3330.3784      12602.572     -5352.1783     -69.746116      0.9597515      52800.034    
   4260000   540.47164      11006.551     -708.6505       2499.4956      3213.2239      12531.334     -5322.0964     -62.137407      0.96214411     52668.734    
   4280000   535.05559      11158.274     -621.98363      2484.1621      3341.7794      12528.637     -5369.4993     -60.422023      0.96066807     52749.658    
   4300000   528.09121      11161.385     -504.75107      2509.5871      3267.1293      12520.721     -5424.4851     -62.083641      0.94836189     53434.151    
   4320000   540.91539      11134.468     -624.58593      2496.8733      3318.4246      12524.903     -5368.4325     -68.525247      0.96141329     52708.771    
   4340000   528.44655      11083.311     -599.83168      2494.1429      3409.3195      12396.796     -5407.6542     -64.385998      0.94302132     53736.762    
   4360000   545.55045      11137.621     -527.39707      2510.1093      3265.0392      12427.973     -5324.5688     -69.68986       0.95782555     52906.202    
   4380000   531.92924      11285.11      -652.92623      2504.3884      3399.6537      12577.537     -5341.0623     -57.468795      0.95355291     53143.262    
   4400000   537.35167      11302.069     -671.21933      2501.3404      3461.6456      12639.337     -5417.5536     -66.687322      0.96330193     52605.43     
   4420000   544.87611      11343.781     -567.31601      2535.6938      3424.1335      12590.988     -5436.0312     -58.831983      0.94915107     53389.723    
   4440000   541.50163      11135.189     -663.52158      2507.7234      3364.6129      12529.978     -5392.0048     -67.991157      0.95869829     52858.04     
   4460000   545.82483      11184.174     -629.13476      2495.6347      3376.8433      12449.896     -5291.9843     -73.004407      0.9484498      53429.198    
   4480000   532.93748      11119.852     -589.75775      2494.5189      3311.4216      12548.53      -5430.9378     -68.334659      0.94666544     53529.907    
   4500000   530.54923      11302.871     -583.64621      2484.3838      3402.8772      12575.236     -5363.846      -68.437622      0.95257545     53197.794    
   4520000   540.09957      11235.238     -577.38676      2508.2456      3358.948       12608.146     -5462.7878     -55.671861      0.95200576     53229.628    
   4540000   539.89093      11252.524     -582.9507       2500.2013      3349.3688      12651.854     -5460.5536     -59.87807       0.95366554     53136.986    
   4560000   545.22936      11187.836     -529.71989      2517.0739      3296.5828      12531.887     -5420.4216     -63.258436      0.94028929     53892.896    
   4580000   540.99775      11259.035     -606.9784       2515.8862      3384.6472      12576.084     -5405.6949     -59.795804      0.94077051     53865.329    
   4600000   534.22401      11050.46      -655.53147      2514.6168      3232.3574      12540.376     -5364.4106     -71.808461      0.95527822     53047.281    
   4620000   541.53938      10996.866     -664.99328      2502.1194      3286.679       12460.984     -5381.8373     -60.698387      0.95395238     53121.008    
   4640000   550.39526      11137.706     -602.71381      2494.4589      3363.2158      12528.42      -5444.703      -57.927261      0.95171598     53245.836    
   4660000   536.05758      11089.262     -594.38842      2531.3324      3337.3432      12394.297     -5376.3268     -58.648446      0.94731921     53492.964    
   4680000   537.0925       11153.358     -660.42534      2519.8836      3343.3825      12579.631     -5424.888      -59.968408      0.9547788      53075.029    
   4700000   546.52494      10934.717     -735.09524      2494.6858      3394.587       12378.899     -5381.913      -71.164037      0.96776071     52363.06     
   4720000   539.3221       11254.999     -621.12807      2520.9081      3376.6934      12572.818     -5386.8982     -63.460455      0.9448362      53633.542    
   4740000   551.67111      11116.836     -608.5264       2529.6055      3164.2217      12708.881     -5471.2089     -61.209429      0.95732603     52933.808    
   4760000   536.33991      11230.144     -620.03486      2532.1229      3365.7081      12555.048     -5394.3908     -62.421062      0.94155178     53820.632    
   4780000   549.72978      11074.163     -588.71325      2524.7548      3285.805       12572.227     -5516.5976     -59.344539      0.94273184     53753.263    
   4800000   533.99958      11249.361     -614.97009      2503.6008      3372.3187      12669.479     -5477.4425     -58.320941      0.94704244     53508.597    
   4800112   539.07696      11383.714     -572.06536      2506.6114      3377.3687      12807.165     -5530.6528     -59.403428      0.94832682     53436.127    
Loop time of 3943.29 on 24 procs for 1200000 steps with 5010 atoms

Performance: 6.573 ns/day, 3.651 hours/ns, 304.314 timesteps/s, 1.525 Matom-step/s
99.5% CPU use with 24 MPI tasks x no OpenMP threads

MPI task timing breakdown:
Section |  min time  |  avg time  |  max time  |%varavg| %total
---------------------------------------------------------------
Pair    | 1936.3     | 2123.9     | 2404.7     | 281.7 | 53.86
Bond    | 618.52     | 714.82     | 775.95     | 117.0 | 18.13
Kspace  | 585.23     | 887.49     | 1106       | 452.5 | 22.51
Neigh   | 40.478     | 40.532     | 40.572     |   0.4 |  1.03
Comm    | 127.85     | 129.79     | 132.54     |  11.8 |  3.29
Output  | 0.0079433  | 0.0082725  | 0.015435   |   1.6 |  0.00
Modify  | 32.072     | 33.947     | 35.613     |  17.5 |  0.86
Other   |            | 12.82      |            |       |  0.33

Nlocal:         208.75 ave         236 max         191 min
Histogram: 2 2 6 2 6 1 2 1 1 1
Nghost:        4682.71 ave        4720 max        4630 min
Histogram: 1 0 2 4 0 4 5 4 1 3
Neighs:        70691.1 ave       82331 max       61300 min
Histogram: 3 0 6 3 1 5 3 0 1 2

Total # of neighbors = 1696587
Ave neighs/atom = 338.64012
Ave special neighs/atom = 6.1964072
Neighbor list builds = 13873
Dangerous builds = 0
unfix           fNPT
unfix           fMOM
next            a
jump            SELF loop
variable        a loop 26
variable        b equal 600-20*($a-1)
variable        b equal 600-20*(5-1)
fix             fMOM all momentum 100 linear 1 1 1 angular
fix             fNPT all npt temp $b $b $(100.0*dt) iso 1 1 $(100.0*dt)
fix             fNPT all npt temp 520 $b $(100.0*dt) iso 1 1 $(100.0*dt)
fix             fNPT all npt temp 520 520 $(100.0*dt) iso 1 1 $(100.0*dt)
fix             fNPT all npt temp 520 520 25 iso 1 1 $(100.0*dt)
fix             fNPT all npt temp 520 520 25 iso 1 1 25
run             1200000
PPPM initialization ...
  using 12-bit tables for long-range coulomb (../kspace.cpp:342)
  G vector (1/distance) = 0.11720268
  grid = 4 4 4
  stencil order = 5
  estimated absolute RMS force accuracy = 0.24047901
  estimated relative force accuracy = 0.00072419539
  using double precision KISS FFT
  3d grid and FFT values/proc = 294 4
Generated 28 of 28 mixed pair_coeff terms from sixthpower/sixthpower mixing rule
WARNING: Inconsistent image flags (../domain.cpp:815)
Per MPI rank memory allocation (min/avg/max) = 15.5 | 15.5 | 15.5 Mbytes
   Step          Temp          PotEng         E_vdwl         E_coul         E_bond        E_angle        E_dihed        E_impro        Density         Volume    
   4800112   539.07696      11383.798     -572.06536      2508.0911      3377.3687      12807.165     -5530.6528     -59.403428      0.94832682     53436.127    
   4820000   515.57793      10775.842     -649.49218      2502.9032      3193.2593      12322.034     -5387.0428     -59.542235      0.9464466      53542.284    
   4840000   515.5258       10886.058     -684.96264      2496.9846      3257.894       12461.701     -5433.7504     -64.442256      0.94654512     53536.711    
   4860000   512.49086      10873.237     -773.52619      2520.7028      3257.0219      12489.626     -5404.0505     -69.646135      0.97109777     52183.121    
   4880000   532.26052      10873.16      -626.23223      2505.7143      3196.2325      12411.969     -5417.9607     -50.914295      0.95484802     53071.181    
   4900000   524.01731      10887.153     -663.10643      2508.5191      3116.0057      12591.108     -5456.8288     -62.571141      0.94730368     53493.841    
   4920000   523.37635      10734.19      -715.38439      2509.6607      3237.4555      12344.979     -5440.2908     -55.759673      0.96333036     52603.878    
   4940000   516.35957      10925.248     -708.1395       2517.9763      3368.2515      12393.791     -5442.6929     -57.633337      0.96308737     52617.15     
   4960000   515.0443       10841.218     -659.46255      2501.4001      3212.3703      12412.724     -5420.6765     -59.596855      0.95958991     52808.926    
   4980000   524.08235      10847.159     -777.33084      2504.6895      3285.5142      12463.521     -5413.9422     -69.755996      0.97437185     52007.775    
   5000000   525.99653      10887.037     -756.22967      2507.9293      3242.3304      12537.647     -5432.701      -66.163967      0.98794098     51293.461    
   5020000   528.70848      10667.258     -753.43686      2496.4333      3128.7335      12426.81      -5426.3026     -58.917879      0.97743251     51844.922    
   5040000   507.86888      10843.815     -748.07108      2510.6537      3232.0194      12472.47      -5412.2042     -64.287287      0.97086355     52195.71     
   5060000   516.86735      10667.515     -662.86027      2506.5017      3177.1005      12340.767     -5478.9024     -67.955914      0.97202371     52133.412    
   5080000   524.1278       10750.06      -650.85596      2499.2869      3126.016       12333.776     -5348.4674     -64.033097      0.9608017      52742.322    
   5100000   521.53349      10816.457     -675.82471      2510.1686      3206.6591      12466.895     -5480.1826     -63.611056      0.97200498     52134.416    
   5120000   513.24573      11075.517     -679.95828      2496.309       3264.049       12632.53      -5432.4515     -58.166409      0.97227255     52120.069    
   5140000   515.33254      10816.97      -726.91998      2529.5832      3249.6246      12301.431     -5331.5647     -58.305647      0.9603935      52764.739    
   5160000   516.37075      10920.152     -657.94049      2541.9992      3224.3808      12460.544     -5441.8018     -61.670758      0.95227977     53214.312    
   5180000   523.85807      10957.334     -693.55832      2496.3414      3242.8009      12487.43      -5366.3948     -62.218169      0.95898759     52842.094    
   5200000   515.75135      10771.291     -596.38658      2494.4721      3147.3951      12369.319     -5442.2853     -54.455407      0.96302638     52620.482    
   5220000   515.34093      10739.637     -673.52723      2495.778       3128.1261      12434.864     -5440.3801     -58.582665      0.97855308     51785.553    
   5240000   525.7028       10840.767     -743.30208      2493.3919      3259.4952      12435.385     -5397.0502     -60.565264      0.96449453     52540.384    
   5260000   518.23272      10926.77      -769.49174      2491.8441      3252.9108      12578.569     -5421.2646     -59.714431      0.96359101     52589.648    
   5280000   516.07434      10929.047     -715.51333      2486.142       3216.225       12629         -5478.4807     -63.006451      0.97087857     52194.903    
   5300000   522.4433       10733.073     -647.21671      2497.5499      3128.2669      12339.144     -5373.5059     -64.117833      0.95616306     52998.191    
   5320000   513.2596       10892.245     -636.62885      2492.6437      3281.5198      12327.192     -5365.18       -60.89512       0.95819115     52886.016    
   5340000   526.67221      11068.93      -714.3071       2498.343       3384.9018      12487.122     -5370.6053     -69.763413      0.94818405     53444.173    
   5360000   517.71591      10884.83      -696.09676      2507.5015      3241.1871      12464.307     -5422.6456     -62.895867      0.95922379     52829.082    
   5380000   520.02281      10765.573     -644.60979      2489.0601      3233.6009      12311.194     -5414.9978     -62.69539       0.96474712     52526.627    
   5400000   518.79206      10753.076     -699.61785      2485.9932      3221.9561      12437.103     -5488.4449     -57.38084       0.96354546     52592.134    
   5420000   520.6348       10805.105     -578.96899      2500.8741      3173.2817      12334.523     -5419.5356     -58.526356      0.94860766     53420.307    
   5440000   518.9927       10905.419     -616.12537      2503.578       3240.3755      12418.947     -5438.2418     -56.794008      0.94730656     53493.678    
   5460000   521.53914      11042.93      -612.629        2512.8551      3255.9743      12470.33      -5382.5332     -54.71525       0.94523763     53610.765    
   5480000   530.68479      10974.667     -662.5634       2504.2084      3202.0404      12513.292     -5378.0466     -58.233327      0.95131266     53268.41     
   5500000   518.69805      10835.839     -685.03529      2502.4301      3268.33        12288.91      -5331.1566     -61.634221      0.97171672     52149.882    
   5520000   531.61612      10709.395     -652.21155      2506.9489      3176.7949      12294.632     -5410.561      -61.218762      0.9642575      52553.299    
   5540000   521.12074      10981.076     -665.52985      2498.067       3286.5017      12403.783     -5336.7726     -58.797218      0.95668835     52969.091    
   5560000   520.68237      10615.133     -674.96666      2494.2545      3087.5044      12295.309     -5379.1707     -61.456313      0.97531299     51957.59     
   5580000   519.4703       10898.581     -687.65315      2491.1861      3331.5768      12382.349     -5408.0236     -65.298692      0.964766       52525.6      
   5600000   525.4728       10940.994     -628.49736      2512.489       3192.5107      12544.007     -5471.2418     -61.495209      0.96413172     52560.155    
   5620000   510.85551      10754.947     -643.40284      2499.8609      3166.8261      12377.683     -5429.0532     -70.892263      0.96187974     52683.21     
   5640000   518.3987       10811.237     -724.97471      2475.9687      3181.4586      12586.158     -5500.234      -60.569302      0.9698499      52250.263    
   5660000   507.47216      10949.325     -715.61716      2510.7404      3248.8006      12506.565     -5394.711      -60.146423      0.95869709     52858.106    
   5680000   517.11056      10978.227     -611.72184      2495.6757      3194.4237      12446.143     -5339.0581     -62.066041      0.94601773     53566.557    
   5700000   532.13564      10981.75      -669.67435      2516.2193      3259.2144      12523.3       -5433.1622     -67.93525       0.96126221     52717.054    
   5720000   527.90861      10952.386     -661.98806      2481.6267      3297.5416      12531.806     -5480.031      -70.213207      0.9560137      53006.471    
   5740000   522.77622      10950.915     -665.40041      2496.7635      3250.1635      12438.45      -5356.0667     -65.777513      0.95357179     53142.21     
   5760000   528.29807      10956.911     -586.25631      2502.9796      3163.1182      12425.325     -5330.6931     -71.882367      0.94632743     53549.026    
   5780000   524.11069      10858.051     -668.82032      2490.2486      3212.0257      12419.675     -5390.313      -58.89453       0.95585898     53015.051    
   5800000   512.14793      10844.301     -695.40347      2500.4443      3235.5937      12470.143     -5467.1283     -52.448063      0.96702187     52403.068    
   5820000   515.17052      10691.004     -674.86708      2474.6167      3167.4774      12360.308     -5430.3365     -60.133304      0.97625011     51907.715    
   5840000   525.19537      10924.789     -673.62583      2483.0832      3224.5616      12563.555     -5459.4647     -67.535177      0.96380231     52578.119    
   5860000   517.32592      10982.318     -694.45372      2504.5555      3321.2176      12472.924     -5409.9517     -65.696041      0.96372331     52582.429    
   5880000   532.97845      10848.974     -663.41535      2494.851       3141.9757      12520.12      -5430.9316     -66.829027      0.96259928     52643.83     
   5900000   531.99931      10894.322     -624.85443      2484.0558      3285.9468      12335.985     -5385.6345     -54.462505      0.93806207     54020.852    
   5920000   524.02661      10825.306     -569.4083       2531.2543      3162.0719      12333.765     -5421.8223     -64.530511      0.95032845     53323.577    
   5940000   525.50988      10737.287     -601.23184      2491.2588      3236.3138      12287.863     -5466.8583     -63.109637      0.94437249     53659.878    
   5960000   524.32902      10706.183     -663.6314       2489.1331      3274.5133      12342.286     -5525.7058     -62.978482      0.95361525     53139.788    
   5980000   517.33921      10932.838     -618.35632      2496.426       3266.7079      12413.701     -5419.9681     -58.855701      0.94877646     53410.803    
   6000000   523.00283      11182.833     -637.89471      2494.9189      3311.1007      12629.915     -5405.6178     -64.117833      0.9437315      53696.324    
   6000112   527.78677      10983.927     -575.03938      2504.3776      3194.867       12465.319     -5392.6056     -67.248389      0.95283357     53183.383    
Loop time of 3966.33 on 24 procs for 1200000 steps with 5010 atoms

Performance: 6.535 ns/day, 3.673 hours/ns, 302.547 timesteps/s, 1.516 Matom-step/s
99.5% CPU use with 24 MPI tasks x no OpenMP threads

MPI task timing breakdown:
Section |  min time  |  avg time  |  max time  |%varavg| %total
---------------------------------------------------------------
Pair    | 1962.8     | 2147.6     | 2402       | 284.5 | 54.15
Bond    | 664.24     | 714.99     | 790.02     | 109.0 | 18.03
Kspace  | 620.9      | 887.3      | 1091.9     | 450.6 | 22.37
Neigh   | 39.237     | 39.271     | 39.303     |   0.3 |  0.99
Comm    | 128.01     | 130.05     | 132.46     |  11.4 |  3.28
Output  | 0.0029432  | 0.0032997  | 0.011076   |   2.8 |  0.00
Modify  | 32.691     | 34.324     | 35.671     |  16.2 |  0.87
Other   |            | 12.76      |            |       |  0.32

Nlocal:         208.75 ave         234 max         187 min
Histogram: 2 3 1 4 3 3 2 3 2 1
Nghost:        4689.08 ave        4731 max        4633 min
Histogram: 1 0 3 3 2 5 3 1 2 4
Neighs:        70995.8 ave       83448 max       57983 min
Histogram: 4 0 0 3 3 3 7 0 2 2

Total # of neighbors = 1703900
Ave neighs/atom = 340.0998
Ave special neighs/atom = 6.1964072
Neighbor list builds = 13447
Dangerous builds = 0
unfix           fNPT
unfix           fMOM
next            a
jump            SELF loop
variable        a loop 26
variable        b equal 600-20*($a-1)
variable        b equal 600-20*(6-1)
fix             fMOM all momentum 100 linear 1 1 1 angular
fix             fNPT all npt temp $b $b $(100.0*dt) iso 1 1 $(100.0*dt)
fix             fNPT all npt temp 500 $b $(100.0*dt) iso 1 1 $(100.0*dt)
fix             fNPT all npt temp 500 500 $(100.0*dt) iso 1 1 $(100.0*dt)
fix             fNPT all npt temp 500 500 25 iso 1 1 $(100.0*dt)
fix             fNPT all npt temp 500 500 25 iso 1 1 25
run             1200000
PPPM initialization ...
  using 12-bit tables for long-range coulomb (../kspace.cpp:342)
  G vector (1/distance) = 0.11733663
  grid = 4 4 4
  stencil order = 5
  estimated absolute RMS force accuracy = 0.24029365
  estimated relative force accuracy = 0.00072363719
  using double precision KISS FFT
  3d grid and FFT values/proc = 294 4
Generated 28 of 28 mixed pair_coeff terms from sixthpower/sixthpower mixing rule
WARNING: Inconsistent image flags (../domain.cpp:815)
Per MPI rank memory allocation (min/avg/max) = 15.5 | 15.5 | 15.5 Mbytes
   Step          Temp          PotEng         E_vdwl         E_coul         E_bond        E_angle        E_dihed        E_impro        Density         Volume    
   6000112   527.78677      10983.976     -575.03938      2505.7325      3194.867       12465.319     -5392.6056     -67.248389      0.95283357     53183.383    
   6020000   505.6043       10542.941     -718.87749      2494.2914      3109.7425      12280.19      -5422.8253     -53.388216      0.97106939     52184.646    
   6040000   487.05606      10505.585     -731.75862      2483.9633      3088.2101      12321.913     -5446.2673     -61.778122      0.97308026     52076.807    
   6060000   501.22413      10425.021     -690.17645      2471.145       2991.4022      12249.441     -5379.2877     -70.788999      0.97678742     51879.162    
   6080000   507.05852      10562.406     -638.89733      2479.8557      3084.4593      12326.735     -5485.2906     -58.222219      0.96322853     52609.439    
   6100000   494.26022      10518.949     -772.80205      2475.7994      3083.7768      12330.645     -5389.2741     -62.997592      0.97928239     51746.986    
   6120000   495.39922      10401.836     -722.22398      2484.5593      3060.8702      12203.704     -5412.3147     -67.009527      0.96729593     52388.22     
   6140000   495.30707      10528.353     -717.91464      2485.8355      3058.0948      12393.911     -5480.9567     -63.324442      0.96192407     52680.782    
   6160000   499.98968      10496.66      -709.40297      2515.4651      3132.2518      12158.881     -5395.3124     -59.06207       0.95799337     52896.934    
   6180000   497.97705      10650.183     -699.56672      2489.8515      3090.2714      12498.915     -5523.0058     -60.425098      0.96515765     52504.285    
   6200000   498.70414      10434.033     -703.35106      2497.5576      3086.5308      12204.58      -5445.9874     -57.936861      0.95469838     53079.5      
   6220000   504.06637      10647.548     -670.44057      2502.8956      3047.8061      12458.999     -5490.0663     -53.802085      0.96044487     52761.917    
   6240000   500.84745      10551.515     -682.57761      2527.2652      3157.6247      12215.78      -5457.368      -60.953106      0.96002844     52784.803    
   6260000   500.03813      10474.52      -642.53655      2505.1599      3038.453       12265.18      -5483.2954     -61.02214       0.96764411     52369.37     
   6280000   498.24692      10454.256     -684.76081      2475.8399      3076.1238      12250.513     -5453.5233     -63.475192      0.96841715     52327.566    
   6300000   499.97704      10429.142     -630.25882      2459.4292      3103.9138      12184.275     -5481.9216     -57.908891      0.96850619     52322.755    
   6320000   486.55927      10369.531     -804.2907       2493.8172      3069.8092      12252.857     -5436.0522     -58.945966      0.98662973     51361.632    
   6340000   497.04959      10301.878     -769.11107      2495.9935      3107.5894      12149.848     -5476.1437     -59.5393        0.97808104     51810.546    
   6360000   498.53833      10361.202     -709.24818      2510.9688      3041.6285      12192.691     -5469.4367     -57.145199      0.98489432     51452.132    
   6380000   485.13554      10430.617     -660.44284      2505.558       2992.1428      12228.178     -5422.5368     -64.361218      0.95032003     53324.05     
   6400000   499.89725      10332.127     -688.19417      2498.6946      2966.2469      12165.867     -5398.4487     -65.217428      0.97476521     51986.788    
   6420000   500.27888      10447.226     -688.47741      2495.3185      3078.3794      12142.619     -5371.4889     -61.340182      0.95820822     52885.074    
   6440000   499.44678      10570.929     -710.29997      2487.6809      3105.5006      12345.945     -5445.755      -63.779048      0.96570456     52474.55     
   6460000   509.83755      10488.815     -781.05938      2487.4875      3170.123       12236.818     -5419.4379     -58.096036      0.97920638     51751.003    
   6480000   508.50763      10392.37      -680.41066      2487.8916      3076.1612      12212.013     -5495.1815     -61.996573      0.96342361     52598.786    
   6500000   495.56878      10568.341     -729.59353      2493.014       3160.3382      12354.595     -5511.1876     -53.29838       0.96235292     52657.306    
   6520000   499.62413      10358.37      -712.71843      2503.0452      3069.675       12196.661     -5495.342      -57.610747      0.96590304     52463.767    
   6540000   496.64435      10462.098     -743.47668      2499.5156      3033.6258      12281.111     -5398.1082     -63.724059      0.98084029     51664.795    
   6560000   494.4232       10373.894     -725.1374       2505.7379      3081.2956      12060.341     -5342.835      -59.151574      0.96428361     52551.876    
   6580000   503.37936      10387.708     -708.17541      2479.3014      3022.8229      12255.503     -5452.3879     -62.052057      0.96797386     52351.53     
   6600000   500.0526       10437.24      -774.15701      2502.1685      3100.649       12226.093     -5414.3441     -55.550749      0.96612652     52451.632    
   6620000   510.0532       10576.148     -744.5282       2493.3256      3159.2105      12332.039     -5455.8968     -61.768781      0.97198291     52135.6      
   6640000   503.65688      10489.067     -759.45422      2491.8255      3151.2824      12290.945     -5471.7135     -67.547254      0.98607953     51390.29     
   6660000   498.03487      10466.478     -696.76143      2508.2568      2984.8007      12401.526     -5521.0757     -63.071665      0.96645315     52433.905    
   6680000   495.65653      10565.187     -669.01788      2492.0128      3076.3666      12376.806     -5505.0238     -57.593136      0.9553653      53042.446    
   6700000   498.27474      10429.06      -742.2946       2500.9274      3117.9437      12278.875     -5518.0091     -59.729365      0.97367161     52045.178    
   6720000   490.86479      10359.678     -726.12747      2469.6923      3048.8062      12212.042     -5442.2453     -55.314043      0.97397154     52029.151    
   6740000   490.21831      10553.425     -720.00284      2502.0207      3152.6674      12260.805     -5433.1085     -60.992692      0.94455841     53649.316    
   6760000   512.39637      10382.783     -672.44572      2498.6916      3072.4121      12160.557     -5473.5416     -56.111602      0.96827355     52335.327    
   6780000   489.59744      10487.702     -701.31723      2492.4803      3122.5107      12267.965     -5482.0269     -63.819836      0.97365868     52045.869    
   6800000   499.11937      10566.119     -730.08383      2504.5304      3129.0137      12297.571     -5425.9731     -60.760749      0.97761009     51835.505    
   6820000   502.94162      10386.95      -716.36483      2522.8312      3062.6871      12173.844     -5443.4233     -64.918885      0.9722612      52120.678    
   6840000   492.49555      10489.323     -714.08981      2484.6904      3118.5589      12223.654     -5419.4125     -55.987602      0.97766717     51832.479    
   6860000   493.83092      10482.823     -780.0748       2505.9223      3039.1708      12394.799     -5466.0267     -63.74093       0.9727987      52091.879    
   6880000   490.75301      10527.353     -729.76425      2477.1336      3158.44        12333.016     -5500.498      -65.088001      0.95491935     53067.217    
   6900000   505.1258       10370.7       -698.44452      2508.8723      3062.1893      12122.759     -5419.1083     -58.382406      0.96230111     52660.141    
   6920000   498.32018      10605.998     -713.75282      2499.6943      3248.3618      12199.13      -5423.5266     -57.15437       0.96074289     52745.55     
   6940000   507.54         10601.06      -663.12937      2531.212       3161.7609      12296.301     -5517.7705     -59.80233       0.95748125     52925.227    
   6960000   501.84774      10536.576     -731.06303      2515.7485      3120.5786      12251.014     -5407.9651     -64.499018      0.97488215     51980.552    
   6980000   489.17725      10471.041     -719.68483      2507.8018      3113.3305      12234.113     -5463.1777     -54.479272      0.97304844     52078.51     
   7000000   506.4002       10447.956     -707.17504      2516.3983      2976.0294      12395.042     -5522.9747     -62.114868      0.97421639     52016.075    
   7020000   493.88723      10395.199     -676.44528      2517.8549      3018.6516      12131.584     -5390.6618     -58.923344      0.9807954      51667.159    
   7040000   500.66471      10437.43      -716.15898      2504.9176      3080.0644      12218.087     -5439.1513     -64.226468      0.96224692     52663.107    
   7060000   510.56015      10443.134     -759.92757      2506.1913      3113.3941      12208.211     -5418.246      -58.706014      0.97503144     51972.593    
   7080000   504.08329      10524.958     -725.71504      2509.2091      3144.5388      12304.951     -5508.5342     -52.657273      0.96698809     52404.898    
   7100000   504.05672      10369.001     -799.36077      2482.9754      3088.5964      12263.226     -5463.1862     -54.863896      0.97458876     51996.2      
   7120000   487.78854      10467.799     -694.41045      2498.0685      3069.6806      12247.391     -5445.8589     -59.490428      0.96738054     52383.639    
   7140000   513.0539       10338.627     -720.76385      2482.1835      2995.2574      12254.411     -5464.3358     -61.590997      0.96703088     52402.579    
   7160000   497.59529      10412.775     -828.53269      2501.2745      3068.158       12425.788     -5541.0156     -66.312197      0.98623314     51382.285    
   7180000   497.63122      10541.437     -721.78343      2507.61        3079.7854      12316.917     -5430.9503     -63.484145      0.98106856     51652.774    
   7200000   501.48398      10246.486     -713.0472       2493.4559      2977.3128      12141.634     -5450.9371     -54.525911      0.96688096     52410.704    
   7200112   493.19811      10343.582     -680.22152      2507.8704      3079.7565      12099.854     -5452.7676     -63.560619      0.96787141     52357.071    
Loop time of 4009.22 on 24 procs for 1200000 steps with 5010 atoms

Performance: 6.465 ns/day, 3.712 hours/ns, 299.310 timesteps/s, 1.500 Matom-step/s
99.5% CPU use with 24 MPI tasks x no OpenMP threads

MPI task timing breakdown:
Section |  min time  |  avg time  |  max time  |%varavg| %total
---------------------------------------------------------------
Pair    | 1885.2     | 2163.9     | 2468.1     | 301.7 | 53.97
Bond    | 647.06     | 714.49     | 796        | 152.7 | 17.82
Kspace  | 575.59     | 914.67     | 1262.2     | 532.4 | 22.81
Neigh   | 38.031     | 38.082     | 38.139     |   0.4 |  0.95
Comm    | 128.92     | 130.94     | 133.43     |  11.8 |  3.27
Output  | 0.0042591  | 0.0047616  | 0.015926   |   3.4 |  0.00
Modify  | 32.594     | 34.193     | 35.433     |  16.1 |  0.85
Other   |            | 12.92      |            |       |  0.32

Nlocal:         208.75 ave         229 max         189 min
Histogram: 1 1 3 4 3 5 3 1 0 3
Nghost:        4763.79 ave        4812 max        4698 min
Histogram: 1 0 0 0 9 4 3 4 0 3
Neighs:        72158.1 ave       85702 max       64043 min
Histogram: 4 2 5 2 4 4 1 0 0 2

Total # of neighbors = 1731794
Ave neighs/atom = 345.66747
Ave special neighs/atom = 6.1964072
Neighbor list builds = 12835
Dangerous builds = 0
unfix           fNPT
unfix           fMOM
next            a
jump            SELF loop
variable        a loop 26
variable        b equal 600-20*($a-1)
variable        b equal 600-20*(7-1)
fix             fMOM all momentum 100 linear 1 1 1 angular
fix             fNPT all npt temp $b $b $(100.0*dt) iso 1 1 $(100.0*dt)
fix             fNPT all npt temp 480 $b $(100.0*dt) iso 1 1 $(100.0*dt)
fix             fNPT all npt temp 480 480 $(100.0*dt) iso 1 1 $(100.0*dt)
fix             fNPT all npt temp 480 480 25 iso 1 1 $(100.0*dt)
fix             fNPT all npt temp 480 480 25 iso 1 1 25
run             1200000
PPPM initialization ...
  using 12-bit tables for long-range coulomb (../kspace.cpp:342)
  G vector (1/distance) = 0.1177796
  grid = 4 4 4
  stencil order = 5
  estimated absolute RMS force accuracy = 0.23967319
  estimated relative force accuracy = 0.00072176869
  using double precision KISS FFT
  3d grid and FFT values/proc = 294 4
Generated 28 of 28 mixed pair_coeff terms from sixthpower/sixthpower mixing rule
WARNING: Inconsistent image flags (../domain.cpp:815)
Per MPI rank memory allocation (min/avg/max) = 15.5 | 15.5 | 15.5 Mbytes
   Step          Temp          PotEng         E_vdwl         E_coul         E_bond        E_angle        E_dihed        E_impro        Density         Volume    
   7200112   493.19811      10343.601     -680.22152      2512.2041      3079.7565      12099.854     -5452.7676     -63.560619      0.96787141     52357.071    
   7220000   476.39819      10087.03      -806.13753      2487.1669      2988.4182      12184.12      -5548.5469     -65.663451      0.97992982     51712.797    
   7240000   478.51248      10213.892     -788.46391      2532.8019      3060.2736      12133.847     -5510.9683     -61.611353      0.97774566     51828.317    
   7260000   478.0304       10101.214     -808.88845      2496.463       2964.6824      12105.441     -5447.5081     -55.835004      0.97339047     52060.21     
   7280000   497.40462      10140.392     -777.32222      2498.6356      2931.7009      12198.648     -5491.2893     -67.57965       0.97682612     51877.106    
   7300000   482.25475      10126.965     -794.13018      2482.6574      3001.0137      12157.157     -5508.1391     -59.21291       0.98502576     51445.266    
   7320000   478.09215      10090.579     -779.56152      2500.4116      2982.1361      12083.79      -5478.709      -65.992007      0.97827853     51800.086    
   7340000   475.73071      9988.1462     -805.45541      2509.6221      2925.6519      12084.981     -5514.1681     -60.805981      0.98676291     51354.699    
   7360000   474.15602      10168.225     -791.2895       2516.9973      2960.4975      12092.373     -5397.7025     -62.328224      0.98179406     51614.605    
   7380000   481.76129      10242.487     -766.78536      2484.8763      3093.4226      12156.963     -5513.5368     -59.618098      0.98697795     51343.51     
   7400000   473.92081      9940.4547     -756.91248      2507.2741      2970.7265      11914.248     -5489.0902     -55.436404      0.97731212     51851.309    
   7420000   476.34252      10084.643     -822.19005      2513.4313      2909.6714      12264.571     -5577.746      -50.781957      0.97518769     51964.266    
   7440000   485.56334      9922.3892     -783.04213      2512.7025      2848.2157      12082.106     -5524.1093     -62.460333      0.99608501     50874.084    
   7460000   483.33082      10090.442     -801.82133      2519.7337      2965.2382      12069.605     -5456.1021     -55.272029      0.96763002     52370.133    
   7480000   478.47351      10208.618     -794.42244      2484.9112      3013.01        12214.154     -5497.8459     -58.645907      0.97349729     52054.498    
   7500000   483.68799      10028.906     -835.42503      2507.8167      2965.9104      12158.407     -5553.8015     -62.213814      0.97709502     51862.829    
   7520000   476.34903      10082.689     -807.72954      2498.2712      2974.8911      12046.569     -5417.5054     -59.468349      0.99174824     51096.549    
   7540000   476.5124       10169.479     -788.70579      2490.215       3020.3899      12062.57      -5398.6009     -65.44214       0.98171777     51618.616    
   7560000   485.4027       10034.612     -803.32465      2477.9155      3033.6832      12017.43      -5483.2269     -56.848447      0.97105712     52185.306    
   7580000   469.23721      10040.011     -838.90668      2499.4152      2982.6528      12094.092     -5487.7674     -59.263768      0.97793673     51818.191    
   7600000   483.85784      10197.363     -748.56305      2475.7007      3035.7317      12133.318     -5484.2418     -63.728135      0.96898475     52296.914    
   7620000   478.36288      10164.026     -744.56076      2486.3863      2985.7393      12186.792     -5528.4664     -70.679543      0.9687188      52311.272    
   7640000   474.07583      9963.5506     -800.9048       2499.2983      2914.7534      11960.782     -5397.0828     -61.43176       0.97925642     51748.358    
   7660000   479.25246      10085.78      -773.45978      2493.8949      2944.2252      12144.081     -5510.175      -60.963815      0.97949079     51735.976    
   7680000   482.01174      10140.865     -764.38515      2486.9236      3023.4613      12079.749     -5478.981      -53.737315      0.97994883     51711.794    
   7700000   475.17421      10031.482     -727.37322      2501.6845      2905.8066      12086.791     -5524.4475     -58.578619      0.98136858     51636.983    
   7720000   490.7611       10287.037     -692.28277      2500.401       3003.9024      12184.837     -5497.5886     -60.612962      0.97752023     51840.27     
   7740000   479.65342      10182.927     -782.163        2498.9699      3040.1454      12083.643     -5438.8502     -67.156297      0.98089811     51661.749    
   7760000   474.99634      9934.7235     -760.56105      2506.113       2909.6515      12039.989     -5552.355      -56.117829      0.98458379     51468.36     
   7780000   474.39134      10060.146     -752.87391      2506.1546      2903.2734      12091.535     -5479.0259     -56.736635      0.98994906     51189.414    
   7800000   480.78292      10115.432     -769.71346      2490.2343      2977.0645      12050.042     -5414.7778     -64.90785       0.98315533     51543.14     
   7820000   480.46114      9966.2402     -774.42113      2509.2331      3009.8133      11930.024     -5495.6165     -59.644077      0.98456076     51469.564    
   7840000   482.26149      10135.449     -782.96777      2475.8908      2917.1374      12167.892     -5424.4284     -65.781599      0.97535877     51955.151    
   7860000   476.89143      10159.934     -780.79671      2494.6298      2973.9664      12212.131     -5528.9892     -58.526862      0.97390164     52032.885    
   7880000   485.75793      10054.32      -771.39973      2486.7955      2970.9031      12089.257     -5505.9429     -62.537286      0.97903605     51760.007    
   7900000   479.92898      10073.331     -834.30927      2505.7647      3026.5436      12113.335     -5526.8885     -60.796692      0.97804664     51812.368    
   7920000   480.18173      10102.632     -779.72512      2512.5427      2939.1712      12057.381     -5410.0746     -65.582915      0.96625304     52444.764    
   7940000   479.21995      10088.488     -701.71805      2481.3693      2838.3285      12122.931     -5439.0785     -61.022114      0.96730238     52387.871    
   7960000   481.22464      10092.671     -822.67124      2522.8135      2977.1972      12038.509     -5418.8759     -53.769122      0.96585993     52466.109    
   7980000   476.67539      10098.748     -769.7419       2497.2309      2969.7126      12089.423     -5476.4782     -60.750603      0.9807856      51667.676    
   8000000   478.99618      10143.243     -803.98076      2488.4008      3072.9863      11990.7       -5399.5005     -55.805325      0.97473611     51988.34     
   8020000   483.52186      10094.049     -780.50773      2485.4345      2987.7414      12028.694     -5419.2284     -56.92392       0.9785749      51784.399    
   8040000   466.70647      10123.527     -710.26577      2508.9567      2969.5976      12052.769     -5484.7982     -61.387782      0.97401669     52026.74     
   8060000   482.5511       10146.27      -743.24534      2481.4643      3030.3107      12051.135     -5463.2769     -58.622827      0.98133041     51638.991    
   8080000   473.75303      10313.352     -765.64295      2489.5475      3125.2328      12046.956     -5374.3523     -56.366854      0.98081153     51666.31     
   8100000   476.17996      10177.047     -774.48582      2478.1188      2998.2173      12138.805     -5451.3971     -60.0595        0.98153688     51628.129    
   8120000   480.58417      10154.999     -730.08302      2495.7477      2953.1113      12149.594     -5513.0108     -48.559063      0.97390485     52032.714    
   8140000   478.69156      10270.27      -740.03973      2494.6459      3101.7164      12188.999     -5564.2273     -57.777786      0.96736649     52384.399    
   8160000   492.50339      10132.695     -817.06694      2503.2183      3032.2544      12090.799     -5463.776      -60.682612      0.97647158     51895.942    
   8180000   474.81629      10051.378     -712.06116      2471.9818      3009.1738      12047.02      -5554.3171     -58.643482      0.9812395      51643.776    
   8200000   478.99412      10008.915     -801.32365      2508.1863      2959.4251      12012.81      -5460.3925     -57.802017      0.96956871     52265.417    
   8220000   478.85285      9995.9294     -740.7429       2487.3683      2877.8721      12100.07      -5512.8995     -65.539696      0.9720888      52129.921    
   8240000   477.95266      10137.245     -717.66303      2496.4341      2962.6583      12131.382     -5535.0174     -48.421045      0.97113867     52180.923    
   8260000   487.70642      10051.172     -781.94314      2497.7867      2944.861       12074.009     -5473.3509     -57.54072       0.97455986     51997.743    
   8280000   480.27533      10073.254     -799.53685      2497.5648      2927.0724      12205.379     -5541.8485     -63.985814      0.97672379     51882.542    
   8300000   479.24975      10201.827     -817.49283      2512.4772      3027.3136      12113.44      -5419.5051     -63.257061      0.98849063     51264.94     
   8320000   481.91514      9992.8366     -808.73628      2505.1922      2937.7674      12060.324     -5495.626      -53.238391      0.97922471     51750.034    
   8340000   483.85908      10017.585     -789.76015      2488.6182      2902.5153      12108.027     -5471.514      -68.660692      0.97047017     52216.868    
   8360000   491.22228      10293.759     -689.07666      2520.2776      3011.3257      12119.202     -5452.4841     -63.013563      0.954443       53093.702    
   8380000   479.61157      9957.4085     -806.54075      2496.0371      2946.3949      12072.652     -5541.5297     -57.422324      0.98495087     51449.178    
   8400000   486.75977      10076.73      -731.55119      2471.1201      2973.8233      12053.824     -5477.6912     -60.143406      0.96654171     52429.101    
   8400112   482.94326      10074.315     -726.10034      2482.2657      3005.0522      12027.555     -5499.5265     -62.221341      0.96900381     52295.886    
Loop time of 4003.02 on 24 procs for 1200000 steps with 5010 atoms

Performance: 6.475 ns/day, 3.706 hours/ns, 299.774 timesteps/s, 1.502 Matom-step/s
99.5% CPU use with 24 MPI tasks x no OpenMP threads

MPI task timing breakdown:
Section |  min time  |  avg time  |  max time  |%varavg| %total
---------------------------------------------------------------
Pair    | 1925.9     | 2174.1     | 2467.8     | 312.0 | 54.31
Bond    | 645.42     | 713.88     | 792.34     | 132.8 | 17.83
Kspace  | 584.55     | 900.71     | 1193.2     | 539.3 | 22.50
Neigh   | 36.323     | 36.373     | 36.395     |   0.3 |  0.91
Comm    | 129        | 131.11     | 133.72     |  11.9 |  3.28
Output  | 0.0029827  | 0.0033185  | 0.010669   |   2.7 |  0.00
Modify  | 32.504     | 34.176     | 35.556     |  16.3 |  0.85
Other   |            | 12.67      |            |       |  0.32

Nlocal:         208.75 ave         228 max         186 min
Histogram: 1 3 2 1 1 6 1 3 5 1
Nghost:        4767.38 ave        4807 max        4733 min
Histogram: 1 1 3 5 3 8 0 0 2 1
Neighs:        72373.5 ave       81886 max       62810 min
Histogram: 3 1 2 2 7 2 1 1 3 2

Total # of neighbors = 1736965
Ave neighs/atom = 346.6996
Ave special neighs/atom = 6.1964072
Neighbor list builds = 12336
Dangerous builds = 0
unfix           fNPT
unfix           fMOM
next            a
jump            SELF loop
variable        a loop 26
variable        b equal 600-20*($a-1)
variable        b equal 600-20*(8-1)
fix             fMOM all momentum 100 linear 1 1 1 angular
fix             fNPT all npt temp $b $b $(100.0*dt) iso 1 1 $(100.0*dt)
fix             fNPT all npt temp 460 $b $(100.0*dt) iso 1 1 $(100.0*dt)
fix             fNPT all npt temp 460 460 $(100.0*dt) iso 1 1 $(100.0*dt)
fix             fNPT all npt temp 460 460 25 iso 1 1 $(100.0*dt)
fix             fNPT all npt temp 460 460 25 iso 1 1 25
run             1200000
PPPM initialization ...
  using 12-bit tables for long-range coulomb (../kspace.cpp:342)
  G vector (1/distance) = 0.11781271
  grid = 4 4 4
  stencil order = 5
  estimated absolute RMS force accuracy = 0.23962635
  estimated relative force accuracy = 0.00072162764
  using double precision KISS FFT
  3d grid and FFT values/proc = 294 4
Generated 28 of 28 mixed pair_coeff terms from sixthpower/sixthpower mixing rule
WARNING: Inconsistent image flags (../domain.cpp:815)
Per MPI rank memory allocation (min/avg/max) = 15.5 | 15.5 | 15.5 Mbytes
   Step          Temp          PotEng         E_vdwl         E_coul         E_bond        E_angle        E_dihed        E_impro        Density         Volume    
   8400112   482.94326      10074.359     -726.10034      2482.6333      3005.0522      12027.555     -5499.5265     -62.221341      0.96900381     52295.886    
   8420000   461.06799      9783.1161     -746.6345       2477.4855      2828.4489      11991.006     -5553.6353     -60.490291      0.97680611     51878.169    
   8440000   467.02081      9816.2905     -836.42067      2508.3521      2858.7365      12010.781     -5519.8651     -53.33748       0.97807164     51811.044    
   8460000   460.91516      9920.6814     -872.34931      2508.0358      2911.5808      12105.055     -5509.1024     -69.461297      0.98555268     51417.762    
   8480000   467.14743      9847.8464     -845.22286      2525.2594      2903.2735      11973.538     -5494.8611     -61.49476       1.0027957      50533.633    
   8500000   466.74441      9946.8179     -760.24262      2527.5487      2891.9177      11990.728     -5479.8475     -71.035751      0.98765124     51308.509    
   8520000   460.61659      9683.2372     -775.88396      2498.7841      2853.7921      11787.9       -5476.2766     -53.209563      0.98820828     51279.587    
   8540000   462.698        9778.4256     -777.63836      2509.7786      2888.4101      11902.927     -5527.8091     -63.924329      0.98470009     51462.281    
   8560000   461.49044      9853.4074     -846.26014      2480.0257      2939.313       12017.743     -5521.0235     -63.710987      0.98431417     51482.457    
   8580000   454.69099      9771.7473     -811.26016      2502.7433      2898.4704      11886.272     -5494.9931     -56.288668      0.98232874     51586.511    
   8600000   455.59156      9809.8861     -792.06201      2487.3053      2923.8815      11915.579     -5508.6743     -63.421894      0.98139507     51635.589    
   8620000   461.24957      9640.9187     -813.58573      2479.4768      2771.0778      12002.939     -5593.8937     -52.324049      0.99418547     50971.286    
   8640000   464.49207      9795.1656     -815.35881      2513.2299      2885.8609      11890.245     -5471.2664     -54.903622      0.9823083      51587.585    
   8660000   456.55207      9799.7923     -783.4104       2492.2549      2900.2666      11875.792     -5478.5479     -55.398758      0.97928693     51746.746    
   8680000   461.52867      9754.3928     -753.63485      2501.8743      2938.4919      11816.73      -5542.8548     -53.263749      0.97797143     51816.352    
   8700000   462.74499      9849.1578     -823.8804       2514.0185      2844.5404      12014.811     -5475.653      -71.964699      0.98662365     51361.948    
   8720000   463.78351      9742.9708     -843.53919      2494.5841      2857.0228      11942.164     -5502.3278     -53.456737      0.99380548     50990.776    
   8740000   462.76641      9668.6128     -837.15959      2491.8899      2864.9762      11869.603     -5512.4886     -55.952542      0.99740404     50806.805    
   8760000   466.1243       9727.4776     -832.58114      2498.0026      2963.1667      11804.628     -5497.8201     -55.902866      0.9889742      51239.873    
   8780000   462.0058       9769.5431     -814.22279      2485.7465      2822.5831      11941.105     -5465.8733     -49.059809      0.98232234     51586.847    
   8800000   456.0559       9841.3506     -864.62272      2491.6121      2904.9832      12014.885     -5500.9701     -53.582361      0.98243755     51580.798    
   8820000   473.76908      9836.4535     -808.48874      2495.393       2887.4083      11906.265     -5440.1087     -54.443091      0.98328748     51536.212    
   8840000   460.51884      9743.266      -813.35299      2495.6944      2890.7303      11920.042     -5537.0661     -61.445225      0.98819689     51280.178    
   8860000   455.9667       9743.1119     -795.95891      2503.1825      2809.2859      11968.457     -5523.8624     -65.224741      0.98874406     51251.8      
   8880000   456.04747      9883.3792     -811.59153      2490.7142      2866.2395      12000.343     -5456.4428     -52.735471      1.0006026      50644.393    
   8900000   457.93395      9938.5629     -839.36882      2503.401       2917.3598      12033.573     -5470.6155     -53.197519      0.98350933     51524.587    
   8920000   464.57896      9764.1104     -777.01633      2495.8493      2873.7878      11875.124     -5492.3114     -59.5538        0.98582408     51403.606    
   8940000   465.24008      9744.4738     -830.0936       2510.2574      2794.3584      11947.52      -5474.1275     -52.260069      0.98354867     51522.527    
   8960000   461.03853      9813.6324     -837.03008      2503.8075      2866.1247      11990.483     -5497.2359     -59.469448      0.98521467     51435.402    
   8980000   464.98293      9745.5032     -818.84253      2500.4079      2826.5779      12006.859     -5563.2026     -54.206163      0.98321259     51540.138    
   9000000   455.41331      9706.6429     -821.90405      2464.7127      2786.2038      11972.195     -5487.4609     -55.101733      0.98670029     51357.959    
   9020000   457.66522      9887.9909     -803.13225      2484.7047      2880.1312      12096.02      -5553.3583     -64.825972      0.99735313     50809.398    
   9040000   459.87791      9766.5374     -858.47666      2493.8767      2902.9622      11986.029     -5546.7261     -58.45249       0.99387447     50987.236    
   9060000   456.94744      9987.5401     -751.03305      2515.0688      2937.1941      11980.712     -5485.0535     -59.393034      0.986097       51389.379    
   9080000   463.67088      9869.4294     -840.98522      2508.3379      2910.4494      11926.197     -5430.4593     -53.206147      0.98434046     51481.083    
   9100000   465.35023      9806.4148     -859.62627      2491.4776      2858.0263      12107.271     -5581.1385     -58.459871      0.98863444     51257.482    
   9120000   461.25573      9780.6037     -819.53264      2506.1012      2833.1065      12008.459     -5533.6974     -63.058275      0.99060683     51155.424    
   9140000   469.96806      9889.8817     -805.16123      2494.9025      2852.1254      12115.367     -5561.6582     -54.23132       0.98277799     51562.93     
   9160000   453.61077      9661.5121     -870.2085       2505.0501      2869.1864      11885.42      -5518.5378     -57.633939      0.99480419     50939.585    
   9180000   460.00654      9862.886      -829.66847      2483.8273      2936.9746      11965.682     -5485.3388     -57.105952      0.99380391     50990.856    
   9200000   458.15163      9712.5748     -857.715        2507.647       2851.0376      11955.876     -5534.0079     -58.118251      0.99878349     50736.634    
   9220000   459.383        9750.7796     -880.89403      2480.1607      2852.7995      11967.662     -5461.9348     -53.988196      0.989778       51198.261    
   9240000   456.90928      9690.6402     -875.36537      2498.636       2801.749       12017.969     -5548.007      -52.452699      0.98927438     51224.325    
   9260000   462.16448      9712.1894     -862.62797      2496.603       2849.4811      11925.56      -5485.5745     -60.248638      1.005718       50386.8      
   9280000   455.89639      9875.9536     -806.85776      2520.4289      2897.4491      11984.589     -5514.6557     -55.039138      0.98540408     51425.515    
   9300000   453.71918      9816.8604     -804.50033      2505.7272      2864.4165      12088.093     -5629.8354     -56.057787      0.97334075     52062.87     
   9320000   462.25483      9779.0548     -821.73651      2504.5884      2796.1317      12083.885     -5579.4368     -52.824204      0.98802741     51288.975    
   9340000   461.07445      9869.5543     -767.57942      2468.767       2901.1351      11963.137     -5484.3187     -59.186876      0.98614863     51386.689    
   9360000   457.32616      9748.3094     -835.91115      2486.1045      2922.6596      11843.322     -5458.2029     -56.68701       0.99408665     50976.353    
   9380000   463.71765      9821.8623     -880.5364       2501.5537      2820.0873      12025.685     -5433.4773     -59.4381        0.99929258     50710.786    
   9400000   462.10438      9746.2417     -804.3677       2486.101       2875.0174      11952.642     -5541.0908     -70.393022      0.9775317      51839.662    
   9420000   459.75088      9687.1754     -870.67329      2490.9975      2911.8126      11967.757     -5607.593      -52.136372      1.0089156      50227.108    
   9440000   456.9621       9766.2543     -869.39457      2496.5395      2890.0799      11904.137     -5448.955      -54.402818      0.99338244     51012.491    
   9460000   465.29395      9722.3885     -888.25943      2507.621       2879.0152      11961.213     -5522.1347     -62.082712      0.99256087     51054.715    
   9480000   453.55052      9968.1105     -734.03441      2501.9162      2982.5684      11881.263     -5453.4095     -57.691835      0.98475931     51459.186    
   9500000   461.18093      9666.8166     -882.5127       2493.8999      2813.696       11941.896     -5488.3671     -59.251448      1.0068422      50330.539    
   9520000   460.87602      9900.5511     -912.21685      2491.0385      2945.6265      12101.624     -5516.9851     -55.741523      1.003058       50520.423    
   9540000   459.63692      9672.6442     -819.31498      2487.7311      2881.7012      11873.793     -5533.4606     -65.547602      0.99233097     51066.543    
   9560000   454.79585      9645.9096     -846.59728      2483.17        2816.8576      11953.469     -5541.6234     -67.675558      0.99420662     50970.202    
   9580000   455.50636      9835.9416     -828.84217      2492.0832      2853.8554      12028.067     -5493.206      -65.107657      0.99200198     51083.479    
   9600000   464.83698      9764.8211     -821.69228      2486.9302      2874.7261      11927.494     -5489.9005     -62.297271      0.98914017     51231.275    
   9600112   460.78899      9873.9869     -801.23499      2490.4094      2869.9828      12018.704     -5498.0692     -54.999753      0.99210731     51078.056    
Loop time of 3971.62 on 24 procs for 1200000 steps with 5010 atoms

Performance: 6.526 ns/day, 3.677 hours/ns, 302.144 timesteps/s, 1.514 Matom-step/s
99.5% CPU use with 24 MPI tasks x no OpenMP threads

MPI task timing breakdown:
Section |  min time  |  avg time  |  max time  |%varavg| %total
---------------------------------------------------------------
Pair    | 1961.6     | 2196.7     | 2407.1     | 263.6 | 55.31
Bond    | 655.84     | 713.47     | 803.05     | 154.1 | 17.96
Kspace  | 591.03     | 848.07     | 1129.9     | 484.2 | 21.35
Neigh   | 35.079     | 35.165     | 35.211     |   0.6 |  0.89
Comm    | 129.28     | 131.43     | 134.1      |  12.0 |  3.31
Output  | 0.0088796  | 0.009277   | 0.017886   |   1.9 |  0.00
Modify  | 32.191     | 34.017     | 35.422     |  16.8 |  0.86
Other   |            | 12.79      |            |       |  0.32

Nlocal:         208.75 ave         233 max         192 min
Histogram: 2 4 5 2 3 1 3 3 0 1
Nghost:        4831.75 ave        4879 max        4797 min
Histogram: 5 1 5 2 3 1 1 1 2 3
Neighs:        74065.4 ave       87268 max       61064 min
Histogram: 1 1 2 2 6 5 4 1 1 1

Total # of neighbors = 1777569
Ave neighs/atom = 354.80419
Ave special neighs/atom = 6.1964072
Neighbor list builds = 11937
Dangerous builds = 0
unfix           fNPT
unfix           fMOM
next            a
jump            SELF loop
variable        a loop 26
variable        b equal 600-20*($a-1)
variable        b equal 600-20*(9-1)
fix             fMOM all momentum 100 linear 1 1 1 angular
fix             fNPT all npt temp $b $b $(100.0*dt) iso 1 1 $(100.0*dt)
fix             fNPT all npt temp 440 $b $(100.0*dt) iso 1 1 $(100.0*dt)
fix             fNPT all npt temp 440 440 $(100.0*dt) iso 1 1 $(100.0*dt)
fix             fNPT all npt temp 440 440 25 iso 1 1 $(100.0*dt)
fix             fNPT all npt temp 440 440 25 iso 1 1 25
run             1200000
PPPM initialization ...
  using 12-bit tables for long-range coulomb (../kspace.cpp:342)
  G vector (1/distance) = 0.11848097
  grid = 4 4 4
  stencil order = 5
  estimated absolute RMS force accuracy = 0.23866756
  estimated relative force accuracy = 0.00071874026
  using double precision KISS FFT
  3d grid and FFT values/proc = 294 4
Generated 28 of 28 mixed pair_coeff terms from sixthpower/sixthpower mixing rule
WARNING: Inconsistent image flags (../domain.cpp:815)
Per MPI rank memory allocation (min/avg/max) = 15.5 | 15.5 | 15.5 Mbytes
   Step          Temp          PotEng         E_vdwl         E_coul         E_bond        E_angle        E_dihed        E_impro        Density         Volume    
   9600112   460.78899      9874.4396     -801.23499      2497.3658      2869.9828      12018.704     -5498.0692     -54.999753      0.99210731     51078.056    
   9620000   429.71534      9642.5098     -860.87806      2471.2642      2812.2466      11946.279     -5497.1566     -70.810641      0.99342046     51010.539    
   9640000   444.90274      9478.1789     -865.39232      2475.7437      2707.7338      11980.182     -5595.2029     -66.925924      0.99445606     50957.418    
   9660000   440.22863      9507.0067     -833.71082      2489.4025      2773.1133      11811.157     -5510.5436     -63.615939      0.9949937      50929.883    
   9680000   436.83361      9555.9824     -820.17192      2470.3579      2745.3472      11914.202     -5531.5988     -63.181359      0.99346491     51008.256    
   9700000   439.70706      9609.7672     -839.28168      2500.2255      2805.397       11861.244     -5501.4682     -57.727627      0.9863108      51378.24     
   9720000   437.54085      9404.9536     -842.95504      2454.8449      2731.012       11778.893     -5499.191      -58.896438      0.99143112     51112.893    
   9740000   446.54739      9594.3208     -824.739        2474.0082      2779.823       11758.379     -5373.4504     -61.708977      0.98700116     51342.303    
   9760000   435.91247      9356.4875     -902.86195      2503.7607      2692.7888      11837.357     -5564.5663     -51.474806      0.99649303     50853.253    
   9780000   441.80933      9419.1682     -813.08221      2494.6296      2623.02        11795.286     -5458.4066     -64.192545      0.99160233     51104.068    
   9800000   439.27215      9522.5869     -894.13334      2500.9608      2846.2477      11825.193     -5538.4464     -59.569113      0.99296666     51033.851    
   9820000   441.74316      9436.056      -891.92508      2482.8643      2793.5731      11717.37      -5444.1886     -62.328459      0.9959202      50882.503    
   9840000   442.08662      9557.8938     -856.69172      2530.9153      2829.7232      11765.036     -5493.4756     -58.443369      0.9867416      51355.808    
   9860000   434.61461      9444.8704     -812.41682      2489.0007      2709.0104      11784.281     -5503.1492     -62.248999      0.99955723     50697.36     
   9880000   444.49357      9467.3014     -850.19143      2484.8829      2745.9223      11855.137     -5545.8868     -62.900513      0.99582407     50887.415    
   9900000   444.79237      9471.5592     -877.98011      2485.9695      2730.9495      11915.154     -5555.3035     -67.246475      1.0013308      50607.563    
   9920000   442.88998      9464.3918     -881.24267      2494.0081      2810.2059      11744.455     -5486.3222     -57.775444      0.9845504      51470.105    
   9940000   444.50142      9442.2983     -927.18323      2478.8656      2785.9815      11808.441     -5485.9214     -59.287104      1.0086539      50240.138    
   9960000   438.55593      9343.7107     -865.84055      2529.5649      2709.3579      11756.641     -5574.2244     -53.092895      0.99395607     50983.05     
   9980000   436.84066      9553.2368     -860.05676      2504.2753      2741.5513      11881.744     -5494.2478     -60.832202      0.99825866     50763.309    
  10000000   444.83101      9464.7777     -871.5627       2501.035       2692.5576      11838.283     -5476.6406     -59.69186       0.9949206      50933.625    
  10020000   436.35971      9445.6332     -855.88315      2485.2465      2750.8455      11815.152     -5530.6842     -60.067557      0.99360161     51001.238    
  10040000   440.26301      9411.2078     -787.87128      2510.711       2764.406       11686.234     -5543.7186     -58.720304      0.99580812     50888.23     
  10060000   445.90828      9370.8825     -933.71248      2509.5968      2736.6947      11803.83      -5520.1164     -66.41614       0.99314012     51024.937    
  10080000   436.47585      9427.9414     -880.5068       2514.5482      2759.2847      11801.312     -5557.099      -50.212208      1.0002562      50661.933    
  10100000   435.75662      9471.7981     -890.86268      2504.1563      2800.1922      11812.871     -5538.9978     -55.666492      0.99680117     50837.533    
  10120000   440.97419      9528.8658     -875.61903      2512.1441      2811.8961      11869.573     -5568.9355     -61.5546        0.98943849     51215.829    
  10140000   432.64242      9359.6338     -903.67302      2483.1367      2668.0452      11928.099     -5599.9103     -57.022033      1.0067587      50334.715    
  10160000   439.04836      9486.8938     -878.28948      2491.3935      2793.7528      11850.572     -5558.4128     -53.272658      1.0007909      50634.866    
  10180000   437.13088      9343.6371     -875.90317      2498.662       2786.9684      11710.992     -5563.4767     -55.92884       0.99113488     51128.17     
  10200000   433.21626      9334.2986     -920.38319      2503.5702      2704.0225      11772.155     -5506.1495     -60.37326       1.0033034      50508.063    
  10220000   444.02691      9374.1212     -908.19491      2484.953       2711.5868      11819.359     -5515.8579     -58.782628      1.0051297      50416.292    
  10240000   446.11526      9345.0771     -931.204        2497.8528      2637.698       11873.385     -5515.6749     -58.151481      1.0043126      50457.311    
  10260000   440.25739      9491.6085     -824.46431      2487.3423      2712.9489      11896.755     -5563.4471     -57.694272      0.99131753     51118.75     
  10280000   433.56997      9456.3358     -865.91247      2506.1455      2643.8619      11894.57      -5498.0475     -66.455225      1.001767       50585.529    
  10300000   430.34011      9401.6742     -1014.4795      2492.6285      2813.3091      11791.331     -5460.6864     -62.098357      1.0013868      50604.732    
  10320000   432.84661      9508.2015     -887.07299      2518.6398      2713.5283      11857.479     -5477.1023     -59.299924      1.0052163      50411.95     
  10340000   447.06967      9434.2662     -879.26759      2479.5966      2776.1461      11759.501     -5483.771      -58.642727      0.99411396     50974.953    
  10360000   445.58996      9392.4902     -886.29874      2496.3936      2644.4982      11904.516     -5542.265      -65.012869      0.98894359     51241.459    
  10380000   437.63451      9460.539      -877.77733      2494.9929      2781.1544      11797.472     -5518.9137     -57.877614      0.99819618     50766.486    
  10400000   445.02654      9375.5765     -901.29907      2486.96        2769.2983      11705.498     -5468.7479     -58.23026       0.99673542     50840.887    
  10420000   446.64863      9528.2811     -844.25561      2492.2883      2817.5495      11790.672     -5510.3996     -58.645343      0.99729115     50812.556    
  10440000   447.01541      9553.9448     -875.35417      2516.5377      2687.2561      11945.288     -5503.4871     -57.546082      0.99893639     50728.868    
  10460000   431.6052       9540.9642     -865.71006      2555.9824      2771.145       11860.899     -5563.3906     -58.660493      1.0028509      50530.854    
  10480000   434.23571      9421.9356     -828.1611       2512.98        2673.6828      11755.643     -5475.3695     -59.124961      0.99471993     50943.9      
  10500000   441.40355      9472.9408     -811.27995      2503.1292      2812.5989      11776.576     -5587.5942     -61.689467      1.0061983      50362.747    
  10520000   451.05648      9426.5438     -863.0493       2518.3354      2668.6981      11916.792     -5596.0516     -59.809894      1.0037812      50484.022    
  10540000   444.9266       9331.9429     -877.00109      2515.7377      2666.5808      11804.657     -5558.5189     -60.383133      1.0032052      50513.006    
  10560000   448.15284      9399.3        -856.94395      2505.792       2764.9081      11737.279     -5534.2904     -59.9745        0.98739625     51321.759    
  10580000   438.20455      9389.9192     -849.83294      2507.1793      2666.8418      11821.939     -5537.0054     -60.642155      0.99431255     50964.772    
  10600000   439.27061      9484.7771     -851.78854      2526.2554      2695.1072      11732.489     -5397.4721     -61.133797      0.99282765     51040.996    
  10620000   441.56441      9526.268      -825.73713      2501.551       2751.2143      11806.235     -5491.6998     -57.355286      0.99761731     50795.943    
  10640000   435.14768      9382.1301     -919.22783      2492.6031      2742.1886      11818.966     -5536.0409     -58.517709      1.0111727      50114.995    
  10660000   437.87639      9472.7847     -901.80186      2498.5436      2822.4625      11786.747     -5516.9846     -56.882264      1.0109761      50124.739    
  10680000   431.26053      9418.8566     -862.78536      2491.135       2784.9493      11722.449     -5496.2084     -61.908846      0.99717114     50818.671    
  10700000   444.50485      9449.6794     -948.97988      2520.9708      2741.3356      11844.454     -5489.64       -58.690555      1.0059595      50374.704    
  10720000   432.75622      9527.0333     -884.08616      2523.3999      2762.0053      11897.137     -5550.1064     -62.526462      0.9918767      51089.932    
  10740000   443.39094      9413.8928     -939.59051      2505.6224      2745.921       11862.672     -5541.9897     -58.60011       0.99810006     50771.375    
  10760000   447.15874      9450.1318     -859.23596      2513.5213      2739.6388      11855.22      -5578.4191     -60.938093      0.99187126     51090.211    
  10780000   447.05155      9282.8125     -939.54352      2496.6684      2781.7275      11851.717     -5691.5987     -56.740373      1.0003106      50659.179    
  10800000   446.00381      9326.7762     -866.64369      2517.5917      2652.3963      11782.708     -5540.5332     -60.057538      0.99666096     50844.685    
  10800112   436.78717      9447.0165     -873.86322      2520.7402      2726.3807      11826.809     -5539.215      -55.430063      0.99303577     51030.299    
Loop time of 3960.54 on 24 procs for 1200000 steps with 5010 atoms

Performance: 6.545 ns/day, 3.667 hours/ns, 302.989 timesteps/s, 1.518 Matom-step/s
99.5% CPU use with 24 MPI tasks x no OpenMP threads

MPI task timing breakdown:
Section |  min time  |  avg time  |  max time  |%varavg| %total
---------------------------------------------------------------
Pair    | 1965.9     | 2219.5     | 2393.6     | 245.2 | 56.04
Bond    | 636.78     | 712.93     | 795.65     | 145.3 | 18.00
Kspace  | 622.14     | 815.72     | 1102.4     | 442.0 | 20.60
Neigh   | 33.854     | 33.89      | 33.915     |   0.3 |  0.86
Comm    | 129.87     | 131.82     | 134.71     |  12.3 |  3.33
Output  | 0.0030248  | 0.0033972  | 0.011618   |   2.9 |  0.00
Modify  | 31.864     | 33.674     | 35.324     |  16.8 |  0.85
Other   |            | 12.96      |            |       |  0.33

Nlocal:         208.75 ave         223 max         193 min
Histogram: 3 2 2 0 3 1 5 2 3 3
Nghost:        4830.33 ave        4888 max        4761 min
Histogram: 1 1 0 4 2 8 1 2 4 1
Neighs:        73982.9 ave       84455 max       62945 min
Histogram: 2 1 1 3 5 5 2 1 0 4

Total # of neighbors = 1775590
Ave neighs/atom = 354.40918
Ave special neighs/atom = 6.1964072
Neighbor list builds = 11495
Dangerous builds = 0
unfix           fNPT
unfix           fMOM
next            a
jump            SELF loop
variable        a loop 26
variable        b equal 600-20*($a-1)
variable        b equal 600-20*(10-1)
fix             fMOM all momentum 100 linear 1 1 1 angular
fix             fNPT all npt temp $b $b $(100.0*dt) iso 1 1 $(100.0*dt)
fix             fNPT all npt temp 420 $b $(100.0*dt) iso 1 1 $(100.0*dt)
fix             fNPT all npt temp 420 420 $(100.0*dt) iso 1 1 $(100.0*dt)
fix             fNPT all npt temp 420 420 25 iso 1 1 $(100.0*dt)
fix             fNPT all npt temp 420 420 25 iso 1 1 25
run             1200000
PPPM initialization ...
  using 12-bit tables for long-range coulomb (../kspace.cpp:342)
  G vector (1/distance) = 0.11850754
  grid = 4 4 4
  stencil order = 5
  estimated absolute RMS force accuracy = 0.23862891
  estimated relative force accuracy = 0.00071862387
  using double precision KISS FFT
  3d grid and FFT values/proc = 294 4
Generated 28 of 28 mixed pair_coeff terms from sixthpower/sixthpower mixing rule
WARNING: Inconsistent image flags (../domain.cpp:815)
Per MPI rank memory allocation (min/avg/max) = 15.5 | 15.5 | 15.5 Mbytes
   Step          Temp          PotEng         E_vdwl         E_coul         E_bond        E_angle        E_dihed        E_impro        Density         Volume    
  10800112   436.78717      9447.0242     -873.86322      2521.0066      2726.3807      11826.809     -5539.215      -55.430063      0.99303577     51030.299    
  10820000   421.35442      9184.0144     -943.5644       2519.1147      2669.1487      11748.661     -5590.731      -58.973508      1.0097273      50186.732    
  10840000   419.46301      9013.335      -958.41869      2500.5662      2598.814       11628.69      -5536.3185     -60.740091      1.0027618      50535.346    
  10860000   421.3966       9014.2681     -966.72888      2508.3523      2621.3135      11626.762     -5556.4406     -60.106997      1.0092858      50208.682    
  10880000   416.23847      8982.8176     -974.93376      2506.6792      2647.1587      11549.455     -5532.2089     -55.904067      1.0106313      50141.839    
  10900000   414.45878      8979.8275     -923.35648      2474.6989      2612.5441      11621.448     -5587.7279     -59.282354      1.0068524      50330.033    
  10920000   433.13839      9055.9112     -921.07283      2495.0846      2567.7005      11766.752     -5638.2899     -54.737898      1.0003299      50658.201    
  10940000   417.48818      8983.3913     -943.6458       2512.1838      2596.9082      11620.658     -5586.9881     -56.853542      1.0052836      50408.575    
  10960000   421.40687      9071.3135     -924.11144      2501.0166      2629.0137      11666.128     -5585.701      -55.954935      1.014361       49957.476    
  10980000   423.9254       9063.4172     -921.56547      2510.283       2605.401       11597.715     -5510.0109     -59.35435       1.0077226      50286.567    
  11000000   416.05019      9025.1779     -973.80986      2521.298       2606.9266      11630.657     -5538.195      -62.413607      1.0181188      49773.082    
  11020000   421.8262       8943.714      -958.15356      2508.7098      2669.6885      11568.61      -5631.2465     -56.048982      1.0056243      50391.494    
  11040000   428.93776      9038.0809     -961.16219      2489.8151      2658.8222      11630.586     -5558.3013     -62.985339      0.99957887     50696.262    
  11060000   417.27591      9022.0442     -1007.2465      2524.0588      2599.5093      11652.215     -5529.2254     -58.377607      1.0109643      50125.323    
  11080000   411.73007      8998.5267     -941.63654      2509.7646      2641.0973      11565.933     -5557.496      -60.007852      1.01344        50002.873    
  11100000   419.69454      9186.4354     -882.81743      2511.0905      2659.0299      11655.81      -5529.395      -68.14935       1.0151332      49919.471    
  11120000   417.10946      8978.606      -949.86472      2516.6979      2551.9295      11656.197     -5580.5746     -57.047321      1.0152203      49915.187    
  11140000   425.72192      9113.9999     -990.28047      2495.4162      2654.9244      11679.085     -5504.2669     -60.316056      1.0120499      50071.555    
  11160000   421.38525      9092.2393     -968.95935      2503.1766      2577.0944      11741.284     -5546.9329     -54.226169      1.0110301      50122.063    
  11180000   411.61438      8974.9019     -1006.0702      2499.2742      2670.4444      11646.078     -5617.92       -56.547664      1.0073202      50306.66     
  11200000   436.21624      8980.4789     -928.70805      2496.1779      2544.13        11636.502     -5544.1119     -64.061709      1.0033824      50504.089    
  11220000   418.96324      9162.015      -954.94785      2499.9339      2678.6548      11778.519     -5628.6373     -51.148092      1.0138417      49983.063    
  11240000   421.3357       9136.6271     -888.52186      2492.296       2639.415       11701.652     -5589.5377     -58.727569      1.0110201      50122.556    
  11260000   427.46633      9092.3175     -959.47083      2500.3731      2646.9852      11635.531     -5515.9363     -55.365528      1.0046624      50439.743    
  11280000   416.75391      9140.8929     -949.97111      2516.4678      2688.6597      11704.238     -5600.2839     -59.154004      1.0013665      50605.759    
  11300000   425.54723      9067.7621     -940.36995      2518.4318      2655.0678      11568.432     -5510.6582     -64.39989       1.0052263      50411.447    
  11320000   415.55706      9198.5828     -877.81069      2525.9759      2687.1647      11631.554     -5553.035      -55.85181       0.99912765     50719.158    
  11340000   421.9717       9155.5939     -935.00035      2508.0021      2660.8419      11766.401     -5625.0423     -59.416363      1.0022665      50560.315    
  11360000   421.25726      9063.5428     -884.61584      2509.9653      2638.2331      11609.354     -5588.0906     -62.789246      1.0090752      50219.165    
  11380000   412.08847      9047.8175     -960.76217      2504.6617      2608.5137      11658.634     -5540.2146     -64.114169      1.0068475      50330.274    
  11400000   426.60167      9083.7675     -838.32626      2526.2919      2527.1925      11597.813     -5509.4729     -60.624439      0.9987343      50739.133    
  11420000   410.33131      9091.8846     -862.21536      2499.7385      2607.5766      11704.543     -5638.0166     -60.01816       1.0056678      50389.318    
  11440000   419.34049      9021.7182     -866.62253      2510.9252      2559.6893      11561.112     -5526.9469     -57.404722      0.99715994     50819.242    
  11460000   411.90856      9017.5806     -992.21825      2492.4941      2613.9828      11647.401     -5525.2621     -60.405674      1.0037969      50483.234    
  11480000   426.19828      9063.1526     -887.22345      2482.2974      2639.5582      11634.367     -5593.37       -53.854215      1.0111993      50113.673    
  11500000   422.43646      9015.7481     -930.26638      2494.6015      2579.0477      11702.962     -5611.7666     -59.111481      1.0042729      50459.306    
  11520000   421.09499      9145.122      -948.86472      2479.6476      2616.9961      11760.68      -5549.3944     -53.884324      1.0000281      50673.488    
  11540000   425.33123      9133.5665     -947.09279      2500.4503      2597.1921      11745.695     -5552.3223     -50.86187       1.0043482      50455.519    
  11560000   416.25752      8947.4278     -955.20125      2492.0993      2617.4106      11561.024     -5545.9065     -62.14958       1.0102404      50161.239    
  11580000   424.8275       9123.3867     -912.20137      2495.8002      2613.6989      11662.556     -5511.7022     -65.632093      1.0034369      50501.347    
  11600000   420.62755      9073.225      -947.30826      2490.579       2638.5158      11670.231     -5556.0324     -63.448561      1.0060708      50369.13     
  11620000   425.22345      8986.8735     -887.98221      2493.4403      2619.7854      11542.792     -5556.4147     -65.205967      1.0009806      50625.268    
  11640000   416.107        9090.5987     -917.6225       2477.0667      2539.0358      11735.759     -5521.1904     -63.796718      1.0044583      50449.993    
  11660000   422.80803      9075.017      -893.60766      2490.4434      2617.8177      11637.176     -5555.3597     -61.671145      1.0010399      50622.272    
  11680000   422.60126      9055.3515     -916.39072      2484.707       2589.68        11658.558     -5545.5224     -57.018564      1.0161549      49869.281    
  11700000   415.90771      9028.7299     -914.80113      2500.5034      2593.6869      11724.096     -5660.2619     -54.385982      1.006232       50361.063    
  11720000   418.34165      9068.8702     -916.28802      2501.4831      2608.972       11625.01      -5533.8204     -58.411431      1.0039259      50476.747    
  11740000   428.1448       9120.0428     -951.61806      2503.3295      2620.2231      11705.49      -5541.4811     -59.130099      1.0186116      49749.003    
  11760000   419.77691      8883.7466     -998.15534      2494.5524      2637.3154      11523.081     -5560.0103     -54.958179      1.0085924      50243.202    
  11780000   423.4566       9003.7741     -967.89526      2484.2667      2670.3137      11576.106     -5541.3443     -59.380743      1.0007953      50634.642    
  11800000   421.22565      8961.2529     -1000.8186      2500.183       2585.9815      11658.228     -5570.2297     -52.721429      1.0014622      50600.922    
  11820000   417.45845      9132.1486     -951.14484      2512.2063      2646.5736      11698.996     -5559.1552     -56.249813      1.0027061      50538.151    
  11840000   416.15892      8995.0671     -990.7417       2491.6491      2577.0795      11702.326     -5565.6041     -61.688018      1.0125708      50045.797    
  11860000   417.92093      9011.5856     -948.58272      2486.1078      2588.4594      11655.248     -5555.3233     -56.080531      1.018858       49736.973    
  11880000   419.28631      9082.2716     -1001.6447      2490.6713      2693.8289      11665.496     -5552.5521     -55.577368      1.0084444      50250.577    
  11900000   414.83123      9012.6922     -1003.4152      2515.1838      2608.3936      11662.116     -5555.6183     -56.15129       1.010953       50125.885    
  11920000   413.14941      9142.2359     -941.48946      2494.1902      2634.3203      11752.04      -5575.1416     -62.314715      1.0049706      50424.273    
  11940000   413.3491       9234.1729     -918.23445      2514.2737      2685.1499      11714.948     -5545.8352     -56.475526      1.004493       50448.248    
  11960000   421.27608      9079.726      -963.30398      2487.7886      2627.1433      11683.071     -5534.3828     -60.802276      1.0116338      50092.152    
  11980000   417.77165      8982.5735     -963.50306      2512.2004      2595.1016      11691.012     -5636.0659     -56.632894      1.0024939      50548.851    
  12000000   417.97448      9059.6711     -997.24913      2488.2245      2595.5649      11757.807     -5564.1821     -60.673106      1.0122942      50059.472    
  12000112   429.38136      8934.6635     -988.93257      2502.5202      2488.9858      11700.871     -5551.7472     -57.341625      1.0120778      50070.173    
Loop time of 4022.62 on 24 procs for 1200000 steps with 5010 atoms

Performance: 6.444 ns/day, 3.725 hours/ns, 298.313 timesteps/s, 1.495 Matom-step/s
99.5% CPU use with 24 MPI tasks x no OpenMP threads

MPI task timing breakdown:
Section |  min time  |  avg time  |  max time  |%varavg| %total
---------------------------------------------------------------
Pair    | 2010.5     | 2240.8     | 2514.8     | 281.6 | 55.71
Bond    | 648.57     | 712.76     | 807.11     | 150.9 | 17.72
Kspace  | 570.59     | 855.3      | 1110.1     | 480.6 | 21.26
Neigh   | 32.47      | 32.497     | 32.518     |   0.2 |  0.81
Comm    | 131.08     | 133.03     | 135.57     |  12.0 |  3.31
Output  | 0.0038528  | 0.004185   | 0.011462   |   2.3 |  0.00
Modify  | 33.173     | 34.938     | 36.541     |  16.4 |  0.87
Other   |            | 13.25      |            |       |  0.33

Nlocal:         208.75 ave         234 max         189 min
Histogram: 1 1 5 4 3 5 2 2 0 1
Nghost:        4901.08 ave        4941 max        4849 min
Histogram: 1 1 2 3 3 3 4 0 5 2
Neighs:        75507.6 ave       86818 max       63813 min
Histogram: 2 1 2 4 2 2 6 3 1 1

Total # of neighbors = 1812182
Ave neighs/atom = 361.71297
Ave special neighs/atom = 6.1964072
Neighbor list builds = 10951
Dangerous builds = 0
unfix           fNPT
unfix           fMOM
next            a
jump            SELF loop
variable        a loop 26
variable        b equal 600-20*($a-1)
variable        b equal 600-20*(11-1)
fix             fMOM all momentum 100 linear 1 1 1 angular
fix             fNPT all npt temp $b $b $(100.0*dt) iso 1 1 $(100.0*dt)
fix             fNPT all npt temp 400 $b $(100.0*dt) iso 1 1 $(100.0*dt)
fix             fNPT all npt temp 400 400 $(100.0*dt) iso 1 1 $(100.0*dt)
fix             fNPT all npt temp 400 400 25 iso 1 1 $(100.0*dt)
fix             fNPT all npt temp 400 400 25 iso 1 1 25
run             1200000
PPPM initialization ...
  using 12-bit tables for long-range coulomb (../kspace.cpp:342)
  G vector (1/distance) = 0.11904768
  grid = 4 4 4
  stencil order = 5
  estimated absolute RMS force accuracy = 0.23783452
  estimated relative force accuracy = 0.0007162316
  using double precision KISS FFT
  3d grid and FFT values/proc = 294 4
Generated 28 of 28 mixed pair_coeff terms from sixthpower/sixthpower mixing rule
WARNING: Inconsistent image flags (../domain.cpp:815)
Per MPI rank memory allocation (min/avg/max) = 15.5 | 15.5 | 15.5 Mbytes
   Step          Temp          PotEng         E_vdwl         E_coul         E_bond        E_angle        E_dihed        E_impro        Density         Volume    
  12000112   429.38136      8934.9679     -988.93257      2508.0994      2488.9858      11700.871     -5551.7472     -57.341625      1.0120778      50070.173    
  12020000   399.79641      8760.5794     -957.34213      2493.9659      2482.9228      11535.267     -5572.0873     -57.758304      1.0097874      50183.744    
  12040000   395.95084      8832.172      -994.23337      2522.1222      2512.7274      11551.859     -5538.1433     -58.671549      1.0086345      50241.107    
  12060000   395.59872      8764.7802     -1016.9904      2509.6368      2486.5491      11616.987     -5612.2194     -56.635689      1.0193802      49711.493    
  12080000   402.57237      8708.9255     -1019.6655      2496.2939      2521.2109      11481.081     -5548.9041     -56.945754      1.0178627      49785.609    
  12100000   396.82333      8787.4148     -975.08109      2508.5057      2592.8078      11415.438     -5528.1765     -61.054869      1.0077752      50283.944    
  12120000   401.73681      8736.5732     -996.86722      2494.672       2493.3113      11504.916     -5533.1756     -61.459697      1.0044041      50452.715    
  12140000   393.7829       8529.934      -1023.3026      2492.8737      2463.8398      11303.051     -5487.4749     -53.842163      1.0232051      49525.665    
  12160000   398.90999      8627.1176     -957.97669      2475.8132      2503.6267      11417.915     -5590.072      -58.358206      1.0182484      49766.747    
  12180000   411.35039      8669.6883     -926.84292      2498.6429      2477.2351      11384.47      -5544.2727     -55.886566      1.0088025      50232.738    
  12200000   407.07749      8836.9011     -982.44532      2470.9415      2564.3665      11547.65      -5543.6836     -55.426888      1.0119509      50076.455    
  12220000   402.11467      8672.1477     -1055.9451      2496.7159      2557.7305      11497.733     -5600.0536     -59.774533      1.0172575      49815.227    
  12240000   396.53253      8820.1596     -976.36454      2493.7362      2556.6579      11477.641     -5508.1116     -59.025976      1.0064213      50351.59     
  12260000   393.52341      8714.1284     -947.912        2486.2979      2460.4614      11497.794     -5559.1311     -58.75615       1.0119663      50075.694    
  12280000   401.37995      8600.5391     -1006.5284      2500.7087      2480.1244      11366.631     -5522.3451     -54.274638      1.0073881      50303.269    
  12300000   412.99664      8767.8427     -984.15971      2494.7127      2539.7181      11492.027     -5551.4407     -57.842375      1.0108638      50130.309    
  12320000   403.43394      8713.6691     -997.61681      2485.9057      2512.3147      11478.195     -5547.5376     -52.846438      1.0189926      49730.403    
  12340000   393.4211       8772.8468     -915.08224      2483.8122      2503.1979      11462.289     -5537.9969     -57.786401      1.006494       50347.954    
  12360000   398.73074      8668.0571     -1012.6038      2509.8816      2534.7681      11465.91      -5611.9324     -53.399883      1.0113202      50107.683    
  12380000   399.38157      8707.1968     -1037.3397      2494.0686      2559.5771      11474.702     -5561.5668     -57.701935      1.0150984      49921.181    
  12400000   405.37292      8802.9967     -984.89827      2475.226       2555.7817      11585.946     -5605.5657     -58.560158      1.0064017      50352.572    
  12420000   396.97915      8725.2964     -1022.3187      2500.4753      2510.5393      11558.222     -5601.671      -55.059297      1.0198898      49686.656    
  12440000   401.55442      8658.5551     -1053.3812      2471.7609      2500.887       11564.716     -5602.1751     -58.966188      1.0174591      49805.358    
  12460000   394.74248      8710.3091     -1004.1748      2506.2594      2507.4467      11481.782     -5559.7215     -56.930628      1.0065764      50343.829    
  12480000   397.81316      8575.8851     -990.80779      2486.2718      2405.2903      11424.7       -5528.9106     -56.63233       1.0175704      49799.907    
  12500000   403.69286      8602.5628     -1012.3085      2508.7811      2449.7319      11452.767     -5573.4083     -59.633128      1.0145555      49947.894    
  12520000   404.97475      8590.4261     -1020.908       2517.8209      2493.3162      11456.37      -5638.7671     -52.868355      1.0089212      50226.831    
  12540000   392.48398      8911.3947     -911.92851      2478.0361      2574.2802      11534.359     -5540.4095     -59.245235      1.0133826      50005.704    
  12560000   401.07269      8739.0094     -953.41616      2497.1537      2514.5869      11435.488     -5528.4        -62.913825      1.0025208      50547.494    
  12580000   394.66282      8748.3472     -1008.6236      2470.3907      2629.5455      11465.416     -5587.2642     -57.620497      1.013175       50015.951    
  12600000   396.88548      8696.9434     -1000.7135      2501.9625      2493.6893      11574.88      -5653.0949     -55.957244      1.0118294      50082.466    
  12620000   392.21044      8832.1916     -896.8005       2494.8278      2575.4556      11472.138     -5589.8671     -58.311596      1.0026839      50539.271    
  12640000   401.87956      8752.165      -975.71031      2487.7814      2568.1454      11445.216     -5550.201      -59.179637      1.0111084      50118.178    
  12660000   396.51399      8689.7584     -996.04614      2517.6007      2494.386       11519.911     -5627.6507     -55.522828      1.012844       50032.299    
  12680000   394.22374      8773.6673     -964.06712      2488.1038      2487.7027      11520.047     -5535.1023     -58.767859      1.0177945      49788.942    
  12700000   405.34597      8713.0298     -1021.9433      2501.5453      2515.0881      11461.451     -5523.4171     -56.883694      1.0118251      50082.678    
  12720000   397.64504      8792.8496     -953.90913      2504.322       2484.1744      11543.29      -5563.5639     -57.027727      1.002232       50562.06     
  12740000   394.03087      8793.8103     -929.25322      2508.3583      2532.0196      11538.767     -5634.4513     -56.164406      0.99845572     50753.289    
  12760000   391.52013      8904.1099     -969.48982      2486.5008      2547.5582      11538.078     -5476.9493     -57.058575      0.99642181     50856.888    
  12780000   403.17695      8728.3745     -904.95642      2480.9382      2493.5064      11455.696     -5582.2869     -49.972269      0.99771223     50791.111    
  12800000   396.18747      8711.5905     -950.18104      2478.477       2511.9179      11519.316     -5625.2676     -57.778718      0.99751815     50800.993    
  12820000   402.16236      8843.5098     -948.88478      2477.5701      2460.6804      11592.836     -5521.8742     -52.036887      0.99246213     51059.795    
  12840000   401.83098      8856.4272     -912.85171      2501.3316      2496.4153      11469.343     -5479.059      -54.198031      1.0047555      50435.07     
  12860000   405.07684      8862.6239     -989.67091      2500.3927      2546.738       11559.026     -5528.8303     -60.199485      1.0053027      50407.617    
  12880000   399.17966      8720.4858     -948.79854      2510.6048      2475.3221      11505.572     -5594.5633     -62.458765      1.0015746      50595.247    
  12900000   398.62548      8688.9258     -1019.7118      2493.1418      2521.4582      11500.829     -5587.6652     -54.497938      1.0145972      49945.842    
  12920000   402.99276      8658.6613     -1031.0003      2505.6913      2527.8426      11486.208     -5614.1629     -51.145093      1.012292       50059.582    
  12940000   401.03419      8755.5573     -977.69527      2494.8944      2547.4621      11556.922     -5650.0826     -52.392538      1.0046784      50438.94     
  12960000   397.12182      8756.6977     -988.74053      2501.7888      2489.3005      11504.256     -5517.3865     -68.099092      1.0181532      49771.403    
  12980000   402.40493      8897.3968     -967.04847      2505.7067      2607.0382      11556.147     -5594.4064     -45.180278      1.0112246      50112.42     
  13000000   400.64108      8822.1056     -977.51747      2515.4564      2492.1361      11589.591     -5582.2436     -51.163116      1.0103435      50156.121    
  13020000   399.84593      8799.2037     -1001.2305      2518.7505      2486.2797      11673.086     -5654.3783     -58.366951      1.0099096      50177.674    
  13040000   390.44652      8749.0541     -930.83181      2485.1526      2532.3941      11425.017     -5538.7804     -60.474642      1.0070482      50320.247    
  13060000   398.19189      8724.0861     -987.87709      2481.7928      2557.6229      11469.778     -5570.2594     -61.34556       1.014302       49960.378    
  13080000   400.92672      8721.032      -995.29965      2499.0949      2501.9474      11488.169     -5550.2169     -57.89456       1.0110115      50122.981    
  13100000   402.45435      8868.4877     -954.01401      2498.2666      2581.1997      11492.589     -5528.5221     -56.282763      1.0111149      50117.86     
  13120000   403.39073      8736.4655     -1020.3366      2512.971       2504.6099      11609.277     -5647.0151     -58.848276      1.0078605      50279.688    
  13140000   401.56276      8767.5931     -937.09475      2486.0299      2531.9964      11462.86      -5547.3287     -63.507871      1.0067587      50334.714    
  13160000   402.18152      8675.4575     -930.06708      2498.5276      2473.7038      11406.763     -5557.1144     -51.061896      1.0074373      50300.809    
  13180000   400.34352      8766.6522     -965.57473      2511.899       2486.8616      11488.247     -5526.8899     -62.96214       1.0160508      49874.388    
  13200000   398.25705      8742.2563     -976.14969      2507.0666      2555.4538      11508.383     -5626.2011     -61.723869      1.0111899      50114.14     
  13200112   401.58358      8722.9055     -974.12674      2504.9793      2615.8557      11406.649     -5605.8608     -60.215187      1.0117171      50088.025    
Loop time of 4010.96 on 24 procs for 1200000 steps with 5010 atoms

Performance: 6.462 ns/day, 3.714 hours/ns, 299.180 timesteps/s, 1.499 Matom-step/s
99.5% CPU use with 24 MPI tasks x no OpenMP threads

MPI task timing breakdown:
Section |  min time  |  avg time  |  max time  |%varavg| %total
---------------------------------------------------------------
Pair    | 2025.8     | 2245.5     | 2481.2     | 284.9 | 55.98
Bond    | 619.91     | 712.2      | 793.54     | 149.9 | 17.76
Kspace  | 587.31     | 841.29     | 1087.3     | 493.1 | 20.97
Neigh   | 31.599     | 31.645     | 31.689     |   0.4 |  0.79
Comm    | 131.13     | 133.11     | 135.88     |  12.3 |  3.32
Output  | 0.0036796  | 0.0040516  | 0.01213    |   2.6 |  0.00
Modify  | 32.417     | 34.253     | 35.997     |  16.8 |  0.85
Other   |            | 12.94      |            |       |  0.32

Nlocal:         208.75 ave         226 max         191 min
Histogram: 2 0 3 2 5 2 5 3 1 1
Nghost:        4916.54 ave        4958 max        4874 min
Histogram: 2 1 1 2 5 6 2 2 1 2
Neighs:        75423.3 ave       85566 max       68279 min
Histogram: 3 5 3 2 2 2 2 1 2 2

Total # of neighbors = 1810159
Ave neighs/atom = 361.30918
Ave special neighs/atom = 6.1964072
Neighbor list builds = 10595
Dangerous builds = 0
unfix           fNPT
unfix           fMOM
next            a
jump            SELF loop
variable        a loop 26
variable        b equal 600-20*($a-1)
variable        b equal 600-20*(12-1)
fix             fMOM all momentum 100 linear 1 1 1 angular
fix             fNPT all npt temp $b $b $(100.0*dt) iso 1 1 $(100.0*dt)
fix             fNPT all npt temp 380 $b $(100.0*dt) iso 1 1 $(100.0*dt)
fix             fNPT all npt temp 380 380 $(100.0*dt) iso 1 1 $(100.0*dt)
fix             fNPT all npt temp 380 380 25 iso 1 1 $(100.0*dt)
fix             fNPT all npt temp 380 380 25 iso 1 1 25
run             1200000
PPPM initialization ...
  using 12-bit tables for long-range coulomb (../kspace.cpp:342)
  G vector (1/distance) = 0.11903754
  grid = 4 4 4
  stencil order = 5
  estimated absolute RMS force accuracy = 0.2378496
  estimated relative force accuracy = 0.00071627701
  using double precision KISS FFT
  3d grid and FFT values/proc = 294 4
Generated 28 of 28 mixed pair_coeff terms from sixthpower/sixthpower mixing rule
WARNING: Inconsistent image flags (../domain.cpp:815)
Per MPI rank memory allocation (min/avg/max) = 15.5 | 15.5 | 15.5 Mbytes
   Step          Temp          PotEng         E_vdwl         E_coul         E_bond        E_angle        E_dihed        E_impro        Density         Volume    
  13200112   401.58358      8722.9017     -974.12674      2504.8765      2615.8557      11406.649     -5605.8608     -60.215187      1.0117171      50088.025    
  13220000   382.50445      8348.8479     -1082.7435      2484.2971      2368.7572      11390.663     -5595.2808     -51.392539      1.01788        49784.762    
  13240000   388.11567      8432.8457     -1035.1547      2511.2654      2439.8943      11348.107     -5617.2046     -50.131726      1.0206443      49649.925    
  13260000   376.7493       8361.3597     -1034.556       2503.8401      2347.2324      11350.364     -5583.2553     -57.488196      1.0230512      49533.112    
  13280000   378.14442      8386.6113     -1042.943       2479.5817      2362.7299      11359.388     -5545.7924     -61.815385      1.0182592      49766.222    
  13300000   380.58846      8382.8848     -1016.1984      2486.603       2432.8024      11314.534     -5615.9155     -54.459231      1.0139603      49977.217    
  13320000   379.69403      8340.608      -1076.0593      2499.7365      2351.2499      11352.475     -5560.2049     -62.057374      1.0265095      49366.239    
  13340000   377.83989      8366.0476     -1057.8652      2497.1527      2391.1849      11391.451     -5630.165      -61.139198      1.0078533      50280.05     
  13360000   386.80893      8464.5729     -1029.6963      2491.7611      2387.7099      11438.838     -5605.3726     -53.592263      1.0150188      49925.099    
  13380000   378.77598      8472.5531     -957.57776      2489.5867      2426.5492      11310.776     -5572.1732     -59.509367      0.99520246     50919.199    
  13400000   381.25166      8386.7146     -1024.49        2488.044       2451.7029      11341.522     -5648.2532     -57.302763      1.019517       49704.826    
  13420000   380.30206      8405.3134     -987.80515      2495.0077      2435.047       11317.253     -5627.2037     -62.548245      1.0057147      50386.965    
  13440000   382.31811      8339.0998     -1006.0367      2501.5003      2331.8794      11315.59      -5582.3655     -57.368986      1.0113233      50107.531    
  13460000   380.12073      8363.0317     -1003.1501      2506.7084      2401.1415      11309.186     -5636.505      -49.530767      1.0161777      49868.159    
  13480000   372.16174      8407.5665     -1000.7707      2509.089       2327.9598      11320.294     -5525.6385     -58.369607      1.0241447      49480.226    
  13500000   381.86912      8393.168      -1078.8619      2513.3967      2482.0566      11278.905     -5579.7132     -58.70408       1.0169827      49828.689    
  13520000   378.57865      8374.4215     -1011.0887      2516.5406      2315.916       11317.629     -5544.1696     -55.107441      1.0133485      50007.388    
  13540000   371.6651       8425.0813     -1037.1419      2520.7468      2423.4126      11279.881     -5537.4759     -58.957575      1.0213035      49617.879    
  13560000   374.59587      8289.609      -1059.2876      2501.5348      2396.2118      11245.269     -5576.5243     -52.919269      1.0206605      49649.137    
  13580000   373.22311      8358.0028     -1004.4637      2489.3922      2401.8995      11322.294     -5626.9604     -59.678064      1.0241676      49479.12     
  13600000   380.35185      8278.8892     -1072.428       2488.6467      2407.0827      11332.605     -5660.5552     -52.676276      1.0276196      49312.909    
  13620000   373.55643      8468.3394     -1048.8835      2511.4649      2371.4257      11392.958     -5541.113      -53.4822        1.0261038      49385.754    
  13640000   380.56256      8411.0196     -1042.8616      2519.4937      2375.9979      11345.523     -5566.943      -56.274352      1.0126935      50039.731    
  13660000   382.43873      8376.5406     -969.56516      2492.0837      2335.5573      11353.533     -5610.2978     -60.331152      1.0211447      49625.593    
  13680000   375.60048      8310.8869     -1067.0514      2482.8394      2358.5755      11366.958     -5610.392      -55.490283      1.0331416      49049.34     
  13700000   381.85524      8314.9393     -1077.9864      2509.743       2312.0311      11411.378     -5624.6739     -50.016424      1.0192542      49717.641    
  13720000   377.33379      8464.7784     -1049.577       2510.2125      2336.8477      11479.024     -5591.3001     -56.215843      1.0076416      50290.613    
  13740000   378.446        8355.0909     -1062.3135      2499.544       2331.2892      11440.924     -5631.7111     -57.539102      1.0255013      49414.77     
  13760000   379.19108      8329.2847     -977.70345      2485.3145      2361.4928      11277.174     -5596.053      -55.618598      1.0195542      49703.008    
  13780000   382.21622      8359.7509     -1025.9255      2514.9842      2367.4446      11313.23      -5590.4683     -54.238893      1.0236447      49504.397    
  13800000   374.94957      8324.2436     -1070.1876      2510.6857      2418.8282      11330.032     -5642.7576     -57.909874      1.0229008      49540.4      
  13820000   384.96824      8391.1344     -995.5679       2521.83        2415.7459      11266.17      -5595.2773     -56.926346      1.017036       49826.074    
  13840000   375.84731      8475.1397     -1022.5307      2493.1089      2433.8405      11388.019     -5595.6398     -56.601621      1.0124846      50050.06     
  13860000   386.02785      8399.8007     -1026.965       2493.4323      2391.6478      11407.287     -5640.7725     -60.452061      1.0211509      49625.292    
  13880000   378.07166      8315.7751     -1090.5861      2488.4873      2401.25        11363.533     -5625.6649     -57.866534      1.0235826      49507.398    
  13900000   382.56576      8391.2074     -1027.914       2473.7055      2409.3993      11348.978     -5598.018      -50.450457      1.0128444      50032.279    
  13920000   383.45505      8533.1556     -986.50301      2496.9416      2398.8583      11418.671     -5573.2692     -56.52886       1.0134453      50002.614    
  13940000   383.40114      8554.9627     -991.69476      2505.9275      2422.4488      11369.57      -5528.1868     -58.852394      1.0163086      49861.739    
  13960000   379.98493      8456.4976     -975.86284      2495.0199      2369.8305      11408.313     -5613.5955     -62.497264      1.0201395      49674.493    
  13980000   385.5411       8478.2064     -941.3701       2490.5972      2397.1987      11351.619     -5594.228      -60.951028      1.0131711      50016.146    
  14000000   382.59192      8334.2271     -1049.1111      2484.9413      2386.0529      11296.298     -5560.7744     -58.031677      1.0218191      49592.84     
  14020000   377.79228      8348.4262     -1083.1635      2499.0548      2418.7251      11330.678     -5599.0459     -53.03077       1.0270102      49342.169    
  14040000   379.96954      8471.9806     -994.40346      2502.8765      2427.0828      11380.633     -5627.1171     -52.888958      1.0165292      49850.918    
  14060000   375.19572      8420.2121     -1016.5874      2471.3127      2453.9712      11348.237     -5612.7654     -58.727247      1.0161777      49868.16     
  14080000   375.10245      8355.4071     -1053.1335      2476.6497      2378.4858      11469.979     -5698.0855     -53.567324      1.0275642      49315.567    
  14100000   385.14691      8432.9258     -1024.1991      2490.2784      2423.773       11387.451     -5617.8816     -62.44306       1.0291965      49237.355    
  14120000   382.70358      8326.9061     -1025.1623      2484.5105      2271.5756      11293.191     -5477.7703     -54.767383      1.0183676      49760.922    
  14140000   382.89408      8412.6608     -1004.3919      2512.8332      2300.8898      11387.555     -5567.2499     -53.369087      1.013208       50014.322    
  14160000   378.87584      8393.1626     -1024.0837      2493.4355      2454.3814      11250.128     -5563.5205     -52.848165      1.016616       49846.659    
  14180000   371.32628      8437.7984     -1015.8072      2486.1194      2455.7664      11348.198     -5614.318      -56.877133      1.0159262      49880.505    
  14200000   384.71081      8333.3198     -995.1192       2485.8579      2309.2193      11325.501     -5572.3523     -54.849793      1.0297274      49211.97     
  14220000   377.04472      8504.3014     -1021.9631      2498.1236      2432.6641      11405.529     -5594.8828     -50.841145      1.0227129      49549.501    
  14240000   375.80933      8421.2628     -958.47362      2510.0737      2356.4724      11319.559     -5581.9538     -59.791462      1.0070817      50318.569    
  14260000   388.24358      8466.8706     -1037.4921      2503.321       2375.9825      11420.576     -5566.812      -64.630391      1.0260324      49389.195    
  14280000   378.39351      8216.4949     -986.76192      2489.3146      2301.6541      11261.12      -5628.8972     -55.155108      1.0158695      49883.289    
  14300000   369.65227      8232.7386     -992.02063      2512.0211      2322.1704      11204.793     -5590.7683     -59.030885      1.0198466      49688.762    
  14320000   377.94607      8403.0632     -974.29796      2503.417       2407.9704      11306.229     -5622.8078     -52.58462       1.0230185      49534.697    
  14340000   387.06504      8322.4576     -1013.5223      2522.5155      2336.3614      11279.531     -5572.2746     -65.656939      1.0198014      49690.962    
  14360000   375.42375      8269.7889     -1030.997       2514.0705      2343.6835      11332.436     -5668.4949     -56.26365       1.014379       49956.585    
  14380000   382.74904      8252.589      -1001.0347      2505.9249      2329.5521      11205.392     -5576.1508     -47.308044      1.012019       50073.082    
  14400000   382.87796      8426.1909     -991.86732      2494.1095      2410.2991      11307.379     -5577.8955     -51.303722      1.0142667      49962.119    
  14400112   379.5566       8359.3759     -1020.1129      2496.5801      2363.6751      11307.743     -5569.6059     -54.257842      1.0129594      50026.597    
Loop time of 3983.56 on 24 procs for 1200000 steps with 5010 atoms

Performance: 6.507 ns/day, 3.688 hours/ns, 301.238 timesteps/s, 1.509 Matom-step/s
99.5% CPU use with 24 MPI tasks x no OpenMP threads

MPI task timing breakdown:
Section |  min time  |  avg time  |  max time  |%varavg| %total
---------------------------------------------------------------
Pair    | 2051.6     | 2262.3     | 2458.2     | 247.6 | 56.79
Bond    | 644.34     | 711.86     | 790.44     | 130.4 | 17.87
Kspace  | 588.78     | 799.71     | 1029.9     | 421.7 | 20.08
Neigh   | 30.064     | 30.118     | 30.16      |   0.6 |  0.76
Comm    | 130.69     | 132.78     | 135.53     |  11.5 |  3.33
Output  | 0.0035386  | 0.0040413  | 0.015127   |   3.6 |  0.00
Modify  | 31.736     | 33.877     | 35.65      |  17.8 |  0.85
Other   |            | 12.93      |            |       |  0.32

Nlocal:         208.75 ave         229 max         186 min
Histogram: 1 1 1 3 6 1 7 2 1 1
Nghost:        4929.58 ave        4959 max        4900 min
Histogram: 1 0 3 2 6 5 2 3 1 1
Neighs:          75801 ave       83517 max       62966 min
Histogram: 1 0 1 2 5 1 2 3 6 3

Total # of neighbors = 1819223
Ave neighs/atom = 363.11836
Ave special neighs/atom = 6.1964072
Neighbor list builds = 10174
Dangerous builds = 0
unfix           fNPT
unfix           fMOM
next            a
jump            SELF loop
variable        a loop 26
variable        b equal 600-20*($a-1)
variable        b equal 600-20*(13-1)
fix             fMOM all momentum 100 linear 1 1 1 angular
fix             fNPT all npt temp $b $b $(100.0*dt) iso 1 1 $(100.0*dt)
fix             fNPT all npt temp 360 $b $(100.0*dt) iso 1 1 $(100.0*dt)
fix             fNPT all npt temp 360 360 $(100.0*dt) iso 1 1 $(100.0*dt)
fix             fNPT all npt temp 360 360 25 iso 1 1 $(100.0*dt)
fix             fNPT all npt temp 360 360 25 iso 1 1 25
run             1200000
PPPM initialization ...
  using 12-bit tables for long-range coulomb (../kspace.cpp:342)
  G vector (1/distance) = 0.11907247
  grid = 4 4 4
  stencil order = 5
  estimated absolute RMS force accuracy = 0.23779767
  estimated relative force accuracy = 0.00071612063
  using double precision KISS FFT
  3d grid and FFT values/proc = 294 4
Generated 28 of 28 mixed pair_coeff terms from sixthpower/sixthpower mixing rule
WARNING: Inconsistent image flags (../domain.cpp:815)
Per MPI rank memory allocation (min/avg/max) = 15.5 | 15.5 | 15.5 Mbytes
   Step          Temp          PotEng         E_vdwl         E_coul         E_bond        E_angle        E_dihed        E_impro        Density         Volume    
  14400112   379.5566       8359.3973     -1020.1129      2496.9428      2363.6751      11307.743     -5569.6059     -54.257842      1.0129594      50026.597    
  14420000   362.4541       8166.7883     -1026.3387      2506.0127      2270.4268      11234.088     -5600.2241     -53.964186      1.0206693      49648.709    
  14440000   361.88228      8016.4647     -1031.3818      2500.2589      2238.5756      11170.554     -5642.585      -54.07636       1.0213527      49615.488    
  14460000   362.78168      8076.6478     -1011.3782      2494.4408      2252.982       11221.882     -5653.6551     -63.298418      1.0110117      50122.973    
  14480000   358.03476      8084.464      -1012.0106      2497.8576      2287.0225      11193.29      -5667.2998     -49.746123      1.0181221      49772.924    
  14500000   361.35252      8050.3266     -1031.1391      2520.9383      2260.1384      11192.047     -5676.508      -51.525154      1.0119506      50076.467    
  14520000   365.17079      8173.5683     -1023.4446      2481.587       2293.8512      11285.416     -5638.9408     -60.280623      1.0061358      50365.878    
  14540000   358.01791      8114.1986     -1026.0198      2522.8556      2319.4951      11147.588     -5629.5321     -56.295227      1.0223384      49567.652    
  14560000   357.38491      8007.1353     -1045.4237      2505.5179      2242.4679      11119.907     -5592.4067     -58.96078       1.0152298      49914.722    
  14580000   358.84609      8022.3196     -1013.5177      2522.8966      2252.737       11098.481     -5618.0821     -55.363846      1.020256       49668.822    
  14600000   357.85349      8077.9953     -1038.559       2510.8878      2245.7975      11265.744     -5684.0747     -58.705083      1.0231823      49526.769    
  14620000   371.10511      8016.2461     -1069.8807      2507.9041      2219.6696      11205.898     -5622.1621     -61.55962       1.0222765      49570.65     
  14640000   363.67751      8084.8633     -1056.392       2504.085       2299.0592      11197.435     -5636.9668     -58.342378      1.0317353      49116.196    
  14660000   357.34338      7941.9869     -1088.6158      2504.695       2237.6813      11129.403     -5614.1168     -61.604264      1.033991       49009.045    
  14680000   357.41544      8042.8274     -1037.9315      2507.4666      2225.9743      11165.137     -5597.754      -54.899283      1.0309011      49155.942    
  14700000   355.45418      8090.1269     -1057.6044      2538.9491      2256.7828      11170.042     -5599.8213     -53.361064      1.0241341      49480.74     
  14720000   353.42177      8012.8313     -1067.8168      2499.7382      2260.6659      11133.881     -5596.111      -52.957244      1.0270597      49339.793    
  14740000   356.11242      8092.4946     -1107.6118      2517.8785      2310.7909      11257.645     -5668.1509     -54.486757      1.0369092      48871.121    
  14760000   358.98678      8147.7807     -1049.213       2501.7533      2310.5595      11213.175     -5611.5919     -53.929138      1.0306364      49168.566    
  14780000   356.38329      7978.6522     -1098.5308      2500.5807      2252.1127      11163.254     -5623.5837     -51.907936      1.0316536      49120.085    
  14800000   364.38343      8168.6958     -1082.6072      2485.1798      2361.3427      11205.205     -5580.0947     -55.160331      1.0250663      49435.74     
  14820000   359.91452      8106.4277     -1081.3374      2485.5391      2368.6395      11146.514     -5589.1123     -59.526029      1.0297783      49209.536    
  14840000   360.00443      8043.1154     -1122.3503      2483.3436      2277.8538      11222.276     -5597.7398     -56.848814      1.0404681      48703.956    
  14860000   359.06272      7929.6469     -1154.8797      2489.2679      2226.0022      11173.115     -5584.9872     -53.719437      1.0387522      48784.409    
  14880000   365.4544       8022.3553     -1037.3455      2498.9267      2310.8748      11139.508     -5669.2435     -55.925859      1.031096       49146.65     
  14900000   364.54328      8073.5288     -1075.4716      2501.1418      2304.0218      11214.838     -5649.9802     -57.71616       1.0253179      49423.611    
  14920000   363.24339      8079.0095     -1145.2899      2518.3833      2301.7809      11245.502     -5628.2527     -50.596401      1.0344051      48989.425    
  14940000   361.8693       8031.5538     -1102.9896      2493.8207      2207.0738      11227.631     -5569.939      -60.789255      1.0296161      49217.291    
  14960000   366.12485      8066.7077     -1082.6948      2512.774       2222.9769      11319.11      -5687.2421     -54.319487      1.0329427      49058.782    
  14980000   355.00746      7994.2637     -1103.6459      2489.9279      2283.1531      11242.93      -5698.699      -55.591184      1.0335106      49031.828    
  15000000   354.15221      8030.9855     -1123.6778      2506.0777      2313.3645      11161.335     -5606.521      -54.748664      1.0429111      48589.87     
  15020000   361.08111      8090.5646     -1115.4454      2491.0732      2306.1299      11263.724     -5633.0118     -57.998192      1.0383682      48802.451    
  15040000   359.96889      8009.7109     -1045.8812      2493.4582      2243.5094      11141.653     -5603.3366     -55.080257      1.0340003      49008.606    
  15060000   360.18943      7987.6311     -1111.6888      2474.6185      2310.6539      11239.046     -5705.4759     -54.899313      1.0300057      49198.671    
  15080000   365.18817      7985.24       -1090.2399      2487.8909      2237.9951      11176.32      -5608.7132     -53.517251      1.0297733      49209.775    
  15100000   363.73972      7964.6619     -1157.3534      2479.763       2186.6422      11278.751     -5611.4309     -47.654903      1.0439488      48541.567    
  15120000   353.17755      7999.5118     -1124.8001      2482.2795      2347.1528      11078.5       -5569.7805     -49.583125      1.0399953      48726.1      
  15140000   355.13834      8086.2209     -1063.319       2477.6565      2341.7469      11226.341     -5681.8482     -49.242009      1.0231802      49526.869    
  15160000   359.0414       8037.1438     -1087.8342      2489.1979      2298.4452      11149.393     -5588.1594     -58.437465      1.0337423      49020.837    
  15180000   360.088        8090.508      -1130.9955      2505.8647      2331.2514      11202.676     -5602.1608     -51.708131      1.0289809      49247.67     
  15200000   361.01147      7993.7954     -1084.3833      2500.1057      2271.8965      11170.049     -5641.3342     -57.90701       1.0290646      49243.664    
  15220000   358.99917      8112.9306     -1085.2303      2492.1136      2305.9576      11241.289     -5621.1374     -54.747954      1.0314214      49131.141    
  15240000   366.61475      7995.6239     -1084.2775      2492.1084      2215.6545      11227.09      -5636.9799     -53.256315      1.0334805      49033.256    
  15260000   358.07262      8170.6148     -1061.1091      2514.0959      2306.272       11241.326     -5610.0973     -54.495741      1.0280506      49292.234    
  15280000   361.95705      8019.8804     -1120.6986      2512.3779      2340.6848      11131.443     -5624.1218     -56.738419      1.0413158      48664.31     
  15300000   364.82996      7902.7583     -1117.1647      2468.0267      2324.7408      11083.348     -5638.0843     -52.776778      1.0410265      48677.831    
  15320000   361.92633      8075.0836     -1061.1389      2478.7431      2201.9771      11344.481     -5662.9276     -61.676784      1.0360854      48909.974    
  15340000   358.78373      7940.5994     -1112.0491      2483.5953      2226.9811      11151.64      -5584.6591     -59.18382       1.032884       49061.573    
  15360000   360.15017      8043.3664     -1079.1591      2511.7415      2269.8193      11212.636     -5651.1021     -56.458542      1.0261545      49383.315    
  15380000   363.22933      8032.3875     -1076.0897      2488.3417      2270.5202      11257.515     -5687.2993     -56.268903      1.030658       49167.534    
  15400000   359.46372      7993.8148     -1142.7882      2504.7046      2335.8941      11160.51      -5644.1593     -55.703017      1.0298497      49206.122    
  15420000   362.31967      7938.0928     -1091.4496      2487.8783      2253.3958      11118.972     -5612.2882     -54.19341       1.027567       49315.432    
  15440000   357.44167      8042.2006     -1078.2424      2478.321       2334.9846      11198.224     -5678.0122     -48.555095      1.0362146      48903.88     
  15460000   362.69129      8173.4142     -1090.0765      2494.7187      2302.9811      11331.29      -5645.76       -54.289973      1.038023       48818.68     
  15480000   360.00461      8054.8958     -1118.4965      2474.6395      2305.7594      11257.01      -5644.066      -56.017559      1.0353517      48944.635    
  15500000   348.70607      8086.9793     -1127.1587      2497.2467      2328.2462      11261.971     -5650.6109     -57.978832      1.0329688      49057.543    
  15520000   371.28783      8031.5011     -1089.6906      2475.4329      2267.9242      11257.536     -5659.1607     -55.241353      1.0318777      49109.416    
  15540000   361.95901      8041.3671     -1103.859       2483.0344      2381.1366      11128.967     -5632.2836     -50.361153      1.0347304      48974.025    
  15560000   367.0768       8013.177      -1099.4536      2483.6686      2195.0399      11293.2       -5637.1281     -57.400494      1.0390268      48771.518    
  15580000   365.91689      7987.3327     -1140.1451      2488.3794      2244.7167      11279.565     -5670.5475     -49.691248      1.0425784      48605.373    
  15600000   363.45688      7992.0851     -1103.7388      2498.3536      2237.3011      11141.319     -5558.607      -57.702373      1.0391302      48766.662    
  15600112   354.0667       8027.9285     -1139.0368      2498.598       2269.1372      11227.293     -5608.3303     -55.06874       1.041242       48667.758    
Loop time of 3958.68 on 24 procs for 1200000 steps with 5010 atoms

Performance: 6.548 ns/day, 3.665 hours/ns, 303.131 timesteps/s, 1.519 Matom-step/s
99.5% CPU use with 24 MPI tasks x no OpenMP threads

MPI task timing breakdown:
Section |  min time  |  avg time  |  max time  |%varavg| %total
---------------------------------------------------------------
Pair    | 2095.3     | 2286.3     | 2417.9     | 203.6 | 57.75
Bond    | 657.75     | 711.22     | 774.99     | 116.6 | 17.97
Kspace  | 613.41     | 752.51     | 964.02     | 347.5 | 19.01
Neigh   | 28.446     | 28.481     | 28.515     |   0.4 |  0.72
Comm    | 131.62     | 133.52     | 136.73     |  12.9 |  3.37
Output  | 0.0029516  | 0.0032808  | 0.010446   |   2.6 |  0.00
Modify  | 31.916     | 33.904     | 35.643     |  18.4 |  0.86
Other   |            | 12.71      |            |       |  0.32

Nlocal:         208.75 ave         233 max         195 min
Histogram: 3 2 7 5 0 2 3 1 0 1
Nghost:        4978.33 ave        5022 max        4926 min
Histogram: 1 2 3 2 2 2 4 4 1 3
Neighs:        77474.9 ave       82758 max       68056 min
Histogram: 1 1 2 1 2 1 3 3 7 3

Total # of neighbors = 1859398
Ave neighs/atom = 371.13733
Ave special neighs/atom = 6.1964072
Neighbor list builds = 9741
Dangerous builds = 0
unfix           fNPT
unfix           fMOM
next            a
jump            SELF loop
variable        a loop 26
variable        b equal 600-20*($a-1)
variable        b equal 600-20*(14-1)
fix             fMOM all momentum 100 linear 1 1 1 angular
fix             fNPT all npt temp $b $b $(100.0*dt) iso 1 1 $(100.0*dt)
fix             fNPT all npt temp 340 $b $(100.0*dt) iso 1 1 $(100.0*dt)
fix             fNPT all npt temp 340 340 $(100.0*dt) iso 1 1 $(100.0*dt)
fix             fNPT all npt temp 340 340 25 iso 1 1 $(100.0*dt)
fix             fNPT all npt temp 340 340 25 iso 1 1 25
run             1200000
PPPM initialization ...
  using 12-bit tables for long-range coulomb (../kspace.cpp:342)
  G vector (1/distance) = 0.11985787
  grid = 4 4 4
  stencil order = 5
  estimated absolute RMS force accuracy = 0.23661246
  estimated relative force accuracy = 0.0007125514
  using double precision KISS FFT
  3d grid and FFT values/proc = 294 4
Generated 28 of 28 mixed pair_coeff terms from sixthpower/sixthpower mixing rule
WARNING: Inconsistent image flags (../domain.cpp:815)
Per MPI rank memory allocation (min/avg/max) = 15.5 | 15.5 | 15.51 Mbytes
   Step          Temp          PotEng         E_vdwl         E_coul         E_bond        E_angle        E_dihed        E_impro        Density         Volume    
  15600112   354.0667       8028.4149     -1139.0368      2506.7443      2269.1372      11227.293     -5608.3303     -55.06874       1.041242       48667.758    
  15620000   332.09512      7734.3908     -1177.1516      2503.0403      2169.3232      11093.406     -5627.9772     -53.63293       1.0445772      48512.368    
  15640000   340.3428       7689.2264     -1156.3546      2482.7869      2201.7508      11045.126     -5655.1164     -56.274453      1.0481197      48348.402    
  15660000   341.88287      7650.4097     -1150.8565      2505.7483      2164.9831      10970.555     -5613.8472     -54.21624       1.0407098      48692.644    
  15680000   340.83198      7603.4917     -1124.9946      2494.5448      2110.1862      11017.529     -5667.1013     -54.807422      1.0310988      49146.517    
  15700000   341.25092      7654.3112     -1166.2824      2504.249       2153.0451      11057.123     -5666.0122     -55.306098      1.0410706      48675.771    
  15720000   340.04058      7691.9072     -1149.8194      2504.0828      2168.4426      11035.864     -5644.9189     -49.199029      1.0444028      48520.47     
  15740000   331.7737       7637.203      -1209.8867      2507.7345      2160.865       11096.939     -5698.4501     -48.003058      1.0399261      48729.342    
  15760000   340.28103      7703.3455     -1098.5256      2498.6504      2094.9629      11104.556     -5666.6898     -58.609502      1.0449351      48495.753    
  15780000   339.45193      7591.1406     -1141.2174      2494.8963      2154.5215      10970.253     -5668.8348     -46.958539      1.0470492      48397.835    
  15800000   339.7261       7597.2896     -1199.4299      2492.1061      2110.118       11037.994     -5618.0028     -53.295423      1.0421023      48627.58     
  15820000   341.22734      7531.4987     -1203.467       2488.6734      2134.0932      10984.962     -5652.0198     -48.958738      1.0477499      48365.468    
  15840000   342.69176      7600.7766     -1181.6413      2481.9901      2119.4242      11044.865     -5639.5311     -52.649024      1.0432846      48572.471    
  15860000   336.21267      7628.0221     -1151.6341      2495.4043      2198.4367      11004.224     -5698.6858     -48.486743      1.037116       48861.374    
  15880000   342.79999      7614.9943     -1125.4021      2511.2693      2123.095       11030.647     -5691.5789     -60.726371      1.0360616      48911.101    
  15900000   344.57675      7738.8417     -1129.4112      2496.5518      2187.3906      11035.289     -5625.4989     -54.035237      1.0400893      48721.693    
  15920000   346.82118      7762.5745     -1087.553       2505.4165      2175.6756      11040.105     -5645.8885     -53.583694      1.0291311      49240.484    
  15940000   341.40121      7776.1757     -1099.9114      2508.2456      2192.3135      11002.866     -5601.9203     -53.777356      1.0407771      48689.497    
  15960000   341.9254       7596.0606     -1114.2215      2474.4924      2146.766       10997.297     -5676.8585     -58.884897      1.0343578      48991.666    
  15980000   345.2087       7637.1654     -1155.1387      2494.1344      2153.5913      11015.832     -5642.4878     -55.753468      1.0423125      48617.775    
  16000000   339.31628      7698.9696     -1132.5637      2503.8806      2146.9965      11061.486     -5652.0968     -56.362761      1.0341265      49002.624    
  16020000   337.7683       7593.4695     -1171.1337      2508.4784      2121.1729      11039.964     -5676.7644     -56.177793      1.0427261      48598.491    
  16040000   340.79343      7672.4793     -1143.2683      2501.7393      2133.3999      11039.671     -5629.798      -56.914822      1.0351502      48954.162    
  16060000   341.6659       7709.9541     -1146.8707      2513.1153      2173.6709      10996.028     -5594.58       -58.911466      1.0366381      48883.897    
  16080000   341.74228      7747.3659     -1116.3179      2509.2067      2184.9619      11046.03      -5652.7289     -51.959636      1.0404114      48706.609    
  16100000   341.02739      7753.4893     -1175.2005      2536.4259      2178.6908      11087.809     -5649.6001     -54.281417      1.0439434      48541.821    
  16120000   339.53971      7692.1535     -1163.9938      2514.9997      2159.4767      11085.345     -5669.4782     -62.169194      1.0383423      48803.667    
  16140000   333.84825      7699.987      -1137.4256      2503.2981      2160.0374      11121.877     -5721.0821     -54.712277      1.0465344      48421.641    
  16160000   335.27463      7651.4403     -1109.2218      2492.3601      2169.2023      11011.206     -5680.8238     -59.076029      1.0367347      48879.345    
  16180000   343.46992      7587.4313     -1155.143       2495.696       2132.088       11035.182     -5694.8101     -54.858887      1.0411348      48672.768    
  16200000   333.61022      7571.5927     -1126.7945      2502.9464      2120.5939      10958.832     -5660.0454     -52.342555      1.0380265      48818.515    
  16220000   345.29334      7689.3683     -1136.1636      2508.753       2122.8465      11086.678     -5667.2461     -53.670277      1.0398091      48734.825    
  16240000   339.07234      7671.8533     -1112.6709      2480.9232      2142.1919      11052.83      -5667.8146     -52.477048      1.0375139      48842.635    
  16260000   340.51477      7666.7244     -1095.7442      2521.5495      2135.6147      10977.784     -5645.0301     -56.571119      1.0447555      48504.09     
  16280000   339.61731      7759.8231     -1122.1311      2496.127       2121.8709      11111.398     -5620.6803     -55.514519      1.0385923      48791.921    
  16300000   341.83503      7738.2281     -1132.2987      2503.4178      2208.1874      11045.216     -5664.8645     -49.790852      1.0371372      48860.375    
  16320000   341.05344      7753.5674     -1156.577       2495.4887      2225.3925      11075.425     -5659.7831     -54.62785       1.0451942      48483.729    
  16340000   339.38274      7676.3134     -1133.1788      2494.4722      2187.3777      11010.318     -5653.4474     -56.980301      1.0381466      48812.867    
  16360000   335.83524      7728.0423     -1129.0319      2497.6381      2183.6255      11064.347     -5663.2279     -52.750098      1.0444712      48517.291    
  16380000   340.79867      7686.0323     -1176.49        2493.9102      2131.5848      11111.529     -5645.4799     -56.644268      1.0456558      48462.327    
  16400000   344.46565      7738.6349     -1127.7356      2518.5976      2128.9531      11074.892     -5631.3998     -52.016517      1.0413605      48662.218    
  16420000   340.15495      7529.5044     -1234.17        2506.426       2177.0445      10985.62      -5677.8873     -55.419356      1.0381061      48814.77     
  16440000   343.30114      7647.668      -1153.5543      2501.204       2150.2789      11008.462     -5632.1737     -54.845061      1.0435126      48561.859    
  16460000   335.59756      7644.837      -1147.6946      2497.8706      2194.7503      11000.136     -5671.6164     -56.164726      1.0382144      48809.679    
  16480000   338.55811      7658.4463     -1142.0571      2504.5972      2119.596       11065.17      -5665.9661     -50.853841      1.040921       48682.767    
  16500000   340.58307      7717.1908     -1101.5013      2491.371       2201.1501      11047.286     -5694.5366     -55.292014      1.0477861      48363.796    
  16520000   342.80905      7666.6832     -1151.6538      2496.5308      2157.4598      11085.156     -5697.1044     -52.43432       1.0442896      48525.726    
  16540000   340.77011      7628.2751     -1162.8108      2486.739       2143.8339      11027.927     -5640.5649     -56.16798       1.0489366      48310.746    
  16560000   338.14458      7647.188      -1189.3537      2501.6068      2216.2111      10966.992     -5624.3481     -52.070253      1.0445792      48512.272    
  16580000   338.32444      7551.256      -1192.5195      2514.1347      2116.0162      10984.937     -5649.1917     -50.108466      1.0472225      48389.825    
  16600000   341.88347      7665.6002     -1183.2561      2512.5824      2188.1631      11003.59      -5628.163      -55.106744      1.0439191      48542.948    
  16620000   340.83114      7616.4168     -1160.973       2517.5454      2122.4469      11072.932     -5709.6055     -53.903728      1.0398531      48732.76     
  16640000   338.41996      7626.5802     -1168.6019      2499.454       2131.1376      11113.269     -5722.0713     -55.011735      1.0465229      48422.171    
  16660000   343.73478      7722.0458     -1123.2841      2489.7626      2150.7423      11136.008     -5707.645      -52.072653      1.0368181      48875.411    
  16680000   337.24341      7541.6618     -1198.0674      2489.1089      2136.0722      11012.623     -5670.5586     -54.586573      1.041998       48632.448    
  16700000   337.74753      7583.5374     -1138.7071      2504.6446      2161.1857      10992.941     -5713.4714     -51.205774      1.0424074      48613.345    
  16720000   340.44333      7621.9303     -1142.8794      2494.5383      2155.0761      11020.461     -5683.5379     -50.172756      1.0414327      48658.845    
  16740000   339.26561      7645.9787     -1111.7762      2505.215       2126.6074      11091.9       -5742.324      -54.57999       1.0367108      48880.473    
  16760000   351.34657      7708.4509     -1153.0864      2517.3989      2179.8375      11018.908     -5625.8322     -58.483483      1.0428691      48591.826    
  16780000   341.18906      7616.3187     -1154.8706      2497.9733      2143.8196      11040.662     -5689.3948     -49.991467      1.029782       49209.36     
  16800000   334.94115      7642.6407     -1164.0662      2500.2908      2128.5902      11115.234     -5713.9211     -52.283183      1.044232       48528.405    
  16800112   338.49701      7687.2581     -1165.7422      2491.2936      2152.8644      11099.633     -5661.8299     -57.695156      1.0442605      48527.081    
Loop time of 4002.62 on 24 procs for 1200000 steps with 5010 atoms

Performance: 6.476 ns/day, 3.706 hours/ns, 299.804 timesteps/s, 1.502 Matom-step/s
99.5% CPU use with 24 MPI tasks x no OpenMP threads

MPI task timing breakdown:
Section |  min time  |  avg time  |  max time  |%varavg| %total
---------------------------------------------------------------
Pair    | 2078.5     | 2312.1     | 2496.4     | 239.1 | 57.77
Bond    | 651.76     | 710.97     | 778.95     | 120.8 | 17.76
Kspace  | 582        | 770.96     | 1045.9     | 407.0 | 19.26
Neigh   | 27.541     | 27.57      | 27.605     |   0.4 |  0.69
Comm    | 132.07     | 134.17     | 137.42     |  14.0 |  3.35
Output  | 0.0042589  | 0.004637   | 0.012916   |   2.5 |  0.00
Modify  | 31.909     | 33.859     | 35.712     |  18.7 |  0.85
Other   |            | 12.94      |            |       |  0.32

Nlocal:         208.75 ave         222 max         192 min
Histogram: 1 2 3 0 3 2 5 2 4 2
Nghost:           5018 ave        5063 max        4986 min
Histogram: 3 2 5 1 2 6 3 0 1 1
Neighs:        78016.2 ave       86327 max       69333 min
Histogram: 1 0 3 5 3 5 2 1 2 2

Total # of neighbors = 1872390
Ave neighs/atom = 373.73054
Ave special neighs/atom = 6.1964072
Neighbor list builds = 9343
Dangerous builds = 0
unfix           fNPT
unfix           fMOM
next            a
jump            SELF loop
variable        a loop 26
variable        b equal 600-20*($a-1)
variable        b equal 600-20*(15-1)
fix             fMOM all momentum 100 linear 1 1 1 angular
fix             fNPT all npt temp $b $b $(100.0*dt) iso 1 1 $(100.0*dt)
fix             fNPT all npt temp 320 $b $(100.0*dt) iso 1 1 $(100.0*dt)
fix             fNPT all npt temp 320 320 $(100.0*dt) iso 1 1 $(100.0*dt)
fix             fNPT all npt temp 320 320 25 iso 1 1 $(100.0*dt)
fix             fNPT all npt temp 320 320 25 iso 1 1 25
run             1200000
PPPM initialization ...
  using 12-bit tables for long-range coulomb (../kspace.cpp:342)
  G vector (1/distance) = 0.11994058
  grid = 4 4 4
  stencil order = 5
  estimated absolute RMS force accuracy = 0.23648567
  estimated relative force accuracy = 0.00071216958
  using double precision KISS FFT
  3d grid and FFT values/proc = 294 4
Generated 28 of 28 mixed pair_coeff terms from sixthpower/sixthpower mixing rule
WARNING: Inconsistent image flags (../domain.cpp:815)
Per MPI rank memory allocation (min/avg/max) = 15.5 | 15.5 | 15.51 Mbytes
   Step          Temp          PotEng         E_vdwl         E_coul         E_bond        E_angle        E_dihed        E_impro        Density         Volume    
  16800112   338.49701      7687.3243     -1165.7422      2492.1658      2152.8644      11099.633     -5661.8299     -57.695156      1.0442605      48527.081    
  16820000   320.66559      7363.8958     -1213.0858      2480.966       2044.0201      10941.683     -5663.3154     -53.87649       1.0531699      48116.562    
  16840000   314.5633       7250.0485     -1184.9963      2498.8603      1944.5864      10916.594     -5704.5135     -48.47101       1.0484405      48333.607    
  16860000   324.89676      7392.3041     -1204.0914      2479.6901      2060.3607      10959.897     -5671.8329     -60.437005      1.0388761      48778.593    
  16880000   318.65957      7377.0545     -1194.0503      2498.1642      2089.629       10886.092     -5675.0263     -55.030717      1.0368691      48873.008    
  16900000   321.5277       7393.3881     -1165.8418      2500.1625      2061.5961      10937.297     -5717.4164     -49.528727      1.0439702      48540.574    
  16920000   320.83081      7474.5643     -1167.624       2515.0216      2084.3989      10961.483     -5696.1998     -50.703567      1.0415393      48653.864    
  16940000   318.44972      7359.821      -1179.1853      2483.9438      2048.896       10893.457     -5659.9504     -55.061773      1.0390342      48771.17     
  16960000   313.23469      7326.1735     -1200.8992      2486.137       2050.8945      10917.098     -5699.1159     -55.150664      1.0422425      48621.036    
  16980000   316.74293      7259.2187     -1212.3865      2517.4942      1994.0778      10824.202     -5643.7939     -48.169468      1.0421179      48626.852    
  17000000   320.11726      7377.9049     -1161.0331      2496.5061      2041.7172      10878.969     -5656.5464     -49.041845      1.048128       48348.018    
  17020000   320.37669      7408.5036     -1166.344       2493.3875      2084.3438      10929.725     -5706.9084     -53.080404      1.046454       48425.36     
  17040000   319.61203      7319.1366     -1253.924       2480.74        2033.4062      10977.533     -5699.2826     -47.713732      1.0601591      47799.348    
  17060000   319.45269      7286.3624     -1192.8658      2494.3015      2038.4349      10856.685     -5686.0699     -52.10751       1.0468077      48408.999    
  17080000   317.98656      7348.308      -1236.5629      2500.1333      2106.8079      10866.2       -5665.7951     -50.2445        1.0481277      48348.031    
  17100000   324.62548      7284.4889     -1191.3358      2473.6068      2010.7653      10939.178     -5722.1519     -53.399788      1.0538955      48083.432    
  17120000   315.77571      7470.5752     -1189.5565      2505.795       2049.6947      10988.672     -5653.8595     -58.988716      1.0524788      48148.153    
  17140000   328.65842      7333.8895     -1146.358       2496.3848      2000.6094      10824.713     -5611.6679     -58.869327      1.0515706      48189.741    
  17160000   319.52697      7327.6013     -1212.4426      2501.9351      2036.179       10845.596     -5620.4588     -51.380835      1.0494503      48287.101    
  17180000   327.39198      7435.7848     -1171.8888      2480.0171      2099.3474      10856.047     -5610.5591     -47.110198      1.0431801      48577.339    
  17200000   316.5956       7426.2483     -1214.5536      2486.2862      2071.519       10935.262     -5626.7204     -52.839135      1.0456615      48462.063    
  17220000   320.93867      7345.9304     -1175.5737      2493.2231      2055.1102      10870.14      -5667.4094     -57.608834      1.0421266      48626.448    
  17240000   318.54692      7257.1817     -1190.3189      2485.8394      2012.1259      10882.308     -5710.0765     -50.633755      1.0589729      47852.891    
  17260000   322.13104      7331.2925     -1233.8651      2475.6935      2007.0055      11014.324     -5705.82       -53.677004      1.0516045      48188.183    
  17280000   324.06874      7362.6694     -1194.8645      2478.383       2109.8222      10874.627     -5684.1101     -48.829001      1.0456874      48460.862    
  17300000   323.02383      7431.201      -1191.7907      2493.8691      2079.4726      10904.148     -5634.2871     -47.695804      1.0418639      48638.707    
  17320000   318.64041      7288.4744     -1201.6417      2494.6876      2007.2881      10851.224     -5633.5186     -57.421082      1.0465935      48418.908    
  17340000   322.33202      7319.9229     -1199.4909      2485.4367      2053.8708      10876.616     -5676.3857     -47.702083      1.0466311      48417.167    
  17360000   313.53186      7295.1589     -1186.4191      2496.3893      2029.3703      10885.893     -5701.7412     -55.900883      1.0463276      48431.212    
  17380000   323.30224      7415.0965     -1220.853       2486.8673      2095.1376      10914.163     -5630.9928     -56.855722      1.0406727      48694.38     
  17400000   321.54049      7334.7777     -1169.7515      2491.4684      2062.8793      10839.911     -5661.1019     -56.153492      1.0345831      48980.997    
  17420000   318.24267      7368.0843     -1191.9777      2486.4311      2039.4893      10968.799     -5708.7984     -53.259336      1.0465897      48419.082    
  17440000   319.64555      7389.2865     -1135.144       2498.8183      2063.2545      10896.293     -5699.1565     -62.057432      1.0443607      48522.425    
  17460000   316.90644      7370.4829     -1182.8488      2472.6963      2076.6069      10904.495     -5674.8752     -53.026052      1.0507456      48227.577    
  17480000   317.02712      7283.7893     -1196.2696      2480.0938      2035.3366      10839.475     -5645.945      -56.839271      1.0413599      48662.249    
  17500000   318.91158      7483.2572     -1193.7034      2483.7316      2110.0816      11049.087     -5734.794      -58.846042      1.0419659      48633.947    
  17520000   314.79192      7344.1254     -1152.0535      2500.6491      2053.5379      10830.521     -5660.7958     -56.045653      1.0468616      48406.507    
  17540000   318.08419      7454.7893     -1190.7792      2501.1425      2074.6665      10971.612     -5682.2321     -47.002721      1.0418293      48640.324    
  17560000   319.47214      7298.704      -1185.7216      2502.4918      2020.3544      10876.329     -5690.7365     -51.17319       1.0500961      48257.403    
  17580000   319.04976      7283.5346     -1223.9998      2489.9595      2059.7576      10864.412     -5682.6207     -52.767485      1.0510427      48213.942    
  17600000   314.4316       7306.9472     -1177.0423      2482.9982      2060.2611      10848.713     -5682.8264     -52.760895      1.0502292      48251.29     
  17620000   322.03438      7349.9584     -1175.334       2502.9374      2036.7058      10874.717     -5665.0482     -52.358703      1.0395925      48744.976    
  17640000   315.09754      7326.1549     -1200.1929      2485.1282      2043.9185      10909.751     -5687.2242     -52.478692      1.0413088      48664.637    
  17660000   322.05478      7372.531      -1158.9501      2491.6107      2044.066       10863.453     -5637.3524     -56.329686      1.0438599      48545.705    
  17680000   327.22885      7397.6429     -1185.7435      2506.7335      2119.0246      10892.786     -5709.1687     -52.736718      1.048308       48339.718    
  17700000   319.30843      7410.2655     -1197.2937      2495.3108      2063.0435      10929.173     -5649.2763     -57.76357       1.0500747      48258.387    
  17720000   319.57805      7383.647      -1219.0603      2489.5808      2092.6296      10955.673     -5704.1254     -58.118751      1.0480342      48352.348    
  17740000   319.20424      7304.2751     -1190.4687      2488.6116      2042.3182      10849.481     -5650.3186     -61.738925      1.0473223      48385.211    
  17760000   322.25408      7422.6013     -1173.398       2475.4767      2115.0547      10894.306     -5661.5563     -55.518668      1.0463925      48428.207    
  17780000   316.50457      7372.9343     -1133.4142      2498.0162      2070.0182      10889.041     -5721.7025     -58.046075      1.0417647      48643.34     
  17800000   322.88824      7422.2325     -1145.2421      2494.7801      2066.8202      10924.765     -5698.4463     -47.245573      1.035882       48919.581    
  17820000   320.7841       7354.9181     -1127.5169      2499.6828      2019.6039      10870.507     -5681.3506     -54.94728       1.0401589      48718.433    
  17840000   319.25672      7348.4366     -1160.8291      2504.6144      2031.0871      10902.679     -5697.226      -59.189123      1.0375031      48843.145    
  17860000   327.37477      7313.8627     -1183.3084      2492.4485      2073.987       10870.457     -5718.0008     -48.960845      1.0414931      48656.021    
  17880000   320.48805      7422.0093     -1154.9378      2512.5481      2074.1147      10867.06      -5646.2195     -58.038769      1.0433231      48570.681    
  17900000   319.30499      7377.998      -1142.9351      2503.9772      2059.7862      10955.718     -5769.1488     -56.361743      1.0486066      48325.954    
  17920000   317.39153      7353.6726     -1238.8861      2525.5186      1996.5582      10966.529     -5669.6803     -54.918616      1.0406727      48694.381    
  17940000   317.46719      7446.3452     -1192.1474      2504.2922      2043.2294      10991.368     -5678.0103     -49.156941      1.048594       48326.534    
  17960000   325.46087      7324.3873     -1217.8208      2496.1273      2007.3969      10954.512     -5687.8331     -55.240375      1.04527        48480.214    
  17980000   326.32401      7351.6175     -1181.884       2521.6931      2032.9619      10833.689     -5625.5947     -56.963874      1.0462162      48436.366    
  18000000   314.92526      7297.3018     -1185.4588      2506.7247      2041.6034      10869.032     -5705.0712     -56.261833      1.0467973      48409.479    
  18000112   319.33112      7385.0968     -1158.3225      2499.5555      2059.9789      10857.847     -5650.6982     -50.179167      1.0446389      48509.504    
Loop time of 3987.41 on 24 procs for 1200000 steps with 5010 atoms

Performance: 6.500 ns/day, 3.692 hours/ns, 300.947 timesteps/s, 1.508 Matom-step/s
99.5% CPU use with 24 MPI tasks x no OpenMP threads

MPI task timing breakdown:
Section |  min time  |  avg time  |  max time  |%varavg| %total
---------------------------------------------------------------
Pair    | 2121       | 2321       | 2516.6     | 211.4 | 58.21
Bond    | 660.96     | 710.4      | 772.15     | 111.0 | 17.82
Kspace  | 559.09     | 749.16     | 969.45     | 366.8 | 18.79
Neigh   | 26.085     | 26.142     | 26.188     |   0.5 |  0.66
Comm    | 132        | 134.29     | 137.74     |  13.2 |  3.37
Output  | 0.0034305  | 0.0041417  | 0.020105   |   5.2 |  0.00
Modify  | 31.499     | 33.583     | 35.383     |  18.8 |  0.84
Other   |            | 12.87      |            |       |  0.32

Nlocal:         208.75 ave         228 max         194 min
Histogram: 4 2 2 4 2 4 0 3 1 2
Nghost:        5017.46 ave        5057 max        4975 min
Histogram: 1 2 1 2 5 4 3 4 1 1
Neighs:        77910.7 ave       87036 max       65762 min
Histogram: 1 2 0 1 2 4 9 2 2 1

Total # of neighbors = 1869857
Ave neighs/atom = 373.22495
Ave special neighs/atom = 6.1964072
Neighbor list builds = 8816
Dangerous builds = 0
unfix           fNPT
unfix           fMOM
next            a
jump            SELF loop
variable        a loop 26
variable        b equal 600-20*($a-1)
variable        b equal 600-20*(16-1)
fix             fMOM all momentum 100 linear 1 1 1 angular
fix             fNPT all npt temp $b $b $(100.0*dt) iso 1 1 $(100.0*dt)
fix             fNPT all npt temp 300 $b $(100.0*dt) iso 1 1 $(100.0*dt)
fix             fNPT all npt temp 300 300 $(100.0*dt) iso 1 1 $(100.0*dt)
fix             fNPT all npt temp 300 300 25 iso 1 1 $(100.0*dt)
fix             fNPT all npt temp 300 300 25 iso 1 1 25
run             1200000
PPPM initialization ...
  using 12-bit tables for long-range coulomb (../kspace.cpp:342)
  G vector (1/distance) = 0.11995094
  grid = 4 4 4
  stencil order = 5
  estimated absolute RMS force accuracy = 0.23646978
  estimated relative force accuracy = 0.0007121217
  using double precision KISS FFT
  3d grid and FFT values/proc = 294 4
Generated 28 of 28 mixed pair_coeff terms from sixthpower/sixthpower mixing rule
WARNING: Inconsistent image flags (../domain.cpp:815)
Per MPI rank memory allocation (min/avg/max) = 15.5 | 15.5 | 15.51 Mbytes
   Step          Temp          PotEng         E_vdwl         E_coul         E_bond        E_angle        E_dihed        E_impro        Density         Volume    
  18000112   319.33112      7385.1062     -1158.3225      2499.6659      2059.9789      10857.847     -5650.6982     -50.179167      1.0446389      48509.504    
  18020000   301.75483      7120.8118     -1258.3268      2497.5753      1936.0057      10844.839     -5670.7754     -55.174499      1.0395407      48747.404    
  18040000   300.67754      7069.9729     -1228.0968      2501.3478      2042.9575      10682.963     -5699.6635     -55.920987      1.0494657      48286.392    
  18060000   302.53053      7100.9164     -1197.8696      2501.1291      1905.3962      10833.459     -5718.3002     -48.995104      1.0422073      48622.683    
  18080000   303.31024      6989.7679     -1270.3141      2491.5675      1894.4889      10810.452     -5707.9405     -54.680811      1.0540511      48076.335    
  18100000   301.04783      7153.3415     -1229.9793      2496.7376      1980.8312      10821.258     -5689.668      -52.281376      1.0471298      48394.109    
  18120000   300.06587      6955.7454     -1251.6094      2498.6401      1918.1477      10720.785     -5705.8757     -51.267191      1.0461997      48437.132    
  18140000   301.47679      7019.1265     -1207.1345      2499.7321      1931.1595      10661.675     -5642.9118     -50.118076      1.0432331      48574.869    
  18160000   298.57541      7001.4418     -1230.0788      2479.0582      1909.0176      10768.463     -5696.85       -55.426934      1.0537322      48090.882    
  18180000   299.26977      7025.3142     -1251.1173      2488.9819      1947.2171      10716.5       -5650.6782     -52.682041      1.0513372      48200.437    
  18200000   300.07537      7044.6639     -1206.0195      2503.4476      1918.2726      10830.332     -5771.6213     -56.034072      1.0529175      48128.095    
  18220000   299.1491       7025.1984     -1265.2406      2494.3376      1917.0898      10784.057     -5677.2044     -53.947103      1.0526904      48138.476    
  18240000   300.12874      7095.506      -1234.8133      2492.9874      1950.6599      10754.427     -5644.3574     -49.919219      1.0515442      48190.95     
  18260000   301.22284      6996.6535     -1232.2433      2494.9629      1896.4385      10702.276     -5643.9586     -48.27934       1.0469012      48404.673    
  18280000   295.14195      7015.3326     -1195.0098      2485.2758      1978.8281      10680.255     -5706.256      -54.123522      1.0426945      48599.964    
  18300000   300.2418       7124.3697     -1258.5425      2479.3278      2009.6877      10805.81      -5690.9224     -48.705227      1.042433       48612.154    
  18320000   300.29383      7007.8761     -1261.3319      2492.9333      1963.542       10726.565     -5685.233      -55.297578      1.054926       48036.461    
  18340000   298.02253      6941.233      -1203.3912      2505.0692      1903.6029      10641.845     -5671.7644     -60.751142      1.053769       48089.206    
  18360000   298.70768      6888.6996     -1210.8577      2487.6727      1813.8266      10787.645     -5758.7866     -56.798833      1.0503733      48244.671    
  18380000   295.86274      7011.786      -1236.6025      2481.1159      1868.1689      10810.245     -5686.5806     -51.14958       1.0506061      48233.979    
  18400000   304.2094       7069.1559     -1241.3171      2508.1592      1932.8511      10810.76      -5705.4271     -62.406389      1.0470145      48399.436    
  18420000   297.18122      7051.719      -1193.5718      2486.6879      1923.3969      10798.341     -5736.2939     -53.494859      1.0489235      48311.35     
  18440000   295.5767       7041.4319     -1205.5289      2485.7281      1917.8949      10723.384     -5651.2874     -55.857681      1.0462365      48435.429    
  18460000   305.00084      6999.7767     -1239.6632      2513.2975      1951.1627      10752.353     -5753.6124     -50.966125      1.048701       48321.602    
  18480000   298.0829       7044.2731     -1160.5645      2487.565       1903.5839      10750.057     -5705.6793     -56.60332       1.0457646      48457.283    
  18500000   292.4996       7029.1431     -1225.6566      2485.7318      1985.8806      10752.372     -5746.895      -48.712316      1.0512061      48206.449    
  18520000   289.6537       7040.3902     -1173.6302      2491.0803      1892.4209      10744.25      -5693.8129     -46.644312      1.0429702      48587.114    
  18540000   301.41928      7022.1296     -1215.6988      2494.685       1888.2757      10746.507     -5662.8547     -55.836155      1.0520659      48167.05     
  18560000   300.17406      7136.6851     -1270.3866      2507.5245      1965.1275      10845.435     -5690.4821     -48.007814      1.0491323      48301.739    
  18580000   309.95753      7147.2483     -1142.8341      2509.1954      1936.124       10773.09      -5699.616      -54.834771      1.0505229      48237.798    
  18600000   304.92492      6970.7498     -1217.5077      2492.3901      1915.5923      10740.577     -5730.8023     -55.803173      1.0477015      48367.702    
  18620000   299.68836      6935.9824     -1230.5062      2503.2615      1806.826       10750.705     -5667.7031     -52.489466      1.0493326      48292.519    
  18640000   301.25994      7104.5069     -1203.3765      2493.1127      1910.5759      10837.479     -5705.7212     -53.496329      1.0490706      48304.578    
  18660000   299.67315      7057.4578     -1208.4201      2530.5353      1944.5053      10723.056     -5702.7769     -55.389254      1.0526898      48138.503    
  18680000   305.77523      6986.0606     -1247.6787      2481.197       1865.5419      10734.914     -5624.2765     -49.686136      1.0501333      48255.695    
  18700000   297.86409      6980.3615     -1245.012       2514.3121      1976.5338      10651.025     -5686.2676     -56.647672      1.0489252      48311.274    
  18720000   300.05789      6988.8307     -1259.7628      2491.3114      1863.7652      10781.339     -5663.2213     -50.29214       1.0493801      48290.329    
  18740000   297.35044      7019.5411     -1258.0159      2499.2539      1925.0329      10787.814     -5715.1983     -45.619243      1.0482342      48343.119    
  18760000   295.57427      7036.241      -1203.8155      2502.2879      1944.5792      10753.929     -5733.7199     -53.786248      1.0456714      48461.602    
  18780000   302.21937      6999.0435     -1262.9248      2488.0335      1944.4232      10761.988     -5701.7464     -56.508532      1.0484857      48331.525    
  18800000   299.9042       6951.4781     -1269.4503      2497.9221      1861.4799      10792.994     -5706.6587     -50.776303      1.0542543      48067.066    
  18820000   300.58009      7014.7893     -1230.7945      2489.4134      1904.9149      10742.695     -5663.723      -53.99706       1.0510698      48212.7      
  18840000   302.75562      7047.0656     -1271.9003      2491.5702      1968.9547      10844.206     -5759.4885     -51.930246      1.0504266      48242.222    
  18860000   300.47126      7061.3049     -1228.8453      2481.8771      1950.6163      10812.134     -5729.3373     -51.591019      1.0549398      48035.835    
  18880000   303.84904      7064.2653     -1194.654       2519.3846      1903.7309      10794.186     -5729.9066     -54.85203       1.0474396      48379.795    
  18900000   296.64771      7045.6059     -1285.3481      2487.0388      1971.3329      10812.751     -5720.3329     -46.207637      1.0487774      48318.084    
  18920000   299.26106      7062.3951     -1272.4618      2488.891       1959.4259      10760.561     -5655.3903     -47.226485      1.0462516      48434.727    
  18940000   301.75262      7009.7755     -1217.7876      2491.9754      1826.142       10816.038     -5681.3106     -52.079129      1.0499783      48262.82     
  18960000   294.49787      7109.0856     -1214.8627      2491.5042      1982.2865      10807.809     -5734.5037     -50.386353      1.0537126      48091.78     
  18980000   293.78211      7068.8388     -1242.1688      2501.1545      1969.1492      10758.322     -5689.9798     -54.511904      1.0463571      48429.846    
  19000000   298.46623      6975.9975     -1197.2703      2486.0759      1889.0637      10730.657     -5717.91       -42.772838      1.0469761      48401.213    
  19020000   298.09897      6935.6706     -1244.7537      2487.0656      1939.7077      10681.376     -5704.3946     -49.877517      1.052349       48154.095    
  19040000   291.7823       7016.0589     -1239.1267      2488.4673      1980.0349      10758.242     -5747.9205     -49.967494      1.0473719      48382.919    
  19060000   301.61847      6910.9265     -1280.6877      2499.6285      1929.3965      10714.559     -5727.0603     -51.169384      1.059441       47831.745    
  19080000   295.54239      7039.6186     -1245.6497      2483.1998      1960.3859      10790.766     -5722.3864     -53.144735      1.0555034      48010.185    
  19100000   294.83224      7038.3791     -1268.4068      2485.9253      1929.9928      10804.323     -5690.1263     -49.343057      1.0521197      48164.586    
  19120000   304.87633      7049.8063     -1234.5577      2491.3077      1958.0229      10808.193     -5750.8472     -49.193524      1.0445906      48511.746    
  19140000   301.34702      6943.1932     -1222.0303      2490.5421      1889.8717      10796.016     -5792.7191     -45.180712      1.0495222      48283.794    
  19160000   305.58119      7019.7097     -1235.7281      2496.79        1950.4186      10781.636     -5749.8861     -50.049124      1.0595356      47827.477    
  19180000   306.44199      6997.1826     -1270.1035      2495.5353      1874.2421      10784.197     -5665.0746     -48.917097      1.0511848      48207.425    
  19200000   302.91054      6992.9186     -1202.5005      2499.9355      1931.7018      10746.169     -5758.8338     -50.084134      1.0406612      48694.919    
  19200112   303.7972       6999.4316     -1211.7222      2501.0975      1929.767       10795.613     -5789.0962     -52.706054      1.0416333      48649.475    
Loop time of 4003 on 24 procs for 1200000 steps with 5010 atoms

Performance: 6.475 ns/day, 3.706 hours/ns, 299.775 timesteps/s, 1.502 Matom-step/s
99.5% CPU use with 24 MPI tasks x no OpenMP threads

MPI task timing breakdown:
Section |  min time  |  avg time  |  max time  |%varavg| %total
---------------------------------------------------------------
Pair    | 2119.4     | 2330       | 2537.4     | 222.9 | 58.21
Bond    | 652.97     | 709.75     | 783.76     | 127.5 | 17.73
Kspace  | 549.87     | 756.56     | 983.58     | 405.6 | 18.90
Neigh   | 24.784     | 24.817     | 24.841     |   0.4 |  0.62
Comm    | 132.79     | 134.98     | 138.49     |  13.8 |  3.37
Output  | 0.0081506  | 0.0084867  | 0.015788   |   1.7 |  0.00
Modify  | 32.004     | 34.034     | 35.852     |  19.2 |  0.85
Other   |            | 12.86      |            |       |  0.32

Nlocal:         208.75 ave         231 max         189 min
Histogram: 2 3 1 4 4 4 1 2 0 3
Nghost:        4999.88 ave        5041 max        4949 min
Histogram: 2 0 3 2 5 1 3 2 3 3
Neighs:          77709 ave       89463 max       66403 min
Histogram: 1 2 1 5 2 4 6 1 1 1

Total # of neighbors = 1865017
Ave neighs/atom = 372.25888
Ave special neighs/atom = 6.1964072
Neighbor list builds = 8385
Dangerous builds = 0
unfix           fNPT
unfix           fMOM
next            a
jump            SELF loop
variable        a loop 26
variable        b equal 600-20*($a-1)
variable        b equal 600-20*(17-1)
fix             fMOM all momentum 100 linear 1 1 1 angular
fix             fNPT all npt temp $b $b $(100.0*dt) iso 1 1 $(100.0*dt)
fix             fNPT all npt temp 280 $b $(100.0*dt) iso 1 1 $(100.0*dt)
fix             fNPT all npt temp 280 280 $(100.0*dt) iso 1 1 $(100.0*dt)
fix             fNPT all npt temp 280 280 25 iso 1 1 $(100.0*dt)
fix             fNPT all npt temp 280 280 25 iso 1 1 25
run             1200000
PPPM initialization ...
  using 12-bit tables for long-range coulomb (../kspace.cpp:342)
  G vector (1/distance) = 0.11986861
  grid = 4 4 4
  stencil order = 5
  estimated absolute RMS force accuracy = 0.23659603
  estimated relative force accuracy = 0.00071250191
  using double precision KISS FFT
  3d grid and FFT values/proc = 294 4
Generated 28 of 28 mixed pair_coeff terms from sixthpower/sixthpower mixing rule
WARNING: Inconsistent image flags (../domain.cpp:815)
Per MPI rank memory allocation (min/avg/max) = 15.5 | 15.5 | 15.51 Mbytes
   Step          Temp          PotEng         E_vdwl         E_coul         E_bond        E_angle        E_dihed        E_impro        Density         Volume    
  19200112   303.7972       6999.3909     -1211.7222      2500.2537      1929.767       10795.613     -5789.0962     -52.706054      1.0416333      48649.475    
  19220000   283.72844      6708.0738     -1290.4904      2480.7271      1847.8952      10713.953     -5824.5805     -47.100392      1.057438       47922.348    
  19240000   280.90641      6703.9103     -1282.3368      2487.8375      1844.473       10595.011     -5717.8048     -50.770463      1.0561154      47982.363    
  19260000   282.2794       6711.5971     -1296.0267      2494.4629      1831.1479      10614.22      -5714.0598     -45.88819       1.0546483      48049.112    
  19280000   277.74278      6728.5521     -1279.7381      2491.3462      1826.5166      10681.71      -5762.2456     -57.013118      1.051676       48184.907    
  19300000   281.8756       6657.5725     -1250.3419      2499.0501      1776.9019      10566.918     -5713.4593     -48.786454      1.0555075      48009.999    
  19320000   272.95731      6692.2282     -1297.6044      2493.6468      1826.249       10648.189     -5758.4375     -46.955664      1.0557167      48000.484    
  19340000   277.55786      6642.5317     -1308.8345      2485.6152      1860.5647      10576.325     -5745.867      -53.328684      1.0562052      47978.283    
  19360000   272.35118      6641.7038     -1256.9246      2477.3406      1803.0495      10598.679     -5757.141      -50.916906      1.0546654      48048.331    
  19380000   284.71616      6599.2803     -1274.4516      2500.2429      1778.8033      10537.334     -5725.4941     -44.977487      1.0552842      48020.154    
  19400000   285.19899      6623.5767     -1331.3989      2490.4191      1816.5631      10596.222     -5727.6763     -48.600979      1.0631657      47664.17     
  19420000   282.55056      6664.588      -1301.4554      2511.6537      1802.8341      10658.338     -5780.0683     -55.19994       1.0482251      48343.54     
  19440000   275.37862      6740.4312     -1280.1499      2490.7255      1848.5884      10672.027     -5770.7209     -48.455802      1.0560806      47983.943    
  19460000   279.28531      6730.3216     -1277.4651      2488.7705      1806.8751      10679.462     -5741.8392     -53.049849      1.0508504      48222.765    
  19480000   278.99756      6781.0543     -1263.1028      2503.9548      1846.4101      10656.958     -5739.03       -51.480842      1.0639709      47628.098    
  19500000   273.12787      6694.4846     -1254.0442      2484.8938      1794.4361      10629.057     -5731.1312     -56.265875      1.0477346      48366.175    
  19520000   278.98072      6749.7887     -1265.8089      2498.4946      1828.068       10688.268     -5779.1358     -48.4731        1.0536335      48095.387    
  19540000   279.84024      6711.2562     -1258.706       2483.9246      1791.8181      10678.988     -5761.023      -50.721045      1.0553591      48016.75     
  19560000   278.63731      6669.047      -1298.0181      2477.0836      1878.5711      10559.884     -5729.0801     -46.650304      1.0546252      48050.161    
  19580000   279.91678      6631.9552     -1310.3039      2488.9419      1766.8324      10638.164     -5731.0011     -48.761078      1.0538411      48085.913    
  19600000   279.48918      6703.3824     -1275.3196      2486.6956      1811.947       10588.09      -5677.6052     -57.507275      1.0582589      47885.173    
  19620000   276.97728      6726.4803     -1300.298       2490.4239      1841.6437      10669.378     -5746.7902     -55.280965      1.0589807      47852.537    
  19640000   285.65596      6774.113      -1306.3129      2489.1309      1831.5535      10693.286     -5706.8206     -53.977479      1.0539963      48078.835    
  19660000   281.22803      6648.2332     -1294.9501      2509.6338      1772.6122      10672.104     -5783.6821     -54.894844      1.0556107      48005.306    
  19680000   279.92608      6656.2675     -1274.7359      2494.3769      1770.8618      10652.954     -5765.3855     -49.321298      1.0584162      47878.059    
  19700000   280.41412      6658.7823     -1264.5289      2504.4295      1844.8866      10570.616     -5767.7804     -56.061176      1.0538063      48087.502    
  19720000   285.55727      6693.5476     -1273.1949      2501.3041      1832.7141      10601.675     -5746.9157     -49.311925      1.0534541      48103.581    
  19740000   282.16693      6603.1302     -1330.1134      2495.8725      1775.1746      10589.444     -5708.7699     -45.946806      1.0627858      47681.208    
  19760000   283.93007      6761.5357     -1279.7024      2503.9819      1835.3155      10644.555     -5717.4995     -53.184996      1.0622093      47707.089    
  19780000   278.52522      6728.2448     -1268.2159      2489.0649      1819.7201      10636.659     -5725.9994     -49.994029      1.0551463      48026.434    
  19800000   283.19737      6597.5491     -1319.6555      2469.6244      1819.0877      10597.412     -5741.0257     -55.348916      1.0528418      48131.557    
  19820000   281.87433      6689.2064     -1257.8445      2490.5654      1756.2967      10647.228     -5725.4931     -49.105117      1.0578266      47904.742    
  19840000   285.78684      6694.3423     -1257.29        2488.9071      1820.5068      10575.068     -5706.82       -52.951562      1.0537274      48091.103    
  19860000   281.49458      6746.3506     -1262.5119      2474.7426      1838.6576      10625.136     -5706.0959     -51.209808      1.0554744      48011.501    
  19880000   281.41404      6680.8958     -1287.6836      2487.3169      1784.9485      10636.985     -5716.3559     -51.545369      1.0531815      48116.028    
  19900000   280.52006      6697.6719     -1277.4722      2479.2359      1748.7112      10714.42      -5746.9489     -47.530685      1.065962       47539.137    
  19920000   277.7262       6697.5138     -1267.5411      2480.3153      1775.7797      10643.914     -5710.0915     -51.658925      1.0553268      48018.219    
  19940000   282.95463      6665.6102     -1249.5626      2485.5374      1822.4172      10598.309     -5764.6446     -53.399501      1.0538375      48086.078    
  19960000   280.84612      6676.0998     -1320.5074      2480.5215      1776.9809      10713.984     -5751.8023     -50.23561       1.0574507      47921.773    
  19980000   279.60245      6745.5959     -1276.7516      2469.2471      1834.7362      10701.136     -5756.7064     -52.55842       1.0549102      48037.18     
  20000000   280.01632      6652.1077     -1298.9819      2492.9255      1748.593       10638.896     -5711.3138     -45.105077      1.0590191      47850.8      
  20020000   277.12957      6732.7415     -1246.157       2504.9221      1807.704       10576.761     -5687.553      -50.617275      1.0591015      47847.08     
  20040000   273.18261      6637.5147     -1301.4266      2480.8186      1779.9212      10676.31      -5775.5738     -50.25052       1.0594229      47832.562    
  20060000   275.07723      6714.062      -1316.7832      2480.6925      1816.3922      10650.348     -5688.2962     -55.403966      1.0559366      47990.489    
  20080000   276.04102      6691.74       -1286.0876      2498.228       1770.8921      10659.233     -5727.27       -50.013542      1.0591729      47843.854    
  20100000   284.23924      6730.8182     -1273.4976      2488.8765      1810.9117      10612.152     -5684.9552     -50.074924      1.0568797      47947.666    
  20120000   285.63608      6612.8362     -1281.16        2461.7421      1801.4188      10613.307     -5755.8022     -53.725659      1.0576979      47910.575    
  20140000   281.43705      6708.3289     -1227.5267      2487.2273      1807.6105      10613.116     -5743.8872     -55.165662      1.0593648      47835.188    
  20160000   285.10507      6665.5367     -1284.6346      2487.4879      1774.2226      10727.367     -5813.4864     -52.887554      1.0572384      47931.396    
  20180000   288.36629      6599.0533     -1299.6212      2476.8954      1770.2355      10559.444     -5675.9475     -59.196212      1.0558311      47995.285    
  20200000   283.40557      6670.7585     -1291.2067      2475.3496      1821.5934      10620.454     -5733.42       -49.392885      1.0492748      48295.176    
  20220000   283.57079      6654.1559     -1277.5493      2482.3896      1797.4319      10613.461     -5738.4576     -50.882532      1.0598826      47811.818    
  20240000   282.02133      6668.5189     -1226.676       2501.5858      1732.8853      10630.54      -5739.1877     -57.866012      1.0597192      47819.187    
  20260000   279.47603      6634.6081     -1240.4233      2503.9345      1768.8409      10540.67      -5713.1962     -53.244959      1.0560558      47985.072    
  20280000   287.60267      6783.5208     -1272.911       2486.4183      1826.874       10702.08      -5731.3052     -54.825866      1.0548061      48041.921    
  20300000   277.54094      6703.214      -1302.372       2477.0236      1794.9064      10697.929     -5732.4845     -59.180647      1.0579102      47900.959    
  20320000   283.20973      6675.9286     -1269.9587      2475.4626      1779.3031      10627.277     -5716.2582     -47.239657      1.0600942      47802.274    
  20340000   280.40711      6663.1855     -1250.0392      2480.2656      1828.0155      10571.358     -5740.883      -52.887272      1.0512304      48205.336    
  20360000   285.1777       6699.3866     -1231.4497      2488.5702      1771.3387      10668.92      -5770.6424     -53.747199      1.0562365      47976.861    
  20380000   282.14665      6681.3164     -1238.3532      2494.2211      1782.3589      10653.591     -5791.2895     -46.080896      1.0545536      48053.427    
  20400000   283.3487       6644.0434     -1271.5393      2475.0732      1784.3354      10602.056     -5718.1713     -55.031897      1.0570936      47937.962    
  20400112   280.28792      6630.8006     -1266.5671      2481.9698      1782.3485      10544.266     -5693.0578     -45.622852      1.0607512      47772.664    
Loop time of 4030.11 on 24 procs for 1200000 steps with 5010 atoms

Performance: 6.432 ns/day, 3.732 hours/ns, 297.759 timesteps/s, 1.492 Matom-step/s
99.5% CPU use with 24 MPI tasks x no OpenMP threads

MPI task timing breakdown:
Section |  min time  |  avg time  |  max time  |%varavg| %total
---------------------------------------------------------------
Pair    | 2126.5     | 2343.3     | 2521.8     | 251.4 | 58.15
Bond    | 640.35     | 709.24     | 789.25     | 127.9 | 17.60
Kspace  | 572.3      | 770.36     | 1015       | 472.9 | 19.12
Neigh   | 23.38      | 23.418     | 23.458     |   0.5 |  0.58
Comm    | 133.44     | 135.87     | 139.62     |  14.4 |  3.37
Output  | 0.0029671  | 0.0034005  | 0.012984   |   3.4 |  0.00
Modify  | 32.492     | 34.623     | 36.611     |  20.1 |  0.86
Other   |            | 13.25      |            |       |  0.33

Nlocal:         208.75 ave         223 max         191 min
Histogram: 1 1 4 1 2 3 6 1 1 4
Nghost:        5057.96 ave        5101 max        5009 min
Histogram: 2 1 2 2 2 6 2 5 1 1
Neighs:        79200.6 ave       85303 max       70800 min
Histogram: 4 0 1 2 2 3 3 1 2 6

Total # of neighbors = 1900815
Ave neighs/atom = 379.40419
Ave special neighs/atom = 6.1964072
Neighbor list builds = 7890
Dangerous builds = 0
unfix           fNPT
unfix           fMOM
next            a
jump            SELF loop
variable        a loop 26
variable        b equal 600-20*($a-1)
variable        b equal 600-20*(18-1)
fix             fMOM all momentum 100 linear 1 1 1 angular
fix             fNPT all npt temp $b $b $(100.0*dt) iso 1 1 $(100.0*dt)
fix             fNPT all npt temp 260 $b $(100.0*dt) iso 1 1 $(100.0*dt)
fix             fNPT all npt temp 260 260 $(100.0*dt) iso 1 1 $(100.0*dt)
fix             fNPT all npt temp 260 260 25 iso 1 1 $(100.0*dt)
fix             fNPT all npt temp 260 260 25 iso 1 1 25
run             1200000
PPPM initialization ...
  using 12-bit tables for long-range coulomb (../kspace.cpp:342)
  G vector (1/distance) = 0.12038876
  grid = 4 4 4
  stencil order = 5
  estimated absolute RMS force accuracy = 0.23579218
  estimated relative force accuracy = 0.00071008116
  using double precision KISS FFT
  3d grid and FFT values/proc = 294 4
Generated 28 of 28 mixed pair_coeff terms from sixthpower/sixthpower mixing rule
WARNING: Inconsistent image flags (../domain.cpp:815)
Per MPI rank memory allocation (min/avg/max) = 15.5 | 15.5 | 15.51 Mbytes
   Step          Temp          PotEng         E_vdwl         E_coul         E_bond        E_angle        E_dihed        E_impro        Density         Volume    
  20400112   280.28792      6631.1345     -1266.5671      2487.3802      1782.3485      10544.266     -5693.0578     -45.622852      1.0607512      47772.664    
  20420000   262.28316      6361.3739     -1330.9975      2498.6813      1692.269       10455.56      -5724.7663     -50.875953      1.0650292      47580.774    
  20440000   259.53874      6291.9399     -1293.7728      2487.2857      1671.0465      10457.584     -5806.708      -46.084015      1.0632555      47660.144    
  20460000   263.11366      6379.8592     -1319.8005      2502.8737      1701.0136      10456.876     -5740.457      -43.015079      1.0624447      47696.517    
  20480000   261.42358      6367.1958     -1293.8685      2493.8085      1644.8545      10486.177     -5733.0122     -53.20791       1.0606616      47776.702    
  20500000   258.38573      6395.5608     -1315.3664      2492.6025      1664.714       10521.129     -5737.5061     -51.930597      1.0559844      47988.316    
  20520000   260.29158      6333.3388     -1327.8345      2496.4056      1665.0831      10469.604     -5741.2764     -51.232953      1.0645645      47601.542    
  20540000   256.71802      6371.6349     -1280.1856      2509.559       1657.3973      10434.075     -5722.6029     -48.500298      1.070084       47356.014    
  20560000   262.18596      6287.4571     -1301.1689      2496.9093      1657.1189      10440.96      -5775.4873     -52.95469       1.054946       48035.55     
  20580000   257.13728      6427.4669     -1262.6764      2485.661       1715.7321      10488.516     -5766.6415     -54.748705      1.0661654      47530.065    
  20600000   258.19204      6400.3822     -1350.1932      2500.5318      1754.5048      10500.283     -5773.9632     -53.911988      1.0622499      47705.265    
  20620000   262.49094      6398.2074     -1318.1126      2471.1467      1710.205       10514.21      -5747.7893     -53.174855      1.0657853      47547.018    
  20640000   258.86549      6400.7111     -1275.0199      2491.3268      1707.2521      10471.907     -5766.4754     -51.004448      1.0669948      47493.121    
  20660000   267.28197      6356.4188     -1299.9634      2479.1536      1652.2942      10520.071     -5769.9356     -47.502742      1.0587286      47863.933    
  20680000   259.41964      6300.617      -1328.9568      2481.9877      1693.9126      10364.227     -5682.2606     -50.77669       1.0645723      47601.195    
  20700000   263.79739      6355.1722     -1318.1661      2512.1051      1713.636       10428.092     -5752.0166     -51.04874       1.0601981      47797.588    
  20720000   260.27783      6427.0799     -1263.6027      2496.0187      1669.5212      10526.939     -5775.6324     -49.500877      1.057564       47916.637    
  20740000   259.27301      6369.628      -1290.3825      2494.4491      1666.2613      10518.624     -5788.2262     -53.329508      1.0675435      47468.712    
  20760000   261.52142      6358.147      -1325.4052      2487.1425      1661.046       10541.842     -5773.7562     -55.229402      1.0709698      47316.844    
  20780000   258.08757      6450.6773     -1323.9018      2483.9077      1721.7003      10548.414     -5747.8217     -54.035019      1.0606292      47778.163    
  20800000   261.50316      6454.5586     -1281.5631      2492.7376      1697.9405      10497.671     -5721.752      -52.975414      1.0607233      47773.921    
  20820000   260.17523      6433.3961     -1327.0385      2489.1394      1722.8342      10505.345     -5731.4411     -48.189629      1.0624686      47695.443    
  20840000   261.5649       6393.5369     -1297.9649      2500.4374      1744.9292      10396.513     -5723.7537     -48.939789      1.0577618      47907.678    
  20860000   256.43312      6334.0445     -1297.868       2484.2179      1685.1227      10475.047     -5787.5529     -46.787767      1.0601448      47799.992    
  20880000   257.38252      6315.0226     -1334.5773      2483.1332      1711.902       10436.515     -5756.2712     -48.761893      1.0672161      47483.273    
  20900000   264.3742       6327.9523     -1349.0223      2485.9892      1710.6999      10454.411     -5745.4556     -51.481953      1.0593332      47836.611    
  20920000   260.78127      6414.6704     -1285.1616      2480.2332      1715.1304      10477.408     -5742.8703     -52.638474      1.0630654      47668.669    
  20940000   265.1855       6379.7711     -1366.4628      2481.833       1708.8764      10528.856     -5743.6532     -52.158801      1.05788        47902.325    
  20960000   263.77064      6368.2429     -1324.8697      2470.2632      1699.4465      10491.377     -5742.4409     -48.58567       1.0648344      47589.479    
  20980000   260.14318      6323.7562     -1328.4579      2482.2527      1663.1931      10520.423     -5786.2959     -50.648987      1.0635954      47644.914    
  21000000   261.49056      6393.6717     -1304.2642      2465.3295      1747.4316      10477.279     -5762.6954     -51.876906      1.0729318      47230.321    
  21020000   257.0724       6339.4563     -1351.7985      2485.261       1724.3458      10404.174     -5693.6739     -51.928497      1.0654658      47561.277    
  21040000   257.07827      6383.9127     -1307.4119      2484.0977      1722.313       10457.842     -5746.3759     -49.021934      1.0580803      47893.259    
  21060000   256.56447      6236.2847     -1359.6814      2471.5783      1672.9175      10428.593     -5749.2235     -50.251132      1.067211       47483.5      
  21080000   264.52642      6342.666      -1310.9976      2488.4934      1654.1093      10495.808     -5758.9369     -47.522897      1.0623827      47699.303    
  21100000   261.34246      6361.8121     -1269.666       2482.2566      1668.9281      10396.698     -5683.7322     -55.49792       1.0583219      47882.322    
  21120000   259.85182      6326.8692     -1335.9364      2499.9774      1625.9207      10528.228     -5766.6187     -47.153101      1.0648639      47588.16     
  21140000   264.92092      6343.7874     -1317.6672      2491.3713      1671.6642      10536.052     -5809.013      -50.251827      1.0628088      47680.177    
  21160000   255.40143      6237.9741     -1327.1023      2481.4069      1590.2842      10480.385     -5758.1828     -50.817526      1.0696141      47376.82     
  21180000   257.54573      6295.6805     -1333.8059      2482.235       1633.1792      10547.99      -5805.5399     -50.264177      1.0676263      47465.03     
  21200000   254.78925      6442.6591     -1331.3064      2507.6988      1786.6403      10425.172     -5720.7219     -46.873222      1.0701112      47354.81     
  21220000   264.17854      6319.3913     -1337.911       2472.8762      1717.3169      10372.811     -5678.7219     -48.571225      1.0676801      47462.636    
  21240000   260.64787      6304.4511     -1336.8904      2471.3504      1677.9038      10424.5       -5708.148      -46.321562      1.0733164      47213.396    
  21260000   255.2506       6420.5324     -1339.412       2463.5262      1674.885       10603.473     -5753.4847     -51.017705      1.0624163      47697.795    
  21280000   257.88302      6328.151      -1312.0721      2492.7294      1715.2797      10441.533     -5784.8704     -46.265302      1.0611988      47752.514    
  21300000   259.93641      6293.2325     -1352.7809      2488.8375      1631.5838      10499.216     -5746.8728     -49.20885       1.0701182      47354.502    
  21320000   256.92498      6382.1773     -1356.5071      2484.9855      1706.6236      10505.671     -5738.3721     -42.436115      1.0689091      47408.064    
  21340000   254.99249      6362.9089     -1360.2238      2487.1196      1756.5293      10421.083     -5709.7492     -54.065056      1.0624513      47696.222    
  21360000   258.62795      6370.8212     -1318.1166      2475.3792      1663.7419      10499.883     -5723.0755     -48.914011      1.0675334      47469.16     
  21380000   263.26663      6396.8206     -1304.0484      2491.9766      1693.9526      10499.417     -5750.4475     -55.848902      1.0652375      47571.467    
  21400000   261.88511      6349.632      -1365.0746      2489.8596      1714.6431      10468.067     -5729.4277     -50.495242      1.063902       47631.185    
  21420000   260.81863      6287.2693     -1346.5827      2485.9139      1653.2488      10462.057     -5743.7538     -46.176475      1.076563       47071.013    
  21440000   262.2094       6445.0734     -1331.2459      2491.5773      1777.8762      10473.766     -5736.3797     -53.150274      1.0599623      47808.223    
  21460000   256.52527      6326.0008     -1340.2386      2499.5464      1707.3464      10429.043     -5740.8612     -51.078813      1.0691535      47397.228    
  21480000   258.02947      6221.2088     -1330.8987      2486.7157      1669.3883      10384.774     -5757.5072     -53.975321      1.064932       47585.114    
  21500000   261.20195      6369.6633     -1346.4409      2484.597       1732.7798      10475.193     -5751.6613     -46.403299      1.0675941      47466.459    
  21520000   261.86852      6319.2529     -1377.5906      2486.5425      1702.503       10500.407     -5764.907      -50.114215      1.0694883      47382.389    
  21540000   262.13422      6423.3104     -1363.9615      2485.2987      1765.717       10528.216     -5765.6534     -48.273525      1.0726399      47243.175    
  21560000   257.73084      6328.5722     -1352.2287      2484.8592      1700.9621      10456.997     -5733.7055     -50.287753      1.0672377      47482.311    
  21580000   258.48748      6387.7766     -1327.4607      2471.609       1729.438       10498.942     -5752.87       -53.988088      1.0748579      47145.684    
  21600000   261.09255      6307.1132     -1323.0161      2472.5036      1660.6722      10462.719     -5737.8522     -49.835288      1.060867       47767.452    
  21600112   263.72153      6309.6969     -1309.2375      2480.5243      1674.166       10453.198     -5759.6186     -51.354836      1.0649987      47582.136    
Loop time of 4008.37 on 24 procs for 1200000 steps with 5010 atoms

Performance: 6.466 ns/day, 3.711 hours/ns, 299.373 timesteps/s, 1.500 Matom-step/s
99.5% CPU use with 24 MPI tasks x no OpenMP threads

MPI task timing breakdown:
Section |  min time  |  avg time  |  max time  |%varavg| %total
---------------------------------------------------------------
Pair    | 2145.1     | 2373.2     | 2518.7     | 201.9 | 59.21
Bond    | 657.26     | 708.94     | 772.07     | 122.2 | 17.69
Kspace  | 571.12     | 722        | 993.6      | 394.0 | 18.01
Neigh   | 21.306     | 21.354     | 21.392     |   0.6 |  0.53
Comm    | 133.58     | 135.79     | 139.25     |  13.7 |  3.39
Output  | 0.0028668  | 0.0032995  | 0.012897   |   3.5 |  0.00
Modify  | 31.917     | 34.057     | 36.036     |  19.9 |  0.85
Other   |            | 13.02      |            |       |  0.32

Nlocal:         208.75 ave         222 max         193 min
Histogram: 1 1 3 2 5 3 0 4 2 3
Nghost:        5085.83 ave        5135 max        5025 min
Histogram: 2 1 1 1 6 1 2 6 3 1
Neighs:        79497.4 ave       89670 max       72900 min
Histogram: 4 2 4 1 4 4 3 1 0 1

Total # of neighbors = 1907937
Ave neighs/atom = 380.82575
Ave special neighs/atom = 6.1964072
Neighbor list builds = 7259
Dangerous builds = 0
unfix           fNPT
unfix           fMOM
next            a
jump            SELF loop
variable        a loop 26
variable        b equal 600-20*($a-1)
variable        b equal 600-20*(19-1)
fix             fMOM all momentum 100 linear 1 1 1 angular
fix             fNPT all npt temp $b $b $(100.0*dt) iso 1 1 $(100.0*dt)
fix             fNPT all npt temp 240 $b $(100.0*dt) iso 1 1 $(100.0*dt)
fix             fNPT all npt temp 240 240 $(100.0*dt) iso 1 1 $(100.0*dt)
fix             fNPT all npt temp 240 240 25 iso 1 1 $(100.0*dt)
fix             fNPT all npt temp 240 240 25 iso 1 1 25
run             1200000
PPPM initialization ...
  using 12-bit tables for long-range coulomb (../kspace.cpp:342)
  G vector (1/distance) = 0.1205032
  grid = 4 4 4
  stencil order = 5
  estimated absolute RMS force accuracy = 0.23561337
  estimated relative force accuracy = 0.00070954266
  using double precision KISS FFT
  3d grid and FFT values/proc = 294 4
Generated 28 of 28 mixed pair_coeff terms from sixthpower/sixthpower mixing rule
WARNING: Inconsistent image flags (../domain.cpp:815)
Per MPI rank memory allocation (min/avg/max) = 15.5 | 15.5 | 15.51 Mbytes
   Step          Temp          PotEng         E_vdwl         E_coul         E_bond        E_angle        E_dihed        E_impro        Density         Volume    
  21600112   263.72153      6309.7608     -1309.2375      2481.7049      1674.166       10453.198     -5759.6186     -51.354836      1.0649987      47582.136    
  21620000   238.90522      6071.1714     -1344.8416      2485.1267      1602.4937      10355.717     -5798.7824     -49.336631      1.0707253      47327.649    
  21640000   239.93868      6017.0047     -1397.9523      2480.7921      1549.1902      10323.017     -5705.9821     -52.683112      1.0802461      46910.524    
  21660000   246.09745      6102.3416     -1347.2525      2476.3484      1624.3473      10333.757     -5755.6414     -50.110985      1.0744895      47161.849    
  21680000   241.0279       6003.5158     -1348.4611      2490.4376      1576.7161      10278.622     -5759.7628     -54.750705      1.0737445      47194.57     
  21700000   241.29135      6062.0869     -1411.4248      2480.9109      1597.0671      10320.518     -5702.0465     -43.841783      1.0689663      47405.53     
  21720000   242.03163      6006.9095     -1404.4933      2477.174       1599.8051      10337.606     -5774.8122     -49.727321      1.0728786      47232.661    
  21740000   240.64104      6070.3472     -1332.2038      2493.6318      1587.6439      10313.15      -5763.0883     -50.152433      1.0740759      47180.009    
  21760000   246.20913      6027.8195     -1378.7903      2477.0684      1595.8796      10345.619     -5784.994      -48.457225      1.0726364      47243.327    
  21780000   238.05618      6022.9692     -1366.8853      2482.8146      1597.2183      10296.72      -5758.8294     -48.825185      1.0720132      47270.792    
  21800000   237.94435      6113.9125     -1359.0171      2472.6224      1566.3607      10392.285     -5728.6332     -50.782235      1.0735674      47202.359    
  21820000   243.45819      6029.7019     -1324.0227      2483.7383      1560.482       10290.983     -5750.4786     -51.71809       1.0694751      47382.975    
  21840000   237.18244      6012.5561     -1344.8786      2467.4567      1562.927       10316.075     -5762.1414     -48.506676      1.0702928      47346.775    
  21860000   237.91111      6046.222      -1378.4854      2478.4724      1564.5536      10370.842     -5758.5949     -52.226651      1.0697964      47368.746    
  21880000   242.83371      6047.251      -1363.315       2503.5072      1578.1674      10295.738     -5734.8031     -53.332325      1.0663681      47521.033    
  21900000   241.019        6032.5413     -1374.5434      2480.4837      1527.7324      10342.335     -5717.2454     -47.566376      1.0768234      47059.631    
  21920000   238.32084      5985.4392     -1352.4104      2484.4669      1574.5812      10250.377     -5747.8926     -44.61088       1.0711393      47309.356    
  21940000   243.47641      6082.8092     -1356.4438      2485.0474      1584.8634      10395.385     -5794.7651     -52.750142      1.0719646      47272.935    
  21960000   242.07607      6023.3935     -1331.8126      2485.216       1579.4945      10320.981     -5805.514      -46.49517       1.0677752      47458.41     
  21980000   240.35577      5990.8832     -1320.621       2487.0575      1530.936       10307.903     -5787.1291     -48.367162      1.0695776      47378.435    
  22000000   242.07117      6044.0263     -1382.8983      2486.1673      1553.3145      10368.601     -5750.6359     -51.586126      1.0750192      47138.614    
  22020000   234.31919      6045.1303     -1402.727       2489.5556      1605.7112      10367.014     -5787.9758     -47.603278      1.0708303      47323.007    
  22040000   243.83875      6011.5589     -1389.4332      2489.0639      1571.7758      10332.996     -5762.1974     -51.228328      1.0704679      47339.033    
  22060000   235.93903      6007.2168     -1357.5032      2485.7923      1582.8777      10308.758     -5785.778      -47.747943      1.0736528      47198.603    
  22080000   243.4505       6071.6612     -1401.5613      2498.0588      1612.1065      10332.77      -5741.1973     -49.507788      1.0741893      47175.031    
  22100000   238.17157      6040.5448     -1383.0668      2480.0764      1596.138       10367.632     -5795.8423     -45.491147      1.0751378      47133.412    
  22120000   238.60431      5960.9939     -1375.3442      2477.6696      1548.9723      10328.676     -5794.6483     -45.806572      1.0705622      47334.859    
  22140000   241.47806      6103.1499     -1349.9654      2480.9271      1546.9962      10421.265     -5772.2669     -44.943973      1.0774594      47031.854    
  22160000   241.6833       6103.0392     -1397.2215      2486.2653      1629.451       10365.897     -5749.394      -52.921526      1.0704729      47338.807    
  22180000   238.79585      6059.119      -1392.8505      2492.8129      1610.0867      10384.135     -5807.9321     -48.576945      1.0647317      47594.068    
  22200000   240.8684       6082.7396     -1374.1801      2473.3553      1562.7803      10397.791     -5744.6991     -53.871123      1.0756251      47112.058    
  22220000   240.47576      6039.476      -1375.2354      2484.3833      1547.8335      10418.327     -5813.963      -43.830253      1.0712075      47306.346    
  22240000   236.43233      6042.08       -1399.4691      2499.3686      1565.8365      10402.943     -5787.7182     -59.994609      1.0692359      47393.577    
  22260000   239.16804      6015.7176     -1347.1417      2494.8689      1566.6363      10327.483     -5798.4699     -49.0991        1.0770893      47048.015    
  22280000   241.71216      6000.6749     -1376.3506      2478.0544      1568.9565      10298.659     -5737.8706     -52.404758      1.0692486      47393.014    
  22300000   237.56608      5942.3366     -1366.4753      2481.6793      1501.6536      10338.539     -5782.8689     -51.093448      1.0716492      47286.848    
  22320000   238.96372      6061.6967     -1344.8174      2489.1111      1563.7821      10369.609     -5784.2296     -52.039875      1.0805885      46895.663    
  22340000   240.16845      6090.9096     -1325.109       2488.6241      1593.956       10351.662     -5787.1895     -51.466339      1.0758738      47101.166    
  22360000   240.58454      5984.4698     -1358.2376      2486.3705      1510.3533      10345.63      -5770.3506     -49.42077       1.0756973      47108.897    
  22380000   242.9537       6039.935      -1401.3406      2489.5572      1581.9516      10427.783     -5832.4635     -46.512555      1.0712896      47302.72     
  22400000   241.01603      6028.2817     -1351.9571      2479.8464      1596.4188      10286.803     -5753.4413     -50.858386      1.0676872      47462.319    
  22420000   241.56358      5980.8554     -1347.5022      2495.2161      1568.8004      10300.242     -5804.7951     -52.355363      1.0690793      47400.519    
  22440000   245.25043      5994.4862     -1388.2904      2479.475       1558.9889      10321.194     -5746.5041     -51.857555      1.0749735      47140.618    
  22460000   238.67295      6052.0895     -1351.0543      2490.8845      1614.6757      10291.25      -5770.3582     -44.175978      1.0771071      47047.238    
  22480000   243.74017      6024.0985     -1375.3793      2476.3604      1533.0847      10413.791     -5799.7743     -45.048115      1.0741908      47174.962    
  22500000   237.08598      6086.9952     -1351.9359      2474.2379      1644.5935      10289.765     -5740.5303     -49.785829      1.0783298      46993.891    
  22520000   237.2974       5996.9957     -1379.9404      2479.3667      1569.6652      10395.274     -5836.4007     -52.066398      1.0680501      47446.193    
  22540000   241.94593      5944.4696     -1389.5359      2506.0597      1498.1483      10296.639     -5736.5075     -51.179407      1.0692599      47392.512    
  22560000   236.28555      6013.0777     -1397.322       2490.7961      1601.6898      10342.186     -5796.1517     -49.226494      1.0743045      47169.971    
  22580000   238.05018      5990.0774     -1369.6946      2482.7261      1549.654       10371.994     -5816.6228     -48.488874      1.0755309      47116.185    
  22600000   240.30198      6042.9859     -1402.1407      2489.0396      1557.1034      10347.572     -5715.1921     -54.487357      1.069617       47376.687    
  22620000   242.30589      5994.7821     -1366.4782      2481.7563      1535.9902      10347.074     -5772.1349     -52.095157      1.0703988      47342.088    
  22640000   241.56482      6057.8451     -1369.0587      2481.3845      1554.2035      10430.443     -5810.9658     -49.030892      1.0770594      47049.319    
  22660000   238.75933      6041.0979     -1372.5231      2489.4577      1620.4957      10324.768     -5791.0279     -51.191952      1.0713338      47300.769    
  22680000   239.632        6043.8448     -1393.2119      2481.5162      1599.377       10343.973     -5756.5421     -51.854805      1.0639849      47627.474    
  22700000   243.45989      6070.2666     -1359.0841      2487.7702      1564.6343      10372.645     -5767.6588     -48.558585      1.0734932      47205.622    
  22720000   241.55265      6084.3638     -1356.9767      2492.3354      1623.0354      10325.447     -5773.8508     -46.076627      1.06855        47423.998    
  22740000   238.79596      6074.2552     -1379.2113      2487.3594      1587.115       10354.394     -5744.2872     -52.240961      1.0710743      47312.231    
  22760000   240.53118      5973.0739     -1366.1743      2491.6704      1611.184       10221.637     -5763.9297     -42.063853      1.0746986      47152.672    
  22780000   239.09652      5978.3046     -1351.9052      2492.1149      1594.9405      10303.193     -5828.0394     -52.002569      1.0688785      47409.421    
  22800000   234.45874      6023.279      -1347.0765      2498.7094      1525.9197      10351.094     -5777.2247     -48.661669      1.06737        47476.427    
  22800112   240.14867      6019.8314     -1358.7303      2502.4602      1575.9214      10338.493     -5806.1977     -52.750083      1.0674824      47471.425    
Loop time of 4006.48 on 24 procs for 1200000 steps with 5010 atoms

Performance: 6.470 ns/day, 3.710 hours/ns, 299.515 timesteps/s, 1.501 Matom-step/s
99.5% CPU use with 24 MPI tasks x no OpenMP threads

MPI task timing breakdown:
Section |  min time  |  avg time  |  max time  |%varavg| %total
---------------------------------------------------------------
Pair    | 2161.7     | 2379.8     | 2546.3     | 206.4 | 59.40
Bond    | 652.2      | 708.25     | 765.05     | 113.8 | 17.68
Kspace  | 550.02     | 715.2      | 980.83     | 393.0 | 17.85
Neigh   | 20.237     | 20.254     | 20.276     |   0.2 |  0.51
Comm    | 133.57     | 135.59     | 138.79     |  13.1 |  3.38
Output  | 0.0035038  | 0.003867   | 0.011822   |   2.7 |  0.00
Modify  | 32.248     | 34.154     | 35.986     |  18.4 |  0.85
Other   |            | 13.17      |            |       |  0.33

Nlocal:         208.75 ave         222 max         192 min
Histogram: 1 1 2 2 1 5 4 3 4 1
Nghost:        5064.38 ave        5114 max        5003 min
Histogram: 1 2 1 2 4 1 8 1 1 3
Neighs:        79509.2 ave       87413 max       71647 min
Histogram: 1 2 4 1 6 2 3 2 1 2

Total # of neighbors = 1908222
Ave neighs/atom = 380.88263
Ave special neighs/atom = 6.1964072
Neighbor list builds = 6779
Dangerous builds = 0
unfix           fNPT
unfix           fMOM
next            a
jump            SELF loop
variable        a loop 26
variable        b equal 600-20*($a-1)
variable        b equal 600-20*(20-1)
fix             fMOM all momentum 100 linear 1 1 1 angular
fix             fNPT all npt temp $b $b $(100.0*dt) iso 1 1 $(100.0*dt)
fix             fNPT all npt temp 220 $b $(100.0*dt) iso 1 1 $(100.0*dt)
fix             fNPT all npt temp 220 220 $(100.0*dt) iso 1 1 $(100.0*dt)
fix             fNPT all npt temp 220 220 25 iso 1 1 $(100.0*dt)
fix             fNPT all npt temp 220 220 25 iso 1 1 25
run             1200000
PPPM initialization ...
  using 12-bit tables for long-range coulomb (../kspace.cpp:342)
  G vector (1/distance) = 0.12056993
  grid = 4 4 4
  stencil order = 5
  estimated absolute RMS force accuracy = 0.23550877
  estimated relative force accuracy = 0.00070922767
  using double precision KISS FFT
  3d grid and FFT values/proc = 294 4
Generated 28 of 28 mixed pair_coeff terms from sixthpower/sixthpower mixing rule
WARNING: Inconsistent image flags (../domain.cpp:815)
Per MPI rank memory allocation (min/avg/max) = 15.5 | 15.5 | 15.51 Mbytes
   Step          Temp          PotEng         E_vdwl         E_coul         E_bond        E_angle        E_dihed        E_impro        Density         Volume    
  22800112   240.14867      6019.8442     -1358.7303      2503.1247      1575.9214      10338.493     -5806.1977     -52.750083      1.0674824      47471.425    
  22820000   219.3961       5745.7099     -1412.4581      2491.0313      1539.3718      10166.244     -5805.8261     -52.536686      1.0760894      47091.733    
  22840000   216.4593       5743.0658     -1366.1537      2480.7734      1462.5932      10154.313     -5756.4701     -51.317723      1.0800366      46919.624    
  22860000   220.30172      5679.4405     -1418.6212      2495.0392      1465.0831      10192.619     -5822.5554     -52.636555      1.0761402      47089.509    
  22880000   220.29706      5828.0307     -1394.7718      2493.1415      1521.9788      10203.049     -5769.7129     -45.626271      1.0781822      47000.325    
  22900000   222.04984      5711.4093     -1382.485       2478.1349      1471.9186      10144.163     -5771.0307     -49.529768      1.0750431      47137.563    
  22920000   220.71843      5695.6743     -1443.6925      2493.1065      1452.718       10151.59      -5729.1017     -48.823564      1.07945        46945.12     
  22940000   220.82037      5732.7607     -1361.7464      2481.7341      1445.2896      10152.424     -5760.6751     -44.609199      1.0766135      47068.806    
  22960000   215.33442      5749.2872     -1391.8843      2490.2888      1430.8479      10235.331     -5782.8748     -52.089412      1.0753027      47126.185    
  22980000   217.82046      5745.2187     -1420.5158      2489.9058      1448.552       10264.655     -5810.9743     -46.726874      1.0745164      47160.671    
  23000000   222.94242      5762.925      -1402.2013      2492.2203      1457.6531      10220.778     -5776.4837     -49.085737      1.0759779      47096.612    
  23020000   223.12962      5767.6248     -1414.1118      2488.7622      1514.9218      10187.005     -5779.8531     -49.211578      1.076186       47087.504    
  23040000   219.65306      5793.107      -1379.2592      2473.9496      1500.0881      10224.837     -5797.9607     -48.755111      1.0754405      47120.145    
  23060000   220.51047      5736.852      -1388.563       2483.7792      1450.1524      10202.986     -5784.2301     -47.095992      1.0790264      46963.552    
  23080000   220.36401      5789.5771     -1408.9392      2499.2683      1485.204       10251.999     -5810.2984     -47.803531      1.0679932      47448.722    
  23100000   216.85924      5732.604      -1376.9673      2491.6087      1420.1686      10219.562     -5792.7183     -48.923341      1.0748846      47144.516    
  23120000   222.60782      5703.6436     -1415.5689      2479.4578      1508.9138      10151.045     -5791.3252     -48.968501      1.0744877      47161.93     
  23140000   221.29414      5756.1582     -1418.7144      2494.4691      1449.5762      10225.592     -5770.8594     -44.17498       1.0720827      47267.726    
  23160000   213.18222      5740.799      -1374.5026      2488.8477      1408.381       10256.261     -5799.4454     -58.679403      1.0733242      47213.055    
  23180000   219.27904      5718.4767     -1419.7788      2484.9025      1479.58        10210.123     -5805.6458     -50.797175      1.0745961      47157.171    
  23200000   220.76112      5687.5052     -1391.774       2489.2686      1441.6386      10217.79      -5841.616      -47.60589       1.0778097      47016.569    
  23220000   219.91415      5711.5811     -1399.7997      2477.307       1452.1915      10217.802     -5806.7124     -50.313979      1.0732907      47214.525    
  23240000   220.56097      5747.3841     -1342.2633      2495.3343      1459.064       10115.839     -5754.1781     -46.774908      1.072036       47269.787    
  23260000   220.37235      5745.9189     -1390.5153      2478.4135      1459.9654      10205.824     -5777.609      -50.435395      1.0739139      47187.129    
  23280000   215.91015      5734.3638     -1389.904       2493.1292      1488.2447      10133.481     -5760.0376     -50.909035      1.081789       46843.62     
  23300000   225.78546      5762.9263     -1409.4743      2506.0407      1456.9608      10224.46      -5789.3778     -46.120804      1.0753618      47123.594    
  23320000   221.87393      5739.7427     -1397.0442      2481.6692      1474.1743      10193.913     -5782.8002     -50.610243      1.0765756      47070.464    
  23340000   221.92737      5805.6056     -1404.8643      2489.0398      1493.9992      10266.806     -5808.6821     -50.723816      1.0764406      47076.368    
  23360000   220.16186      5706.2636     -1435.1289      2487.3447      1448.5276      10237.948     -5803.9822     -48.932012      1.0729316      47230.328    
  23380000   218.30962      5670.5256     -1391.5939      2489.9174      1424.703       10174.295     -5793.1384     -53.92525       1.0745291      47160.112    
  23400000   217.7252       5723.0266     -1382.2632      2485.1667      1475.8526      10172.266     -5799.3298     -48.913294      1.0737313      47195.153    
  23420000   218.63172      5703.131      -1355.6763      2490.2694      1468.2226      10137.374     -5810.5132     -47.357655      1.0776008      47025.682    
  23440000   222.67068      5648.7627     -1418.5281      2485.9064      1460.8065      10106.264     -5760.8578     -44.970446      1.0755405      47115.765    
  23460000   224.35541      5749.064      -1391.2036      2488.894       1498.4109      10184.307     -5799.8975     -52.196288      1.075281       47127.135    
  23480000   219.44538      5769.7513     -1388.1532      2497.906       1500.2471      10182.4       -5792.3257     -50.225613      1.0803052      46907.961    
  23500000   219.62485      5713.983      -1389.314       2503.1554      1479.6085      10160.449     -5810.2614     -49.535004      1.0788387      46971.721    
  23520000   218.56381      5729.5441     -1375.7045      2487.1138      1445.3777      10165.154     -5762.6692     -49.541673      1.0783466      46993.158    
  23540000   220.87234      5760.888      -1388.1873      2498.0579      1446.8245      10255.718     -5818.1884     -53.54988       1.0786862      46978.363    
  23560000   215.39318      5674.2038     -1415.5309      2482.3639      1430.6259      10196.853     -5787.4554     -52.784439      1.0800156      46920.536    
  23580000   221.25375      5791.3581     -1386.3684      2490.4847      1477.6765      10194.802     -5759.375      -46.116002      1.0795057      46942.702    
  23600000   217.40113      5723.1426     -1423.0026      2490.3751      1452.9917      10213.134     -5777.5092     -52.853905      1.0726297      47243.624    
  23620000   219.69245      5743.5064     -1383.3428      2493.2105      1470.0149      10205.377     -5816.6845     -44.863717      1.0667571      47503.702    
  23640000   217.45455      5736.6732     -1426.9415      2491.9332      1460.7592      10241.742     -5806.1358     -45.127059      1.0701369      47353.675    
  23660000   221.61649      5701.6385     -1389.9504      2488.5026      1448.8188      10198.019     -5813.8891     -50.021814      1.0774627      47031.709    
  23680000   224.50482      5778.2441     -1388.8203      2487.1883      1477.1064      10187.756     -5753.9359     -51.253911      1.0715015      47293.366    
  23700000   218.67717      5612.1452     -1400.99        2480.7576      1440.996       10091.65      -5772.9681     -47.935418      1.0676031      47466.06     
  23720000   224.08061      5772.1786     -1378.2793      2493.7591      1453.0234      10186.388     -5754.1206     -48.760096      1.0725538      47246.966    
  23740000   220.1952       5750.507      -1402.6457      2482.9722      1507.1873      10198.236     -5809.3727     -46.940888      1.073866       47189.232    
  23760000   221.2507       5697.2577     -1377.0061      2479.3708      1447.5265      10209.593     -5828.6666     -53.909504      1.0796811      46935.073    
  23780000   219.36822      5731.0459     -1400.8815      2475.7141      1499.2743      10176.037     -5789.6276     -50.007186      1.0794607      46944.658    
  23800000   221.62461      5765.511      -1379.6888      2491.3986      1468.16        10176.076     -5759.7828     -51.066869      1.0718523      47277.888    
  23820000   221.28454      5732.6343     -1387.969       2484.3397      1457.125       10141.152     -5735.3913     -47.138068      1.0744075      47165.449    
  23840000   215.21258      5717.5143     -1408.12        2489.5046      1475.4645      10160.331     -5771.0702     -48.261985      1.0761336      47089.798    
  23860000   216.98156      5708.1551     -1411.7146      2491.7556      1461.9935      10168.537     -5772.357      -50.80984       1.0797612      46931.594    
  23880000   217.618        5618.1665     -1383.7561      2466.5229      1404.4005      10161.787     -5801.786      -49.051157      1.0782012      46999.497    
  23900000   219.77161      5703.8209     -1404.5573      2486.3574      1484.7016      10167.393     -5804.2518     -46.703777      1.0793166      46950.923    
  23920000   220.11342      5753.1938     -1440.6626      2491.9232      1481.4891      10209.749     -5763.395      -46.345934      1.0809358      46880.592    
  23940000   217.77897      5730.7965     -1412.5343      2476.4305      1444.0845      10222.884     -5778.1019     -42.3508        1.0765349      47072.242    
  23960000   224.5993       5723.9522     -1398.4308      2489.0867      1469.7987      10215.829     -5820.6438     -51.415952      1.0734704      47206.624    
  23980000   220.62098      5749.7794     -1411.2089      2496.1026      1461.6364      10191.035     -5759.6727     -48.361014      1.0733522      47211.822    
  24000000   222.8413       5725.98       -1372.2096      2500.8976      1451.7203      10170.474     -5796.3698     -49.058386      1.0767943      47060.905    
  24000112   218.24881      5750.5451     -1418.266       2491.6881      1444.2273      10204.532     -5744.8364     -47.230529      1.0756285      47111.91     
Loop time of 4031.86 on 24 procs for 1200000 steps with 5010 atoms

Performance: 6.429 ns/day, 3.733 hours/ns, 297.629 timesteps/s, 1.491 Matom-step/s
99.5% CPU use with 24 MPI tasks x no OpenMP threads

MPI task timing breakdown:
Section |  min time  |  avg time  |  max time  |%varavg| %total
---------------------------------------------------------------
Pair    | 2175       | 2388.7     | 2573.8     | 229.4 | 59.25
Bond    | 649.04     | 707.88     | 767.39     | 114.0 | 17.56
Kspace  | 555.38     | 732.71     | 994.86     | 439.5 | 18.17
Neigh   | 18.516     | 18.535     | 18.548     |   0.2 |  0.46
Comm    | 134.57     | 136.59     | 139.86     |  13.3 |  3.39
Output  | 0.0052523  | 0.0057493  | 0.016928   |   3.1 |  0.00
Modify  | 32.237     | 34.294     | 36.018     |  19.0 |  0.85
Other   |            | 13.14      |            |       |  0.33

Nlocal:         208.75 ave         226 max         194 min
Histogram: 3 1 3 1 3 7 3 2 0 1
Nghost:        5110.54 ave        5150 max        5064 min
Histogram: 2 0 2 2 4 5 2 3 2 2
Neighs:        80143.2 ave       88384 max       69026 min
Histogram: 1 1 1 2 5 3 4 1 3 3

Total # of neighbors = 1923438
Ave neighs/atom = 383.91976
Ave special neighs/atom = 6.1964072
Neighbor list builds = 6269
Dangerous builds = 0
unfix           fNPT
unfix           fMOM
next            a
jump            SELF loop
variable        a loop 26
variable        b equal 600-20*($a-1)
variable        b equal 600-20*(21-1)
fix             fMOM all momentum 100 linear 1 1 1 angular
fix             fNPT all npt temp $b $b $(100.0*dt) iso 1 1 $(100.0*dt)
fix             fNPT all npt temp 200 $b $(100.0*dt) iso 1 1 $(100.0*dt)
fix             fNPT all npt temp 200 200 $(100.0*dt) iso 1 1 $(100.0*dt)
fix             fNPT all npt temp 200 200 25 iso 1 1 $(100.0*dt)
fix             fNPT all npt temp 200 200 25 iso 1 1 25
run             1200000
PPPM initialization ...
  using 12-bit tables for long-range coulomb (../kspace.cpp:342)
  G vector (1/distance) = 0.12078784
  grid = 4 4 4
  stencil order = 5
  estimated absolute RMS force accuracy = 0.23516556
  estimated relative force accuracy = 0.00070819411
  using double precision KISS FFT
  3d grid and FFT values/proc = 294 4
Generated 28 of 28 mixed pair_coeff terms from sixthpower/sixthpower mixing rule
WARNING: Inconsistent image flags (../domain.cpp:815)
Per MPI rank memory allocation (min/avg/max) = 15.5 | 15.51 | 15.51 Mbytes
   Step          Temp          PotEng         E_vdwl         E_coul         E_bond        E_angle        E_dihed        E_impro        Density         Volume    
  24000112   218.24881      5750.6484     -1418.266       2493.9176      1444.2273      10204.532     -5744.8364     -47.230529      1.0756285      47111.91     
  24020000   195.78487      5500.1433     -1394.0358      2491.481       1384.2622      10127.026     -5876.7728     -50.238996      1.0807102      46890.38     
  24040000   200.66297      5409.258      -1410.8837      2485.2144      1331.6429      9987.1701     -5754.6574     -47.42868       1.077368       47035.845    
  24060000   203.10706      5376.9454     -1435.5261      2485.5294      1296.5114      10055.691     -5794.1017     -49.107331      1.0846106      46721.758    
  24080000   204.8348       5411.4183     -1436.5453      2487.953       1375.9374      10038.229     -5827.2502     -44.583411      1.0778086      47016.615    
  24100000   195.90335      5497.8224     -1465.0509      2501.0726      1362.0779      10122.541     -5792.7167     -47.824661      1.0810827      46874.222    
  24120000   199.32139      5432.736      -1417.9589      2477.9293      1359.9227      10028.179     -5784.7172     -48.296156      1.0802546      46910.156    
  24140000   200.99169      5419.8778     -1423.9332      2478.923       1350.9164      10050.936     -5804.1615     -50.616413      1.0787887      46973.902    
  24160000   200.80859      5459.3957     -1437.8585      2501.0365      1324.4566      10094.608     -5796.9242     -44.027691      1.0791935      46956.28     
  24180000   199.31627      5514.4376     -1426.4739      2506.9446      1368.6203      10118.212     -5822.7528     -47.855677      1.0750657      47136.572    
  24200000   201.5737       5408.3075     -1428.8973      2491.2068      1358.8554      10063.847     -5848.6993     -46.116141      1.0785749      46983.212    
  24220000   202.28205      5400.2447     -1422.9409      2493.2814      1336.035       10040.325     -5819.5268     -45.298855      1.0804572      46901.36     
  24240000   192.89761      5450.4059     -1429.6757      2480.9016      1368.1773      10065.374     -5806.3601     -46.29264       1.0744507      47163.555    
  24260000   198.79176      5368.1199     -1436.0423      2478.5323      1365.7037      9999.5126     -5807.7991     -50.38041       1.0762056      47086.645    
  24280000   198.92815      5382.9601     -1457.2407      2491.8564      1374.574       9988.8696     -5781.2527     -52.014685      1.0791141      46959.734    
  24300000   199.35143      5408.7905     -1432.4529      2491.8322      1402.2082      9966.472      -5789.0659     -48.088882      1.0796756      46935.313    
  24320000   201.14094      5394.2188     -1433.134       2487.5228      1339.0364      10030.281     -5797.6418     -49.767085      1.0817402      46845.731    
  24340000   199.77624      5396.74       -1451.9376      2498.6666      1316.5229      10036.487     -5776.3269     -45.272485      1.0846725      46719.089    
  24360000   196.89975      5328.5304     -1414.7968      2489.5193      1295.8291      9973.4333     -5786.6742     -47.039397      1.0798478      46927.83     
  24380000   204.84627      5441.9987     -1435.1908      2494.8225      1387.2857      10047.732     -5821.9781     -48.797133      1.0790567      46962.234    
  24400000   201.01674      5408.3911     -1433.9991      2481.3047      1344.5855      10007.618     -5761.3295     -48.282069      1.0799257      46924.444    
  24420000   198.48224      5407.736      -1405.3956      2488.3985      1344.3545      10028.674     -5816.9362     -49.451016      1.0783047      46994.984    
  24440000   200.81972      5457.716      -1427.3366      2486.106       1361.9374      10053.301     -5783.823      -50.529377      1.0820877      46830.689    
  24460000   197.18313      5393.7367     -1427.4923      2481.0957      1330.7194      10000.061     -5761.4533     -47.017232      1.0780112      47007.781    
  24480000   199.45951      5452.3459     -1409.2048      2490.8153      1355.1872      10047.819     -5801.3869     -49.638679      1.0799571      46923.078    
  24500000   198.03995      5421.2765     -1449.6544      2481.0684      1328.1417      10099.483     -5806.2498     -49.235754      1.08606        46659.405    
  24520000   198.60653      5398.7349     -1424.8594      2472.9718      1328.7276      10031.636     -5776.9528     -50.89491       1.0853251      46690.998    
  24540000   203.93281      5386.493      -1452.4108      2489.9677      1353.822       9965.2319     -5740.9677     -47.098329      1.082284       46822.194    
  24560000   204.3035       5420.7533     -1421.4541      2476.4104      1337.7844      9992.2008     -5730.6104     -52.022677      1.0786819      46978.552    
  24580000   199.18802      5388.2594     -1427.0202      2474.1937      1384.5105      9992.7098     -5810.8264     -43.202663      1.0804206      46902.95     
  24600000   203.36806      5442.0957     -1456.0554      2496.4667      1382.4912      10032.621     -5792.7997     -38.59928       1.0782243      46998.489    
  24620000   200.68337      5439.5206     -1414.1697      2479.9802      1372.131       10047.839     -5814.286      -50.32232       1.0777702      47018.292    
  24640000   201.05097      5446.2635     -1440.481       2485.8736      1328.8766      10105.103     -5800.7892     -49.897043      1.0801495      46914.719    
  24660000   198.60646      5463.0158     -1423.9721      2482.0388      1359.5901      10067.591     -5790.8121     -49.075427      1.0744318      47164.384    
  24680000   196.9292       5443.232      -1431.3879      2479.5602      1388.5936      10057.169     -5817.16       -51.216144      1.0801315      46915.504    
  24700000   198.37175      5445.8894     -1417.3239      2485.3394      1360.8871      10018.886     -5776.7377     -43.285937      1.0748107      47147.757    
  24720000   198.53364      5405.8437     -1453.9451      2493.6677      1320.0341      10050.784     -5774.0798     -48.290215      1.0789374      46967.424    
  24740000   199.87674      5437.5587     -1440.0183      2480.3494      1354.9468      10105.853     -5832.1042     -49.544916      1.0744921      47161.738    
  24760000   199.77971      5510.1741     -1461.262       2490.2372      1400.4947      10111.553     -5803.0389     -46.376508      1.0754828      47118.294    
  24780000   200.20906      5431.4443     -1432.2592      2474.2742      1381.9865      10029.162     -5790.228      -49.323988      1.0736113      47200.429    
  24800000   198.22576      5382.8903     -1453.1342      2477.6126      1377.8691      10014.56      -5806.3023     -46.097785      1.0809702      46879.103    
  24820000   199.71705      5476.0988     -1422.5479      2471.5252      1387.6685      10017.511     -5747.1427     -49.004767      1.0821438      46828.26     
  24840000   198.94556      5382.124      -1430.4866      2489.0827