LAMMPS (22 Dec 2022)
# PREREQUISITES:
#
#     You must use moltemplate.sh to create 3 files:
#        system.data  system.in.init  system.in.settings
#     (Follow the instructions in README_setup.sh,
#      or run the file as a script using ./README_setup.sh)

# ------------------------------- Initialization Section --------------------

units real
atom_style full
pair_style lj/class2/coul/long 10.0 10.0
bond_style class2
angle_style class2
dihedral_style class2
improper_style class2
kspace_style pppm/cg 0.001

pair_modify     mix sixthpower tail yes
special_bonds   lj/coul 0 0 1


# ------------------------------- Atom Definition Section -------------------

read_data       "reacted_lmp.data"
Reading data file ...
  orthogonal box = (5.9030791 5.9030791 5.9030791) to (43.568975 43.568975 43.568975)
  2 by 3 by 4 MPI processor grid
  reading atoms ...
  4952 atoms
  reading velocities ...
  4952 velocities
  scanning bonds ...
  4 = max bonds/atom
  scanning angles ...
  6 = max angles/atom
  scanning dihedrals ...
  17 = max dihedrals/atom
  scanning impropers ...
  4 = max impropers/atom
  reading bonds ...
  5336 bonds
  reading angles ...
  10920 angles
  reading dihedrals ...
  17852 dihedrals
  reading impropers ...
  6890 impropers
Finding 1-2 1-3 1-4 neighbors ...
  special bond factors lj:    0        0        1       
  special bond factors coul:  0        0        1       
     4 = max # of 1-2 neighbors
     9 = max # of 1-3 neighbors
    13 = max # of special neighbors
  special bonds CPU = 0.003 seconds
  read_data CPU = 0.425 seconds

include calc.pram

# Masses

mass		 1    12.01115  # c
mass		 2    12.01115  # c1
mass		 3    12.01115  # c_1
mass		 4     1.00797  # h
mass		 5     1.00797  # hc
mass		 6    15.99940  # o3e
mass		 7    15.99940  # o_1
mass		 8    15.99940  # o_2
mass		 9    15.99940  # oc
mass		10    15.99940  # oh

# Potentials

pair_coeff	 1  1    0.05400    4.01000  # c,c
pair_coeff	 2  2    0.05400    4.01000  # c1,c1
pair_coeff	 3  3    0.12000    3.81000  # c_1,c_1
pair_coeff	 4  4    0.02000    2.99500  # h,h
pair_coeff	 5  5    0.02000    2.99500  # hc,hc
pair_coeff	 6  6    0.24000    3.53500  # o3e,o3e
pair_coeff	 7  7    0.26700    3.30000  # o_1,o_1
pair_coeff	 8  8    0.24000    3.42000  # o_2,o_2
pair_coeff	 9  9    0.24000    3.53500  # oc,oc
pair_coeff	10 10    0.24000    3.53500  # oh,oh

# Bond Coeffs

bond_coeff	 1    1.53000  299.67000 -501.77000  679.81000  # c,c
bond_coeff	 2    1.53000  299.67000 -501.77000  679.81000  # c,c1
bond_coeff	 3    1.10100  345.00000 -691.89000  844.60000  # c,hc
bond_coeff	 4    1.43000  326.72730 -608.53060  689.03330  # c,o_2
bond_coeff	 5    1.53000  299.67000 -501.77000  679.81000  # c1,c1
bond_coeff	 6    1.52020  253.70670 -423.03700  396.90000  # c1,c_1
bond_coeff	 7    1.10100  345.00000 -691.89000  844.60000  # c1,hc
bond_coeff	 8    1.42000  400.39540 -835.19510 1313.01420  # c1,o3e
bond_coeff	 9    1.42000  400.39540 -835.19510 1313.01420  # c1,oc
bond_coeff	10    1.42000  400.39540 -835.19510 1313.01420  # c1,oh
bond_coeff	11    1.20200  851.14030 -1918.48820 2160.76590  # c_1,o_1
bond_coeff	12    1.36830  367.14810 -794.79080 1055.23190  # c_1,o_2
bond_coeff	13    0.96000  493.84800    0.00000    0.00000  # h,oh

# Angle Coeffs

angle_coeff	 1  112.67000   39.51600   -7.44300   -9.55830  # c,c,c
angle_coeff	 2  112.67000   39.51600   -7.44300   -9.55830  # c,c,c1
angle_coeff	 3  110.77000   41.45300  -10.60400    5.12900  # c,c,hc
angle_coeff	 4  112.67000   39.51600   -7.44300   -9.55830  # c,c1,c
angle_coeff	 5  112.67000   39.51600   -7.44300   -9.55830  # c,c1,c1
angle_coeff	 6  108.52950   51.97470   -9.48510  -10.99850  # c,c1,c_1
angle_coeff	 7  110.77000   41.45300  -10.60400    5.12900  # c,c1,hc
angle_coeff	 8  111.27000   54.53810   -8.36420  -13.08380  # c,c1,o3e
angle_coeff	 9  111.27000   54.53810   -8.36420  -13.08380  # c,c1,oc
angle_coeff	10  111.27000   54.53810   -8.36420  -13.08380  # c,c1,oh
angle_coeff	11  113.28800   61.28680  -28.97860    7.99290  # c,o_2,c_1
angle_coeff	12  112.67000   39.51600   -7.44300   -9.55830  # c1,c,c1
angle_coeff	13  110.77000   41.45300  -10.60400    5.12900  # c1,c,hc
angle_coeff	14  107.41000   63.39070  -13.45130    1.66500  # c1,c,o_2
angle_coeff	15  110.77000   41.45300  -10.60400    5.12900  # c1,c1,hc
angle_coeff	16  111.27000   54.53810   -8.36420  -13.08380  # c1,c1,o3e
angle_coeff	17  111.27000   54.53810   -8.36420  -13.08380  # c1,c1,oc
angle_coeff	18  111.27000   54.53810   -8.36420  -13.08380  # c1,c1,oh
angle_coeff	19  123.14510   55.54310  -17.21230    0.13480  # c1,c_1,o_1
angle_coeff	20  100.31820   38.86310   -3.83230   -7.98020  # c1,c_1,o_2
angle_coeff	21  104.50000   35.74540  -10.00670   -6.27290  # c1,o3e,c1
angle_coeff	22  104.50000   35.74540  -10.00670   -6.27290  # c1,oc,c1
angle_coeff	23  109.00000   58.50000    0.00000    0.00000  # c1,oh,h
angle_coeff	24  107.73360   40.60990  -28.81210    0.00000  # c_1,c1,hc
angle_coeff	25  107.66000   39.64100  -12.92100   -2.43180  # hc,c,hc
angle_coeff	26  107.68800   65.48010  -10.34980    5.88660  # hc,c,o_2
angle_coeff	27  108.72800   58.54460  -10.80880  -12.40060  # hc,c1,o3e
angle_coeff	28  108.72800   58.54460  -10.80880  -12.40060  # hc,c1,oc
angle_coeff	29  108.72800   58.54460  -10.80880  -12.40060  # hc,c1,oh
angle_coeff	30  120.79700   95.34460  -32.28690    6.37780  # o_1,c_1,o_2

# BondBond Coeffs

angle_coeff	 1 bb    0.00000    1.53000    1.53000  # c,c,c
angle_coeff	 2 bb    0.00000    1.53000    1.53000  # c,c,c1
angle_coeff	 3 bb    3.38720    1.53000    1.10100  # c,c,hc
angle_coeff	 4 bb    0.00000    1.53000    1.53000  # c,c1,c
angle_coeff	 5 bb    0.00000    1.53000    1.53000  # c,c1,c1
angle_coeff	 6 bb    5.41990    1.53000    1.52020  # c,c1,c_1
angle_coeff	 7 bb    3.38720    1.53000    1.10100  # c,c1,hc
angle_coeff	 8 bb   11.43180    1.53000    1.42000  # c,c1,o3e
angle_coeff	 9 bb   11.43180    1.53000    1.42000  # c,c1,oc
angle_coeff	10 bb   11.43180    1.53000    1.42000  # c,c1,oh
angle_coeff	11 bb   45.45030    1.43000    1.36830  # c,o_2,c_1
angle_coeff	12 bb    0.00000    1.53000    1.53000  # c1,c,c1
angle_coeff	13 bb    3.38720    1.53000    1.10100  # c1,c,hc
angle_coeff	14 bb   23.26470    1.53000    1.43000  # c1,c,o_2
angle_coeff	15 bb    3.38720    1.53000    1.10100  # c1,c1,hc
angle_coeff	16 bb   11.43180    1.53000    1.42000  # c1,c1,o3e
angle_coeff	17 bb   11.43180    1.53000    1.42000  # c1,c1,oc
angle_coeff	18 bb   11.43180    1.53000    1.42000  # c1,c1,oh
angle_coeff	19 bb   46.06850    1.52020    1.20200  # c1,c_1,o_1
angle_coeff	20 bb   19.10690    1.52020    1.36830  # c1,c_1,o_2
angle_coeff	21 bb   -7.11310    1.42000    1.42000  # c1,o3e,c1
angle_coeff	22 bb   -7.11310    1.42000    1.42000  # c1,oc,c1
angle_coeff	23 bb    0.00000    1.42000    0.96000  # c1,oh,h
angle_coeff	24 bb    0.71150    1.52020    1.10100  # c_1,c1,hc
angle_coeff	25 bb    5.33160    1.10100    1.10100  # hc,c,hc
angle_coeff	26 bb    5.64540    1.10100    1.43000  # hc,c,o_2
angle_coeff	27 bb   23.19790    1.10100    1.42000  # hc,c1,o3e
angle_coeff	28 bb   23.19790    1.10100    1.42000  # hc,c1,oc
angle_coeff	29 bb   23.19790    1.10100    1.42000  # hc,c1,oh
angle_coeff	30 bb  121.48800    1.20200    1.36830  # o_1,c_1,o_2

# BondAngle Coeffs

angle_coeff	 1 ba    8.01600    8.01600    1.53000    1.53000  # c,c,c
angle_coeff	 2 ba    8.01600    8.01600    1.53000    1.53000  # c,c,c1
angle_coeff	 3 ba   11.42100   20.75400    1.53000    1.10100  # c,c,hc
angle_coeff	 4 ba    8.01600    8.01600    1.53000    1.53000  # c,c1,c
angle_coeff	 5 ba    8.01600    8.01600    1.53000    1.53000  # c,c1,c1
angle_coeff	 6 ba   15.87580   18.16780    1.53000    1.52020  # c,c1,c_1
angle_coeff	 7 ba   11.42100   20.75400    1.53000    1.10100  # c,c1,hc
angle_coeff	 8 ba    2.68680   20.40330    1.53000    1.42000  # c,c1,o3e
angle_coeff	 9 ba    2.68680   20.40330    1.53000    1.42000  # c,c1,oc
angle_coeff	10 ba    2.68680   20.40330    1.53000    1.42000  # c,c1,oh
angle_coeff	11 ba   46.46080   41.91160    1.43000    1.36830  # c,o_2,c_1
angle_coeff	12 ba    8.01600    8.01600    1.53000    1.53000  # c1,c,c1
angle_coeff	13 ba   20.75400   11.42100    1.53000    1.10100  # c1,c,hc
angle_coeff	14 ba   23.39200   47.94870    1.53000    1.43000  # c1,c,o_2
angle_coeff	15 ba   20.75400   11.42100    1.53000    1.10100  # c1,c1,hc
angle_coeff	16 ba    2.68680   20.40330    1.53000    1.42000  # c1,c1,o3e
angle_coeff	17 ba    2.68680   20.40330    1.53000    1.42000  # c1,c1,oc
angle_coeff	18 ba    2.68680   20.40330    1.53000    1.42000  # c1,c1,oh
angle_coeff	19 ba   37.12980   34.99820    1.52020    1.20200  # c1,c_1,o_1
angle_coeff	20 ba    1.34350    4.69780    1.52020    1.36830  # c1,c_1,o_2
angle_coeff	21 ba   -2.81120   -2.81120    1.42000    1.42000  # c1,o3e,c1
angle_coeff	22 ba   -2.81120   -2.81120    1.42000    1.42000  # c1,oc,c1
angle_coeff	23 ba    0.00000    0.00000    1.42000    0.96000  # c1,oh,h
angle_coeff	24 ba   12.46320    9.17650    1.52020    1.10100  # c_1,c1,hc
angle_coeff	25 ba   18.10300   18.10300    1.10100    1.10100  # hc,c,hc
angle_coeff	26 ba    8.68640   57.49750    1.10100    1.43000  # hc,c,o_2
angle_coeff	27 ba    4.61890   55.32700    1.10100    1.42000  # hc,c1,o3e
angle_coeff	28 ba    4.61890   55.32700    1.10100    1.42000  # hc,c1,oc
angle_coeff	29 ba    4.61890   55.32700    1.10100    1.42000  # hc,c1,oh
angle_coeff	30 ba   76.26140   71.87610    1.20200    1.36830  # o_1,c_1,o_2

# Dihedral Coeffs

dihedral_coeff	 1    0.00000    0.00000    0.05140    0.00000   -0.14300    0.00000  # c,c,c,c1
dihedral_coeff	 2    0.00000    0.00000    0.03160    0.00000   -0.16810    0.00000  # c,c,c,hc
dihedral_coeff	 3    0.00000    0.00000    0.05140    0.00000   -0.14300    0.00000  # c,c,c1,c
dihedral_coeff	 4    0.00000    0.00000    0.05140    0.00000   -0.14300    0.00000  # c,c,c1,c1
dihedral_coeff	 5    0.09720    0.00000    0.07220    0.00000   -0.25810    0.00000  # c,c,c1,c_1
dihedral_coeff	 6    0.00000    0.00000    0.03160    0.00000   -0.16810    0.00000  # c,c,c1,hc
dihedral_coeff	 7    0.71370    0.00000    0.26600    0.00000   -0.25450    0.00000  # c,c,c1,o3e
dihedral_coeff	 8    0.71370    0.00000    0.26600    0.00000   -0.25450    0.00000  # c,c,c1,oc
dihedral_coeff	 9    0.00000    0.00000    0.05140    0.00000   -0.14300    0.00000  # c,c1,c,c1
dihedral_coeff	10    0.00000    0.00000    0.03160    0.00000   -0.16810    0.00000  # c,c1,c,hc
dihedral_coeff	11    0.00000    0.00000    0.00000    0.00000   -0.25000    0.00000  # c,c1,c,o_2
dihedral_coeff	12    0.00000    0.00000    0.05140    0.00000   -0.14300    0.00000  # c,c1,c1,c
dihedral_coeff	13    0.00000    0.00000    0.03160    0.00000   -0.16810    0.00000  # c,c1,c1,hc
dihedral_coeff	14    0.71370    0.00000    0.26600    0.00000   -0.25450    0.00000  # c,c1,c1,o3e
dihedral_coeff	15    0.71370    0.00000    0.26600    0.00000   -0.25450    0.00000  # c,c1,c1,oc
dihedral_coeff	16    0.71370    0.00000    0.26600    0.00000   -0.25450    0.00000  # c,c1,c1,oh
dihedral_coeff	17    0.04420    0.00000    0.02920    0.00000    0.05620    0.00000  # c,c1,c_1,o_1
dihedral_coeff	18    1.83410    0.00000    2.06030    0.00000   -0.01950    0.00000  # c,c1,c_1,o_2
dihedral_coeff	19   -0.52030    0.00000   -0.30280    0.00000   -0.34500    0.00000  # c,c1,o3e,c1
dihedral_coeff	20   -0.52030    0.00000   -0.30280    0.00000   -0.34500    0.00000  # c,c1,oc,c1
dihedral_coeff	21    0.00000    0.00000    0.00000    0.00000    0.13000  180.00000  # c,c1,oh,h
dihedral_coeff	22   -2.55940    0.00000    2.20130    0.00000    0.03250    0.00000  # c,o_2,c_1,c1
dihedral_coeff	23    0.00000    0.00000    2.20890    0.00000    0.00000    0.00000  # c,o_2,c_1,o_1
dihedral_coeff	24    0.00000    0.00000    0.05140    0.00000   -0.14300    0.00000  # c1,c,c,c1
dihedral_coeff	25    0.00000    0.00000    0.03160    0.00000   -0.16810    0.00000  # c1,c,c,hc
dihedral_coeff	26    0.00000    0.00000    0.05140    0.00000   -0.14300    0.00000  # c1,c,c1,c1
dihedral_coeff	27    0.09720    0.00000    0.07220    0.00000   -0.25810    0.00000  # c1,c,c1,c_1
dihedral_coeff	28    0.00000    0.00000    0.03160    0.00000   -0.16810    0.00000  # c1,c,c1,hc
dihedral_coeff	29    0.71370    0.00000    0.26600    0.00000   -0.25450    0.00000  # c1,c,c1,o3e
dihedral_coeff	30    0.71370    0.00000    0.26600    0.00000   -0.25450    0.00000  # c1,c,c1,oc
dihedral_coeff	31    0.71370    0.00000    0.26600    0.00000   -0.25450    0.00000  # c1,c,c1,oh
dihedral_coeff	32    0.00000    0.00000    0.00000    0.00000   -0.19320    0.00000  # c1,c,o_2,c_1
dihedral_coeff	33    0.00000    0.00000    0.03160    0.00000   -0.16810    0.00000  # c1,c1,c,hc
dihedral_coeff	34   -0.52030    0.00000   -0.30280    0.00000   -0.34500    0.00000  # c1,c1,oc,c1
dihedral_coeff	35    0.00000    0.00000    0.00000    0.00000    0.13000  180.00000  # c1,c1,oh,h
dihedral_coeff	36    0.53020    0.00000    0.00000    0.00000   -0.39660    0.00000  # c1,o3e,c1,hc
dihedral_coeff	37    0.53020    0.00000    0.00000    0.00000   -0.39660    0.00000  # c1,oc,c1,hc
dihedral_coeff	38   -0.02280    0.00000    0.02800    0.00000   -0.18630    0.00000  # c_1,c1,c,hc
dihedral_coeff	39    0.00000    0.00000    0.00000    0.00000   -0.19320    0.00000  # c_1,o_2,c,hc
dihedral_coeff	40    0.00000    0.00000    0.00000    0.00000    0.13000  180.00000  # h,oh,c1,hc
dihedral_coeff	41   -0.14320    0.00000    0.06170    0.00000   -0.10830    0.00000  # hc,c,c,hc
dihedral_coeff	42   -0.14320    0.00000    0.06170    0.00000   -0.10830    0.00000  # hc,c,c1,hc
dihedral_coeff	43   -0.14350    0.00000    0.25300    0.00000   -0.09050    0.00000  # hc,c,c1,o3e
dihedral_coeff	44   -0.14350    0.00000    0.25300    0.00000   -0.09050    0.00000  # hc,c,c1,oc
dihedral_coeff	45   -0.14350    0.00000    0.25300    0.00000   -0.09050    0.00000  # hc,c,c1,oh
dihedral_coeff	46    0.00000    0.00000    0.00000    0.00000   -0.25000    0.00000  # hc,c1,c,o_2
dihedral_coeff	47   -0.14320    0.00000    0.06170    0.00000   -0.10830    0.00000  # hc,c1,c1,hc
dihedral_coeff	48   -0.14350    0.00000    0.25300    0.00000   -0.09050    0.00000  # hc,c1,c1,o3e
dihedral_coeff	49   -0.14350    0.00000    0.25300    0.00000   -0.09050    0.00000  # hc,c1,c1,oc
dihedral_coeff	50   -0.14350    0.00000    0.25300    0.00000   -0.09050    0.00000  # hc,c1,c1,oh
dihedral_coeff	51   -0.18040    0.00000    0.00120    0.00000    0.03710    0.00000  # hc,c1,c_1,o_1
dihedral_coeff	52   -0.63590    0.00000    1.48070    0.00000   -0.04380    0.00000  # hc,c1,c_1,o_2
dihedral_coeff	53   -0.18200    0.00000   -0.10840    0.00000   -0.70470    0.00000  # oc,c1,c1,oc
dihedral_coeff	54   -0.18200    0.00000   -0.10840    0.00000   -0.70470    0.00000  # oc,c1,c1,oh

# MiddleBondTorsion Coeffs

dihedral_coeff	 1 mbt  -17.78700   -7.18770    0.00000    1.53000  # c,c,c,c1
dihedral_coeff	 2 mbt  -14.87900   -3.65810   -0.31380    1.53000  # c,c,c,hc
dihedral_coeff	 3 mbt  -17.78700   -7.18770    0.00000    1.53000  # c,c,c1,c
dihedral_coeff	 4 mbt  -17.78700   -7.18770    0.00000    1.53000  # c,c,c1,c1
dihedral_coeff	 5 mbt   -1.59450    0.22670   -0.69110    1.53000  # c,c,c1,c_1
dihedral_coeff	 6 mbt  -14.87900   -3.65810   -0.31380    1.53000  # c,c,c1,hc
dihedral_coeff	 7 mbt  -21.88420   -7.67640   -0.68680    1.53000  # c,c,c1,o3e
dihedral_coeff	 8 mbt  -21.88420   -7.67640   -0.68680    1.53000  # c,c,c1,oc
dihedral_coeff	 9 mbt  -17.78700   -7.18770    0.00000    1.53000  # c,c1,c,c1
dihedral_coeff	10 mbt  -14.87900   -3.65810   -0.31380    1.53000  # c,c1,c,hc
dihedral_coeff	11 mbt    0.00000    0.00000    0.00000    1.53000  # c,c1,c,o_2
dihedral_coeff	12 mbt  -17.78700   -7.18770    0.00000    1.53000  # c,c1,c1,c
dihedral_coeff	13 mbt  -14.87900   -3.65810   -0.31380    1.53000  # c,c1,c1,hc
dihedral_coeff	14 mbt  -21.88420   -7.67640   -0.68680    1.53000  # c,c1,c1,o3e
dihedral_coeff	15 mbt  -21.88420   -7.67640   -0.68680    1.53000  # c,c1,c1,oc
dihedral_coeff	16 mbt  -21.88420   -7.67640   -0.68680    1.53000  # c,c1,c1,oh
dihedral_coeff	17 mbt    0.33880   -0.10960    0.12190    1.52020  # c,c1,c_1,o_1
dihedral_coeff	18 mbt  -17.32800   -5.79000   -3.21140    1.52020  # c,c1,c_1,o_2
dihedral_coeff	19 mbt   -5.92880   -2.70070   -0.31750    1.42000  # c,c1,o3e,c1
dihedral_coeff	20 mbt   -5.92880   -2.70070   -0.31750    1.42000  # c,c1,oc,c1
dihedral_coeff	21 mbt    0.00000    0.00000    0.00000    1.42000  # c,c1,oh,h
dihedral_coeff	22 mbt    1.34450    3.55150   -4.92020    1.36830  # c,o_2,c_1,c1
dihedral_coeff	23 mbt    4.26000    0.00000    0.00000    1.36830  # c,o_2,c_1,o_1
dihedral_coeff	24 mbt  -17.78700   -7.18770    0.00000    1.53000  # c1,c,c,c1
dihedral_coeff	25 mbt  -14.87900   -3.65810   -0.31380    1.53000  # c1,c,c,hc
dihedral_coeff	26 mbt  -17.78700   -7.18770    0.00000    1.53000  # c1,c,c1,c1
dihedral_coeff	27 mbt   -1.59450    0.22670   -0.69110    1.53000  # c1,c,c1,c_1
dihedral_coeff	28 mbt  -14.87900   -3.65810   -0.31380    1.53000  # c1,c,c1,hc
dihedral_coeff	29 mbt  -21.88420   -7.67640   -0.68680    1.53000  # c1,c,c1,o3e
dihedral_coeff	30 mbt  -21.88420   -7.67640   -0.68680    1.53000  # c1,c,c1,oc
dihedral_coeff	31 mbt  -21.88420   -7.67640   -0.68680    1.53000  # c1,c,c1,oh
dihedral_coeff	32 mbt   -5.43500    0.00000    0.00000    1.43000  # c1,c,o_2,c_1
dihedral_coeff	33 mbt  -14.87900   -3.65810   -0.31380    1.53000  # c1,c1,c,hc
dihedral_coeff	34 mbt   -5.92880   -2.70070   -0.31750    1.42000  # c1,c1,oc,c1
dihedral_coeff	35 mbt    0.00000    0.00000    0.00000    1.42000  # c1,c1,oh,h
dihedral_coeff	36 mbt   -6.80070   -4.65460   -1.41010    1.42000  # c1,o3e,c1,hc
dihedral_coeff	37 mbt   -6.80070   -4.65460   -1.41010    1.42000  # c1,oc,c1,hc
dihedral_coeff	38 mbt   -3.50390    1.24580   -0.76100    1.53000  # c_1,c1,c,hc
dihedral_coeff	39 mbt    0.00000    0.00000    0.00000    1.43000  # c_1,o_2,c,hc
dihedral_coeff	40 mbt    0.00000    0.00000    0.00000    1.42000  # h,oh,c1,hc
dihedral_coeff	41 mbt  -14.26100   -0.53220   -0.48640    1.53000  # hc,c,c,hc
dihedral_coeff	42 mbt  -14.26100   -0.53220   -0.48640    1.53000  # hc,c,c1,hc
dihedral_coeff	43 mbt  -16.79750   -1.22960   -0.27500    1.53000  # hc,c,c1,o3e
dihedral_coeff	44 mbt  -16.79750   -1.22960   -0.27500    1.53000  # hc,c,c1,oc
dihedral_coeff	45 mbt  -16.79750   -1.22960   -0.27500    1.53000  # hc,c,c1,oh
dihedral_coeff	46 mbt    0.00000    0.00000    0.00000    1.53000  # hc,c1,c,o_2
dihedral_coeff	47 mbt  -14.26100   -0.53220   -0.48640    1.53000  # hc,c1,c1,hc
dihedral_coeff	48 mbt  -16.79750   -1.22960   -0.27500    1.53000  # hc,c1,c1,o3e
dihedral_coeff	49 mbt  -16.79750   -1.22960   -0.27500    1.53000  # hc,c1,c1,oc
dihedral_coeff	50 mbt  -16.79750   -1.22960   -0.27500    1.53000  # hc,c1,c1,oh
dihedral_coeff	51 mbt    0.23590    0.91390    0.95940    1.52020  # hc,c1,c_1,o_1
dihedral_coeff	52 mbt  -13.76860   -2.59590    1.19340    1.52020  # hc,c1,c_1,o_2
dihedral_coeff	53 mbt  -17.25850   -3.61570   -0.83640    1.53000  # oc,c1,c1,oc
dihedral_coeff	54 mbt  -17.25850   -3.61570   -0.83640    1.53000  # oc,c1,c1,oh

# EndBondTorsion Coeffs

dihedral_coeff	 1 ebt   -0.07320    0.00000    0.00000   -0.07320    0.00000    0.00000    1.53000    1.53000  # c,c,c,c1
dihedral_coeff	 2 ebt    0.08140    0.05910    0.22190    0.24860    0.24220   -0.09250    1.53000    1.10100  # c,c,c,hc
dihedral_coeff	 3 ebt   -0.07320    0.00000    0.00000   -0.07320    0.00000    0.00000    1.53000    1.53000  # c,c,c1,c
dihedral_coeff	 4 ebt   -0.07320    0.00000    0.00000   -0.07320    0.00000    0.00000    1.53000    1.53000  # c,c,c1,c1
dihedral_coeff	 5 ebt    0.00550    0.00600   -0.00090    0.00620   -0.00020    0.00360    1.53000    1.52020  # c,c,c1,c_1
dihedral_coeff	 6 ebt    0.08140    0.05910    0.22190    0.24860    0.24220   -0.09250    1.53000    1.10100  # c,c,c1,hc
dihedral_coeff	 7 ebt   -0.31900    0.44110   -0.71740    1.15380    0.84090   -0.91380    1.53000    1.42000  # c,c,c1,o3e
dihedral_coeff	 8 ebt   -0.31900    0.44110   -0.71740    1.15380    0.84090   -0.91380    1.53000    1.42000  # c,c,c1,oc
dihedral_coeff	 9 ebt   -0.07320    0.00000    0.00000   -0.07320    0.00000    0.00000    1.53000    1.53000  # c,c1,c,c1
dihedral_coeff	10 ebt    0.08140    0.05910    0.22190    0.24860    0.24220   -0.09250    1.53000    1.10100  # c,c1,c,hc
dihedral_coeff	11 ebt    0.00000    0.00000    0.00000    0.00000    0.00000    0.00000    1.53000    1.43000  # c,c1,c,o_2
dihedral_coeff	12 ebt   -0.07320    0.00000    0.00000   -0.07320    0.00000    0.00000    1.53000    1.53000  # c,c1,c1,c
dihedral_coeff	13 ebt    0.08140    0.05910    0.22190    0.24860    0.24220   -0.09250    1.53000    1.10100  # c,c1,c1,hc
dihedral_coeff	14 ebt   -0.31900    0.44110   -0.71740    1.15380    0.84090   -0.91380    1.53000    1.42000  # c,c1,c1,o3e
dihedral_coeff	15 ebt   -0.31900    0.44110   -0.71740    1.15380    0.84090   -0.91380    1.53000    1.42000  # c,c1,c1,oc
dihedral_coeff	16 ebt   -0.31900    0.44110   -0.71740    1.15380    0.84090   -0.91380    1.53000    1.42000  # c,c1,c1,oh
dihedral_coeff	17 ebt   -0.28100    0.08160   -0.15220    0.26540    0.05030    0.10460    1.53000    1.20200  # c,c1,c_1,o_1
dihedral_coeff	18 ebt    0.00000    0.00000    0.00000    0.00000    0.00000    0.00000    1.53000    1.36830  # c,c1,c_1,o_2
dihedral_coeff	19 ebt    0.47410    1.26350    0.55760   -0.24560    1.05170   -0.77950    1.53000    1.42000  # c,c1,o3e,c1
dihedral_coeff	20 ebt    0.47410    1.26350    0.55760   -0.24560    1.05170   -0.77950    1.53000    1.42000  # c,c1,oc,c1
dihedral_coeff	21 ebt    0.00000    0.00000    0.00000    0.00000    0.00000    0.00000    1.53000    0.96000  # c,c1,oh,h
dihedral_coeff	22 ebt    0.00000    0.00000    0.00000    0.00000    0.00000    0.00000    1.43000    1.52020  # c,o_2,c_1,c1
dihedral_coeff	23 ebt    0.00000    0.00000    0.00000    0.00000    0.00000    0.00000    1.43000    1.20200  # c,o_2,c_1,o_1
dihedral_coeff	24 ebt   -0.07320    0.00000    0.00000   -0.07320    0.00000    0.00000    1.53000    1.53000  # c1,c,c,c1
dihedral_coeff	25 ebt    0.24860    0.24220   -0.09250    0.08140    0.05910    0.22190    1.53000    1.10100  # c1,c,c,hc
dihedral_coeff	26 ebt   -0.07320    0.00000    0.00000   -0.07320    0.00000    0.00000    1.53000    1.53000  # c1,c,c1,c1
dihedral_coeff	27 ebt    0.00550    0.00600   -0.00090    0.00620   -0.00020    0.00360    1.53000    1.52020  # c1,c,c1,c_1
dihedral_coeff	28 ebt    0.24860    0.24220   -0.09250    0.08140    0.05910    0.22190    1.53000    1.10100  # c1,c,c1,hc
dihedral_coeff	29 ebt   -0.31900    0.44110   -0.71740    1.15380    0.84090   -0.91380    1.53000    1.42000  # c1,c,c1,o3e
dihedral_coeff	30 ebt   -0.31900    0.44110   -0.71740    1.15380    0.84090   -0.91380    1.53000    1.42000  # c1,c,c1,oc
dihedral_coeff	31 ebt   -0.31900    0.44110   -0.71740    1.15380    0.84090   -0.91380    1.53000    1.42000  # c1,c,c1,oh
dihedral_coeff	32 ebt    0.00000    0.00000    0.00000    0.00000    0.00000    0.00000    1.53000    1.36830  # c1,c,o_2,c_1
dihedral_coeff	33 ebt    0.24860    0.24220   -0.09250    0.08140    0.05910    0.22190    1.53000    1.10100  # c1,c1,c,hc
dihedral_coeff	34 ebt   -0.24560    1.05170   -0.77950    0.47410    1.26350    0.55760    1.53000    1.42000  # c1,c1,oc,c1
dihedral_coeff	35 ebt    0.00000    0.00000    0.00000    0.00000    0.00000    0.00000    1.53000    0.96000  # c1,c1,oh,h
dihedral_coeff	36 ebt   -0.16200    0.15640   -1.14080   -0.60540    1.33390    0.96480    1.42000    1.10100  # c1,o3e,c1,hc
dihedral_coeff	37 ebt   -0.16200    0.15640   -1.14080   -0.60540    1.33390    0.96480    1.42000    1.10100  # c1,oc,c1,hc
dihedral_coeff	38 ebt   -0.02040    0.36280   -0.44260   -0.00970   -0.03150   -0.07550    1.52020    1.10100  # c_1,c1,c,hc
dihedral_coeff	39 ebt    0.00000    0.00000    0.00000    0.00000    0.00000    0.00000    1.36830    1.10100  # c_1,o_2,c,hc
dihedral_coeff	40 ebt    0.00000    0.00000    0.00000    0.00000    0.00000    0.00000    0.96000    1.10100  # h,oh,c1,hc
dihedral_coeff	41 ebt    0.21300    0.31200    0.07770    0.21300    0.31200    0.07770    1.10100    1.10100  # hc,c,c,hc
dihedral_coeff	42 ebt    0.21300    0.31200    0.07770    0.21300    0.31200    0.07770    1.10100    1.10100  # hc,c,c1,hc
dihedral_coeff	43 ebt    0.96810    0.95510    0.04360    0.59030    0.66690    0.85840    1.10100    1.42000  # hc,c,c1,o3e
dihedral_coeff	44 ebt    0.96810    0.95510    0.04360    0.59030    0.66690    0.85840    1.10100    1.42000  # hc,c,c1,oc
dihedral_coeff	45 ebt    0.96810    0.95510    0.04360    0.59030    0.66690    0.85840    1.10100    1.42000  # hc,c,c1,oh
dihedral_coeff	46 ebt    0.00000    0.00000    0.00000    0.00000    0.00000    0.00000    1.10100    1.43000  # hc,c1,c,o_2
dihedral_coeff	47 ebt    0.21300    0.31200    0.07770    0.21300    0.31200    0.07770    1.10100    1.10100  # hc,c1,c1,hc
dihedral_coeff	48 ebt    0.96810    0.95510    0.04360    0.59030    0.66690    0.85840    1.10100    1.42000  # hc,c1,c1,o3e
dihedral_coeff	49 ebt    0.96810    0.95510    0.04360    0.59030    0.66690    0.85840    1.10100    1.42000  # hc,c1,c1,oc
dihedral_coeff	50 ebt    0.96810    0.95510    0.04360    0.59030    0.66690    0.85840    1.10100    1.42000  # hc,c1,c1,oh
dihedral_coeff	51 ebt   -0.22980    0.03540    0.38530    1.21430    0.28310    0.39160    1.10100    1.20200  # hc,c1,c_1,o_1
dihedral_coeff	52 ebt    0.00000    0.00000    0.00000    0.00000    0.00000    0.00000    1.10100    1.36830  # hc,c1,c_1,o_2
dihedral_coeff	53 ebt    1.01650    0.75530   -0.46090    1.01650    0.75530   -0.46090    1.42000    1.42000  # oc,c1,c1,oc
dihedral_coeff	54 ebt    1.01650    0.75530   -0.46090    1.01650    0.75530   -0.46090    1.42000    1.42000  # oc,c1,c1,oh

# AngleTorsion Coeffs

dihedral_coeff	 1 at    0.38860   -0.31390    0.13890    0.38860   -0.31390    0.13890  112.67000  112.67000  # c,c,c,c1
dihedral_coeff	 2 at    0.31130    0.45160   -0.19880   -0.24540    0.00000   -0.11360  112.67000  110.77000  # c,c,c,hc
dihedral_coeff	 3 at    0.38860   -0.31390    0.13890    0.38860   -0.31390    0.13890  112.67000  112.67000  # c,c,c1,c
dihedral_coeff	 4 at    0.38860   -0.31390    0.13890    0.38860   -0.31390    0.13890  112.67000  112.67000  # c,c,c1,c1
dihedral_coeff	 5 at    0.05150   -0.06740   -0.04740   -0.26070    0.32030   -0.22830  112.67000  108.52950  # c,c,c1,c_1
dihedral_coeff	 6 at    0.31130    0.45160   -0.19880   -0.24540    0.00000   -0.11360  112.67000  110.77000  # c,c,c1,hc
dihedral_coeff	 7 at    0.56230   -0.30410   -0.40150    0.96720   -0.75660   -1.23310  112.67000  111.27000  # c,c,c1,o3e
dihedral_coeff	 8 at    0.56230   -0.30410   -0.40150    0.96720   -0.75660   -1.23310  112.67000  111.27000  # c,c,c1,oc
dihedral_coeff	 9 at    0.38860   -0.31390    0.13890    0.38860   -0.31390    0.13890  112.67000  112.67000  # c,c1,c,c1
dihedral_coeff	10 at    0.31130    0.45160   -0.19880   -0.24540    0.00000   -0.11360  112.67000  110.77000  # c,c1,c,hc
dihedral_coeff	11 at    0.00000    0.00000    0.00000    0.00000    0.00000    0.00000  112.67000  107.41000  # c,c1,c,o_2
dihedral_coeff	12 at    0.38860   -0.31390    0.13890    0.38860   -0.31390    0.13890  112.67000  112.67000  # c,c1,c1,c
dihedral_coeff	13 at    0.31130    0.45160   -0.19880   -0.24540    0.00000   -0.11360  112.67000  110.77000  # c,c1,c1,hc
dihedral_coeff	14 at    0.56230   -0.30410   -0.40150    0.96720   -0.75660   -1.23310  112.67000  111.27000  # c,c1,c1,o3e
dihedral_coeff	15 at    0.56230   -0.30410   -0.40150    0.96720   -0.75660   -1.23310  112.67000  111.27000  # c,c1,c1,oc
dihedral_coeff	16 at    0.56230   -0.30410   -0.40150    0.96720   -0.75660   -1.23310  112.67000  111.27000  # c,c1,c1,oh
dihedral_coeff	17 at    0.67500    0.59650    0.67250    0.08850   -1.37030   -0.54520  108.52950  123.14510  # c,c1,c_1,o_1
dihedral_coeff	18 at    0.00000    0.00000    0.00000    0.00000    0.00000    0.00000  108.52950  100.31820  # c,c1,c_1,o_2
dihedral_coeff	19 at    0.56760    0.94500    0.07030   -2.74660    1.48770   -0.89550  111.27000  104.50000  # c,c1,o3e,c1
dihedral_coeff	20 at    0.56760    0.94500    0.07030   -2.74660    1.48770   -0.89550  111.27000  104.50000  # c,c1,oc,c1
dihedral_coeff	21 at    0.00000    0.00000    0.00000    0.00000    0.00000    0.00000  111.27000  109.00000  # c,c1,oh,h
dihedral_coeff	22 at    0.00000    0.00000    0.00000    0.00000    0.00000    0.00000  113.28800  100.31820  # c,o_2,c_1,c1
dihedral_coeff	23 at    0.00000    0.00000    0.00000    0.00000    0.00000    0.00000  113.28800  120.79700  # c,o_2,c_1,o_1
dihedral_coeff	24 at    0.38860   -0.31390    0.13890    0.38860   -0.31390    0.13890  112.67000  112.67000  # c1,c,c,c1
dihedral_coeff	25 at   -0.24540    0.00000   -0.11360    0.31130    0.45160   -0.19880  112.67000  110.77000  # c1,c,c,hc
dihedral_coeff	26 at    0.38860   -0.31390    0.13890    0.38860   -0.31390    0.13890  112.67000  112.67000  # c1,c,c1,c1
dihedral_coeff	27 at    0.05150   -0.06740   -0.04740   -0.26070    0.32030   -0.22830  112.67000  108.52950  # c1,c,c1,c_1
dihedral_coeff	28 at   -0.24540    0.00000   -0.11360    0.31130    0.45160   -0.19880  112.67000  110.77000  # c1,c,c1,hc
dihedral_coeff	29 at    0.56230   -0.30410   -0.40150    0.96720   -0.75660   -1.23310  112.67000  111.27000  # c1,c,c1,o3e
dihedral_coeff	30 at    0.56230   -0.30410   -0.40150    0.96720   -0.75660   -1.23310  112.67000  111.27000  # c1,c,c1,oc
dihedral_coeff	31 at    0.56230   -0.30410   -0.40150    0.96720   -0.75660   -1.23310  112.67000  111.27000  # c1,c,c1,oh
dihedral_coeff	32 at    0.00000    0.00000    0.00000    0.00000    0.00000    0.00000  107.41000  113.28800  # c1,c,o_2,c_1
dihedral_coeff	33 at   -0.24540    0.00000   -0.11360    0.31130    0.45160   -0.19880  112.67000  110.77000  # c1,c1,c,hc
dihedral_coeff	34 at   -2.74660    1.48770   -0.89550    0.56760    0.94500    0.07030  111.27000  104.50000  # c1,c1,oc,c1
dihedral_coeff	35 at    0.00000    0.00000    0.00000    0.00000    0.00000    0.00000  111.27000  109.00000  # c1,c1,oh,h
dihedral_coeff	36 at   -0.77770    0.43400   -0.66530   -1.82340    1.63930    0.51440  104.50000  108.72800  # c1,o3e,c1,hc
dihedral_coeff	37 at   -0.77770    0.43400   -0.66530   -1.82340    1.63930    0.51440  104.50000  108.72800  # c1,oc,c1,hc
dihedral_coeff	38 at   -0.74660   -0.94480   -0.63210    0.01620    1.42110   -1.40920  108.52950  110.77000  # c_1,c1,c,hc
dihedral_coeff	39 at    0.00000    0.00000    0.00000    0.00000    0.00000    0.00000  113.28800  107.68800  # c_1,o_2,c,hc
dihedral_coeff	40 at    0.00000    0.00000    0.00000    0.00000    0.00000    0.00000  109.00000  108.72800  # h,oh,c1,hc
dihedral_coeff	41 at   -0.80850    0.55690   -0.24660   -0.80850    0.55690   -0.24660  110.77000  110.77000  # hc,c,c,hc
dihedral_coeff	42 at   -0.80850    0.55690   -0.24660   -0.80850    0.55690   -0.24660  110.77000  110.77000  # hc,c,c1,hc
dihedral_coeff	43 at    2.36680    2.49200   -1.01220   -0.18920    0.49180    0.72730  110.77000  111.27000  # hc,c,c1,o3e
dihedral_coeff	44 at    2.36680    2.49200   -1.01220   -0.18920    0.49180    0.72730  110.77000  111.27000  # hc,c,c1,oc
dihedral_coeff	45 at    2.36680    2.49200   -1.01220   -0.18920    0.49180    0.72730  110.77000  111.27000  # hc,c,c1,oh
dihedral_coeff	46 at    0.00000    0.00000    0.00000    0.00000    0.00000    0.00000  110.77000  107.41000  # hc,c1,c,o_2
dihedral_coeff	47 at   -0.80850    0.55690   -0.24660   -0.80850    0.55690   -0.24660  110.77000  110.77000  # hc,c1,c1,hc
dihedral_coeff	48 at    2.36680    2.49200   -1.01220   -0.18920    0.49180    0.72730  110.77000  111.27000  # hc,c1,c1,o3e
dihedral_coeff	49 at    2.36680    2.49200   -1.01220   -0.18920    0.49180    0.72730  110.77000  111.27000  # hc,c1,c1,oc
dihedral_coeff	50 at    2.36680    2.49200   -1.01220   -0.18920    0.49180    0.72730  110.77000  111.27000  # hc,c1,c1,oh
dihedral_coeff	51 at   -1.49460    0.73080   -0.20830    9.12990   -0.48470    0.35820  107.73360  123.14510  # hc,c1,c_1,o_1
dihedral_coeff	52 at    0.00000    0.00000    0.00000    0.00000    0.00000    0.00000  107.73360  100.31820  # hc,c1,c_1,o_2
dihedral_coeff	53 at    0.55110    0.97370   -0.66730    0.55110    0.97370   -0.66730  111.27000  111.27000  # oc,c1,c1,oc
dihedral_coeff	54 at    0.55110    0.97370   -0.66730    0.55110    0.97370   -0.66730  111.27000  111.27000  # oc,c1,c1,oh

# AngleAngleTorsion Coeffs

dihedral_coeff	 1 aat  -22.04500  112.67000  112.67000  # c,c,c,c1
dihedral_coeff	 2 aat  -16.16400  112.67000  110.77000  # c,c,c,hc
dihedral_coeff	 3 aat  -22.04500  112.67000  112.67000  # c,c,c1,c
dihedral_coeff	 4 aat  -22.04500  112.67000  112.67000  # c,c,c1,c1
dihedral_coeff	 5 aat   -0.38010  112.67000  108.52950  # c,c,c1,c_1
dihedral_coeff	 6 aat  -16.16400  112.67000  110.77000  # c,c,c1,hc
dihedral_coeff	 7 aat  -29.04200  112.67000  111.27000  # c,c,c1,o3e
dihedral_coeff	 8 aat  -29.04200  112.67000  111.27000  # c,c,c1,oc
dihedral_coeff	 9 aat  -22.04500  112.67000  112.67000  # c,c1,c,c1
dihedral_coeff	10 aat  -16.16400  112.67000  110.77000  # c,c1,c,hc
dihedral_coeff	11 aat    0.00000  112.67000  107.41000  # c,c1,c,o_2
dihedral_coeff	12 aat  -22.04500  112.67000  112.67000  # c,c1,c1,c
dihedral_coeff	13 aat  -16.16400  112.67000  110.77000  # c,c1,c1,hc
dihedral_coeff	14 aat  -29.04200  112.67000  111.27000  # c,c1,c1,o3e
dihedral_coeff	15 aat  -29.04200  112.67000  111.27000  # c,c1,c1,oc
dihedral_coeff	16 aat  -29.04200  112.67000  111.27000  # c,c1,c1,oh
dihedral_coeff	17 aat   -8.01900  108.52950  123.14510  # c,c1,c_1,o_1
dihedral_coeff	18 aat    0.00000  108.52950  100.31820  # c,c1,c_1,o_2
dihedral_coeff	19 aat  -19.00590  111.27000  104.50000  # c,c1,o3e,c1
dihedral_coeff	20 aat  -19.00590  111.27000  104.50000  # c,c1,oc,c1
dihedral_coeff	21 aat    0.00000  111.27000  109.00000  # c,c1,oh,h
dihedral_coeff	22 aat    0.00000  113.28800  100.31820  # c,o_2,c_1,c1
dihedral_coeff	23 aat    0.00000  113.28800  120.79700  # c,o_2,c_1,o_1
dihedral_coeff	24 aat  -22.04500  112.67000  112.67000  # c1,c,c,c1
dihedral_coeff	25 aat  -16.16400  112.67000  110.77000  # c1,c,c,hc
dihedral_coeff	26 aat  -22.04500  112.67000  112.67000  # c1,c,c1,c1
dihedral_coeff	27 aat   -0.38010  112.67000  108.52950  # c1,c,c1,c_1
dihedral_coeff	28 aat  -16.16400  112.67000  110.77000  # c1,c,c1,hc
dihedral_coeff	29 aat  -29.04200  112.67000  111.27000  # c1,c,c1,o3e
dihedral_coeff	30 aat  -29.04200  112.67000  111.27000  # c1,c,c1,oc
dihedral_coeff	31 aat  -29.04200  112.67000  111.27000  # c1,c,c1,oh
dihedral_coeff	32 aat    0.00000  107.41000  113.28800  # c1,c,o_2,c_1
dihedral_coeff	33 aat  -16.16400  112.67000  110.77000  # c1,c1,c,hc
dihedral_coeff	34 aat  -19.00590  111.27000  104.50000  # c1,c1,oc,c1
dihedral_coeff	35 aat    0.00000  111.27000  109.00000  # c1,c1,oh,h
dihedral_coeff	36 aat  -16.44380  104.50000  108.72800  # c1,o3e,c1,hc
dihedral_coeff	37 aat  -16.44380  104.50000  108.72800  # c1,oc,c1,hc
dihedral_coeff	38 aat   -5.36240  108.52950  110.77000  # c_1,c1,c,hc
dihedral_coeff	39 aat    0.00000  113.28800  107.68800  # c_1,o_2,c,hc
dihedral_coeff	40 aat    0.00000  109.00000  108.72800  # h,oh,c1,hc
dihedral_coeff	41 aat  -12.56400  110.77000  110.77000  # hc,c,c,hc
dihedral_coeff	42 aat  -12.56400  110.77000  110.77000  # hc,c,c1,hc
dihedral_coeff	43 aat  -20.20060  110.77000  111.27000  # hc,c,c1,o3e
dihedral_coeff	44 aat  -20.20060  110.77000  111.27000  # hc,c,c1,oc
dihedral_coeff	45 aat  -20.20060  110.77000  111.27000  # hc,c,c1,oh
dihedral_coeff	46 aat    0.00000  110.77000  107.41000  # hc,c1,c,o_2
dihedral_coeff	47 aat  -12.56400  110.77000  110.77000  # hc,c1,c1,hc
dihedral_coeff	48 aat  -20.20060  110.77000  111.27000  # hc,c1,c1,o3e
dihedral_coeff	49 aat  -20.20060  110.77000  111.27000  # hc,c1,c1,oc
dihedral_coeff	50 aat  -20.20060  110.77000  111.27000  # hc,c1,c1,oh
dihedral_coeff	51 aat  -15.34960  107.73360  123.14510  # hc,c1,c_1,o_1
dihedral_coeff	52 aat    0.00000  107.73360  100.31820  # hc,c1,c_1,o_2
dihedral_coeff	53 aat  -14.04840  111.27000  111.27000  # oc,c1,c1,oc
dihedral_coeff	54 aat  -14.04840  111.27000  111.27000  # oc,c1,c1,oh

# BondBond13 Coeffs

dihedral_coeff	 1 bb13    0.00000    1.53000    1.53000  # c,c,c,c1
dihedral_coeff	 2 bb13    0.00000    1.53000    1.10100  # c,c,c,hc
dihedral_coeff	 3 bb13    0.00000    1.53000    1.53000  # c,c,c1,c
dihedral_coeff	 4 bb13    0.00000    1.53000    1.53000  # c,c,c1,c1
dihedral_coeff	 5 bb13    0.00000    1.53000    1.52020  # c,c,c1,c_1
dihedral_coeff	 6 bb13    0.00000    1.53000    1.10100  # c,c,c1,hc
dihedral_coeff	 7 bb13    0.00000    1.53000    1.42000  # c,c,c1,o3e
dihedral_coeff	 8 bb13    0.00000    1.53000    1.42000  # c,c,c1,oc
dihedral_coeff	 9 bb13    0.00000    1.53000    1.53000  # c,c1,c,c1
dihedral_coeff	10 bb13    0.00000    1.53000    1.10100  # c,c1,c,hc
dihedral_coeff	11 bb13    0.00000    1.53000    1.43000  # c,c1,c,o_2
dihedral_coeff	12 bb13    0.00000    1.53000    1.53000  # c,c1,c1,c
dihedral_coeff	13 bb13    0.00000    1.53000    1.10100  # c,c1,c1,hc
dihedral_coeff	14 bb13    0.00000    1.53000    1.42000  # c,c1,c1,o3e
dihedral_coeff	15 bb13    0.00000    1.53000    1.42000  # c,c1,c1,oc
dihedral_coeff	16 bb13    0.00000    1.53000    1.42000  # c,c1,c1,oh
dihedral_coeff	17 bb13    0.00000    1.53000    1.20200  # c,c1,c_1,o_1
dihedral_coeff	18 bb13    0.00000    1.53000    1.36830  # c,c1,c_1,o_2
dihedral_coeff	19 bb13    0.00000    1.53000    1.42000  # c,c1,o3e,c1
dihedral_coeff	20 bb13    0.00000    1.53000    1.42000  # c,c1,oc,c1
dihedral_coeff	21 bb13    0.00000    1.53000    0.96000  # c,c1,oh,h
dihedral_coeff	22 bb13    0.00000    1.43000    1.52020  # c,o_2,c_1,c1
dihedral_coeff	23 bb13    0.00000    1.43000    1.20200  # c,o_2,c_1,o_1
dihedral_coeff	24 bb13    0.00000    1.53000    1.53000  # c1,c,c,c1
dihedral_coeff	25 bb13    0.00000    1.53000    1.10100  # c1,c,c,hc
dihedral_coeff	26 bb13    0.00000    1.53000    1.53000  # c1,c,c1,c1
dihedral_coeff	27 bb13    0.00000    1.53000    1.52020  # c1,c,c1,c_1
dihedral_coeff	28 bb13    0.00000    1.53000    1.10100  # c1,c,c1,hc
dihedral_coeff	29 bb13    0.00000    1.53000    1.42000  # c1,c,c1,o3e
dihedral_coeff	30 bb13    0.00000    1.53000    1.42000  # c1,c,c1,oc
dihedral_coeff	31 bb13    0.00000    1.53000    1.42000  # c1,c,c1,oh
dihedral_coeff	32 bb13    0.00000    1.53000    1.36830  # c1,c,o_2,c_1
dihedral_coeff	33 bb13    0.00000    1.53000    1.10100  # c1,c1,c,hc
dihedral_coeff	34 bb13    0.00000    1.53000    1.42000  # c1,c1,oc,c1
dihedral_coeff	35 bb13    0.00000    1.53000    0.96000  # c1,c1,oh,h
dihedral_coeff	36 bb13    0.00000    1.42000    1.10100  # c1,o3e,c1,hc
dihedral_coeff	37 bb13    0.00000    1.42000    1.10100  # c1,oc,c1,hc
dihedral_coeff	38 bb13    0.00000    1.52020    1.10100  # c_1,c1,c,hc
dihedral_coeff	39 bb13    0.00000    1.36830    1.10100  # c_1,o_2,c,hc
dihedral_coeff	40 bb13    0.00000    0.96000    1.10100  # h,oh,c1,hc
dihedral_coeff	41 bb13    0.00000    1.10100    1.10100  # hc,c,c,hc
dihedral_coeff	42 bb13    0.00000    1.10100    1.10100  # hc,c,c1,hc
dihedral_coeff	43 bb13    0.00000    1.10100    1.42000  # hc,c,c1,o3e
dihedral_coeff	44 bb13    0.00000    1.10100    1.42000  # hc,c,c1,oc
dihedral_coeff	45 bb13    0.00000    1.10100    1.42000  # hc,c,c1,oh
dihedral_coeff	46 bb13    0.00000    1.10100    1.43000  # hc,c1,c,o_2
dihedral_coeff	47 bb13    0.00000    1.10100    1.10100  # hc,c1,c1,hc
dihedral_coeff	48 bb13    0.00000    1.10100    1.42000  # hc,c1,c1,o3e
dihedral_coeff	49 bb13    0.00000    1.10100    1.42000  # hc,c1,c1,oc
dihedral_coeff	50 bb13    0.00000    1.10100    1.42000  # hc,c1,c1,oh
dihedral_coeff	51 bb13    0.00000    1.10100    1.20200  # hc,c1,c_1,o_1
dihedral_coeff	52 bb13    0.00000    1.10100    1.36830  # hc,c1,c_1,o_2
dihedral_coeff	53 bb13    0.00000    1.42000    1.42000  # oc,c1,c1,oc
dihedral_coeff	54 bb13    0.00000    1.42000    1.42000  # oc,c1,c1,oh

# Improper Coeffs

improper_coeff	 1    0.00000    0.00000  # c,c,c,hc
improper_coeff	 2    0.00000    0.00000  # c,c,c1,hc
improper_coeff	 3    0.00000    0.00000  # c,c,hc,c1
improper_coeff	 4    0.00000    0.00000  # c,c,hc,hc
improper_coeff	 5    0.00000    0.00000  # c,c1,c1,hc
improper_coeff	 6    0.00000    0.00000  # c,c1,hc,hc
improper_coeff	 7    0.00000    0.00000  # c,c1,hc,o_2
improper_coeff	 8    0.00000    0.00000  # c,c1,o_2,hc
improper_coeff	 9    0.00000    0.00000  # c,hc,hc,o_2
improper_coeff	10    0.00000    0.00000  # c1,c,c,c
improper_coeff	11    0.00000    0.00000  # c1,c,c,c_1
improper_coeff	12    0.00000    0.00000  # c1,c,c,hc
improper_coeff	13    0.00000    0.00000  # c1,c,c,oc
improper_coeff	14    0.00000    0.00000  # c1,c,c1,hc
improper_coeff	15    0.00000    0.00000  # c1,c,c1,o3e
improper_coeff	16    0.00000    0.00000  # c1,c,c1,oc
improper_coeff	17    0.00000    0.00000  # c1,c,c1,oh
improper_coeff	18    0.00000    0.00000  # c1,c,c_1,hc
improper_coeff	19    0.00000    0.00000  # c1,c,hc,c1
improper_coeff	20    0.00000    0.00000  # c1,c,hc,c_1
improper_coeff	21    0.00000    0.00000  # c1,c,hc,o3e
improper_coeff	22    0.00000    0.00000  # c1,c,hc,oc
improper_coeff	23    0.00000    0.00000  # c1,c,hc,oh
improper_coeff	24    0.00000    0.00000  # c1,c,o3e,hc
improper_coeff	25    0.00000    0.00000  # c1,c,oc,c1
improper_coeff	26    0.00000    0.00000  # c1,c,oc,hc
improper_coeff	27    0.00000    0.00000  # c1,c1,hc,oc
improper_coeff	28    0.00000    0.00000  # c1,c1,o3e,hc
improper_coeff	29    0.00000    0.00000  # c1,c1,oc,hc
improper_coeff	30    0.00000    0.00000  # c1,c1,oh,hc
improper_coeff	31   46.92640    0.00000  # c_1,c1,o_1,o_2
improper_coeff	32   46.92640    0.00000  # c_1,c1,o_2,o_1

# AngleAngle Coeffs

improper_coeff	 1 aa    0.00000    0.00000    0.11840  112.67000  110.77000  110.77000  # c,c,c,hc
improper_coeff	 2 aa    0.00000   -1.31990    0.00000  112.67000  110.77000  110.77000  # c,c,c1,hc
improper_coeff	 3 aa    0.00000   -1.31990    0.00000  110.77000  112.67000  110.77000  # c,c,hc,c1
improper_coeff	 4 aa    0.00000   -0.48250    0.00000  110.77000  110.77000  107.66000  # c,c,hc,hc
improper_coeff	 5 aa   -1.31990   -1.31990    0.11840  112.67000  110.77000  110.77000  # c,c1,c1,hc
improper_coeff	 6 aa    0.27380   -0.48250    0.27380  110.77000  110.77000  107.66000  # c,c1,hc,hc
improper_coeff	 7 aa    0.00000    0.00000    0.00000  110.77000  107.41000  107.68800  # c,c1,hc,o_2
improper_coeff	 8 aa    0.00000    0.00000    0.00000  107.41000  110.77000  107.68800  # c,c1,o_2,hc
improper_coeff	 9 aa    0.00000    0.00000    0.00000  107.66000  107.68800  107.68800  # c,hc,hc,o_2
improper_coeff	10 aa   -0.17290   -0.17290   -0.17290  112.67000  112.67000  112.67000  # c1,c,c,c
improper_coeff	11 aa    0.00000    0.00000    0.00000  112.67000  108.52950  108.52950  # c1,c,c,c_1
improper_coeff	12 aa    0.00000    0.00000    0.11840  112.67000  110.77000  110.77000  # c1,c,c,hc
improper_coeff	13 aa   -0.83300   -0.83300   -3.57440  112.67000  111.27000  111.27000  # c1,c,c,oc
improper_coeff	14 aa    0.00000   -1.31990    0.00000  112.67000  110.77000  110.77000  # c1,c,c1,hc
improper_coeff	15 aa   -0.83300   -0.83300    0.00000  112.67000  111.27000  111.27000  # c1,c,c1,o3e
improper_coeff	16 aa   -0.83300   -0.83300    0.00000  112.67000  111.27000  111.27000  # c1,c,c1,oc
improper_coeff	17 aa   -0.83300   -0.83300    0.00000  112.67000  111.27000  111.27000  # c1,c,c1,oh
improper_coeff	18 aa    0.00000   -1.82020    0.00000  108.52950  110.77000  107.73360  # c1,c,c_1,hc
improper_coeff	19 aa    0.00000   -1.31990    0.00000  110.77000  112.67000  110.77000  # c1,c,hc,c1
improper_coeff	20 aa    0.00000   -1.82020    0.00000  110.77000  108.52950  107.73360  # c1,c,hc,c_1
improper_coeff	21 aa    3.91770    2.59260    0.00000  110.77000  111.27000  108.72800  # c1,c,hc,o3e
improper_coeff	22 aa    3.91770    2.59260    0.00000  110.77000  111.27000  108.72800  # c1,c,hc,oc
improper_coeff	23 aa    3.91770    2.59260    0.00000  110.77000  111.27000  108.72800  # c1,c,hc,oh
improper_coeff	24 aa    0.00000    2.59260    3.91770  111.27000  110.77000  108.72800  # c1,c,o3e,hc
improper_coeff	25 aa    0.00000   -0.83300   -0.83300  111.27000  112.67000  111.27000  # c1,c,oc,c1
improper_coeff	26 aa    0.00000    2.59260    3.91770  111.27000  110.77000  108.72800  # c1,c,oc,hc
improper_coeff	27 aa    3.91770    2.59260    0.16890  110.77000  111.27000  108.72800  # c1,c1,hc,oc
improper_coeff	28 aa    0.16890    2.59260    3.91770  111.27000  110.77000  108.72800  # c1,c1,o3e,hc
improper_coeff	29 aa    0.16890    2.59260    3.91770  111.27000  110.77000  108.72800  # c1,c1,oc,hc
improper_coeff	30 aa    0.16890    2.59260    3.91770  111.27000  110.77000  108.72800  # c1,c1,oh,hc
improper_coeff	31 aa    0.00000    0.00000    0.00000  123.14510  100.31820  120.79700  # c_1,c1,o_1,o_2
improper_coeff	32 aa    0.00000    0.00000    0.00000  100.31820  123.14510  120.79700  # c_1,c1,o_2,o_1

# ------------------------------- OPT Section -------------------------------
minimize 1.0e-5 1.0e-7 100000 400000
PPPM initialization ...
  using 12-bit tables for long-range coulomb (../kspace.cpp:342)
  G vector (1/distance) = 0.15373212
  grid = 6 6 6
  stencil order = 5
  estimated absolute RMS force accuracy = 0.28183109
  estimated relative force accuracy = 0.00084872597
  using double precision KISS FFT
  3d grid and FFT values/proc = 392 12
Generated 45 of 45 mixed pair_coeff terms from sixthpower/sixthpower mixing rule
Neighbor list info ...
  update: every = 1 steps, delay = 0 steps, check = yes
  max neighbors/atom: 2000, page size: 100000
  master list distance cutoff = 12
  ghost atom cutoff = 12
  binsize = 6, bins = 7 7 7
  1 neighbor lists, perpetual/occasional/extra = 1 0 0
  (1) pair lj/class2/coul/long, perpetual
      attributes: half, newton on
      pair build: half/bin/newton
      stencil: half/bin/3d
      bin: standard
WARNING: Inconsistent image flags (../domain.cpp:815)
  PPPM/cg optimization cutoff: 1e-05
  Total charged atoms: 100.0%
  Min/max charged atoms/proc: 100.0% 100.0%
Per MPI rank memory allocation (min/avg/max) = 17.25 | 17.26 | 17.26 Mbytes
   Step          Temp          E_pair         E_mol          TotEng         Press     
         0   616.26499      756.38559      17921.839      27773.058     -2047.3911    
       102   616.26499      101.93085      9788.1817      18984.945      4342.4579    
Loop time of 1.18088 on 24 procs for 102 steps with 4952 atoms

99.4% CPU use with 24 MPI tasks x no OpenMP threads

Minimization stats:
  Stopping criterion = linesearch alpha is zero
  Energy initial, next-to-last, final = 
      18678.2248350219   9890.11251552066   9890.11251552066
  Force two-norm initial, final = 3443.9772 88.876979
  Force max component initial, final = 184.19764 36.648585
  Final line search alpha, max atom move = 7.5498432e-13 2.7669107e-11
  Iterations, force evaluations = 102 266

MPI task timing breakdown:
Section |  min time  |  avg time  |  max time  |%varavg| %total
---------------------------------------------------------------
Pair    | 0.58034    | 0.67865    | 0.8479     |   8.0 | 57.47
Bond    | 0.169      | 0.20367    | 0.23853    |   3.9 | 17.25
Kspace  | 0.058211   | 0.26214    | 0.38043    |  15.6 | 22.20
Neigh   | 0.0029513  | 0.002954   | 0.0029579  |   0.0 |  0.25
Comm    | 0.02595    | 0.026829   | 0.028132   |   0.4 |  2.27
Output  | 0          | 0          | 0          |   0.0 |  0.00
Modify  | 0          | 0          | 0          |   0.0 |  0.00
Other   |            | 0.006634   |            |       |  0.56

Nlocal:        206.333 ave         233 max         179 min
Histogram: 2 3 1 1 1 6 4 4 1 1
Nghost:        4635.04 ave        4731 max        4536 min
Histogram: 1 2 3 2 3 3 5 2 1 2
Neighs:        69156.7 ave       87772 max       58128 min
Histogram: 1 4 6 5 2 2 1 1 1 1

Total # of neighbors = 1659761
Ave neighs/atom = 335.16983
Ave special neighs/atom = 6.4321486
Neighbor list builds = 1
Dangerous builds = 0
# ------------------------------- Run Section -------------------------------
#

timestep 0.25
neighbor        2.0 bin
neigh_modify    delay 0 every 1 check yes

thermo_style custom step temp pe evdwl ecoul ebond eangle edihed eimp density vol
thermo 20000

variable        Rho equal density
variable        Temp equal temp
variable        Volume equal vol
fix             fDENS all ave/time 100 100 300000 v_Temp v_Rho v_Volume file temp_vs_density.txt
fix def1 all print 100 "${Temp} ${Rho} ${Volume} " file press.dat screen no

label           loop
variable        a loop 26
variable        b equal 600-20*($a-1)
variable        b equal 600-20*(1-1)
fix             fMOM all momentum 100 linear 1 1 1 angular
fix             fNPT all npt temp $b $b $(100.0*dt) iso 1 1 $(100.0*dt)
fix             fNPT all npt temp 600 $b $(100.0*dt) iso 1 1 $(100.0*dt)
fix             fNPT all npt temp 600 600 $(100.0*dt) iso 1 1 $(100.0*dt)
fix             fNPT all npt temp 600 600 25 iso 1 1 $(100.0*dt)
fix             fNPT all npt temp 600 600 25 iso 1 1 25
run             1200000
PPPM initialization ...
  using 12-bit tables for long-range coulomb (../kspace.cpp:342)
  G vector (1/distance) = 0.15373212
  grid = 6 6 6
  stencil order = 5
  estimated absolute RMS force accuracy = 0.28183109
  estimated relative force accuracy = 0.00084872597
  using double precision KISS FFT
  3d grid and FFT values/proc = 392 12
Generated 45 of 45 mixed pair_coeff terms from sixthpower/sixthpower mixing rule
WARNING: Inconsistent image flags (../domain.cpp:815)
Per MPI rank memory allocation (min/avg/max) = 16.13 | 16.13 | 16.14 Mbytes
   Step          Temp          PotEng         E_vdwl         E_coul         E_bond        E_angle        E_dihed        E_impro        Density         Volume    
       102   616.26499      9890.1125     -1274.8662      6091.733       405.75797      13724.835     -4300.5815     -41.830077      1.0196413      53437.349    
     20000   596.62152      18524.733     -521.81285      6117.4133      3785.1844      17666.07      -3847.8292      38.765884      0.9987544      54554.883    
     40000   600.12749      18700.453     -514.4483       6132.0793      3836.5856      17822.304     -3889.8998      28.321021      1.014778       53693.447    
     60000   601.46085      18651.69      -644.16305      6113.2484      3937.134       17799.925     -3881.831       38.033325      1.016026       53627.496    
     80000   607.08772      18687.406     -616.05012      6124.0815      3848.4143      17871.704     -3863.6303      37.336805      1.0271432      53047.06     
    100000   609.08767      18842.444     -431.23145      6144.7072      3926.3635      17861.969     -3977.1892      30.722785      1.0038447      54278.247    
    120000   602.89471      18592.828     -553.31433      6108.8426      3964.7572      17630.324     -3880.5275      35.299822      1.0191828      53461.39     
    140000   600.70654      18746.05      -532.94254      6118.8045      3923.6739      17785.246     -3868.3789      30.787387      1.016578       53598.375    
    160000   603.26441      18821.781     -523.36038      6113.5593      3868.9893      17918.455     -3871.8472      27.658541      1.0033263      54306.288    
    180000   601.05098      18504.227     -727.24501      6114.1731      3798.3116      17828.91      -3835.6546      40.107546      1.0285687      52973.545    
    200000   588.89248      18732.016     -551.41483      6084.8487      3917.9572      17796.398     -3836.151       33.793806      1.0241941      53199.806    
    220000   595.89656      18409.143     -634.14685      6077.7062      3884.8898      17606.999     -3848.8568      33.056132      1.0199656      53420.362    
    240000   610.40455      18660.671     -545.76505      6117.9948      3794.4102      17876.263     -3890.7795      22.007733      1.0240709      53206.209    
    260000   605.18015      18702.153     -593.46152      6108.7555      3886.8611      17806.462     -3826.6438      32.507158      1.0209115      53370.865    
    280000   594.25669      18534.693     -603.84024      6102.136       3696.664       17838.837     -3819.6165      31.080032      1.0243014      53194.234    
    300000   588.6183       18666.553     -648.07474      6107.8202      3893.9785      17879.558     -3898.9393      45.079249      1.0413717      52322.267    
    320000   597.12012      18729.938     -587.92321      6088.6304      3950.9176      17824.449     -3878.9508      41.424302      1.0248242      53167.096    
    340000   606.86473      18690.553     -593.33061      6089.762       3835.3095      17869.089     -3837.3211      38.999556      1.0132893      53772.33     
    360000   590.13071      18730.551     -542.0263       6095.2582      3987.7869      17666.105     -3790.8493      23.843135      1.0183467      53505.285    
    380000   608.22812      18757.686     -629.3584       6101.1636      3907.7833      17934.486     -3879.567       33.20994       1.0158585      53636.335    
    400000   608.91654      18595.951     -645.63406      6119.2991      3789.7812      17866.353     -3847.1974      23.406522      1.0305309      52872.676    
    420000   610.98007      18654.441     -608.84909      6093.8087      3939.411       17776.763     -3865.8385      30.389477      1.0234631      53237.803    
    440000   594.12899      18652.95      -588.91987      6119.9132      3879.7778      17817.024     -3901.0673      40.061782      1.0223738      53294.53     
    460000   599.33986      18423.183     -713.86912      6103.1206      3873.7809      17708.8       -3878.1326      42.282439      1.0349157      52648.662    
    480000   595.13338      18532.844     -600.07022      6105.5198      3900.518       17698.389     -3897.7073      39.615476      1.0059199      54166.272    
    500000   605.40204      18490.978     -628.80698      6106.0939      3835.219       17705.214     -3841.7414      27.82474       1.0232636      53248.187    
    520000   598.8692       18629.811     -586.75876      6096.3179      3885.3802      17814.361     -3895.9245      27.154032      1.0325265      52770.49     
    540000   595.67668      18763.22      -591.54217      6117.7029      3961.9217      17837.652     -3876.0297      24.718602      1.0170987      53570.937    
    560000   590.48664      18730         -554.14729      6095.6097      3892.6063      17855.158     -3871.4812      23.877682      1.0275815      53024.438    
    580000   602.15195      18653.887     -647.54906      6128.3319      3904.644       17774.647     -3812.2803      19.092547      1.0304282      52877.948    
    600000   601.09332      18749.631     -605.25346      6115.8787      3989.6272      17756.987     -3823.6584      31.215632      1.0231739      53252.851    
    620000   599.19875      18479.133     -607.67068      6111.1928      3828.419       17672.549     -3840.5572      28.586551      1.030268       52886.172    
    640000   617.27807      18380.544     -743.2098       6103.73        3804.0456      17819.027     -3923.8595      35.391519      1.03757        52513.978    
    660000   601.48913      18648.869     -626.39821      6091.5224      3891.4478      17916.267     -3936.6841      25.809322      1.0159026      53634.007    
    680000   597.07925      18636.783     -598.51747      6095.3668      3872.3896      17782.752     -3844.0372      41.493453      1.0212138      53355.064    
    700000   599.69555      18669.806     -615.55168      6103.1268      3911.2329      17854.827     -3916.3324      43.93555       1.022497       53288.106    
    720000   606.8493       18567.209     -597.18751      6101.9848      3843.1086      17794.598     -3895.1493      32.13589       1.0338032      52705.32     
    740000   591.60413      18502.046     -654.08668      6140.1247      3908.6956      17703.696     -3903.2418      19.290813      1.0279248      53006.726    
    760000   598.73761      18767.098     -620.88072      6112.9414      3915.4177      17906.532     -3866.2215      33.835927      1.0346569      52661.831    
    780000   601.55355      18437.611     -669.88232      6124.0429      3923.6775      17654.457     -3908.7968      27.94314       1.0180986      53518.324    
    800000   600.8349       18555.11      -598.78688      6095.0191      3810.1457      17810.484     -3888.2052      40.573154      1.0450809      52136.565    
    820000   598.08923      18556.219     -599.46937      6104.6575      3948.0179      17629.812     -3841.0486      28.961987      1.0174474      53552.575    
    840000   590.63213      18705.409     -551.52947      6099.3534      3935.8624      17779.761     -3880.3011      38.092379      1.03271        52761.114    
    860000   593.89533      18681.202     -557.73694      6112.3379      3939.3175      17664.93      -3799.3634      36.26516       1.0191297      53464.174    
    880000   600.79645      18511.688     -613.46467      6102.7322      3836.3378      17760.095     -3884.576       24.135274      1.0339648      52697.084    
    900000   595.2175       18520.627     -666.8259       6105.4616      3905.8123      17761.871     -3899.583       27.423005      1.0357776      52604.853    
    920000   602.88701      18733.594     -582.83455      6111.2451      3962.9534      17776.42      -3856.6143      35.607289      1.0187245      53485.441    
    940000   599.85184      18689.393     -672.17975      6098.9889      4072.2324      17774.822     -3904.0614      30.979465      1.0391673      52433.258    
    960000   610.92642      18486.057     -606.07297      6120.7914      3790.2429      17796.434     -3926.1254      23.671268      1.024212       53198.878    
    980000   601.86159      18609.518     -678.57493      6087.2536      4033.1819      17697.281     -3862.1094      43.410065      1.0413504      52323.338    
   1000000   599.97719      18587.221     -580.30615      6080.5457      3848.2903      17717.87      -3779.1766      11.962806      1.0328296      52755.004    
   1020000   601.10871      18692.501     -623.81749      6110.1318      3977.1963      17768.788     -3870.2522      43.274596      1.0302225      52888.504    
   1040000   599.07585      18463.438     -619.79543      6108.4416      3749.0051      17785.827     -3868.7106      21.097873      1.0354749      52620.23     
   1060000   590.61246      18642.511     -638.17024      6112.2374      3858.5242      17787.258     -3807.0103      43.818547      1.0381672      52483.768    
   1080000   593.69951      18564.309     -694.27079      6085.8441      3907.1158      17811.723     -3863.1699      30.763098      1.038127       52485.801    
   1100000   605.81607      18493.516     -596.999        6103.4902      3763.108       17762.296     -3852.935       29.756926      1.0391244      52435.426    
   1120000   599.00241      18428.599     -668.39084      6105.4646      3883.6051      17658.463     -3866.5245      25.903299      1.0343958      52675.127    
   1140000   590.69378      18620.937     -652.26683      6078.9519      3959.6375      17692.978     -3782.0229      36.529313      1.0284245      52980.971    
   1160000   598.98763      18372.383     -634.33025      6103.6909      3857.0484      17603.895     -3873.8949      27.969048      1.0260162      53105.333    
   1180000   600.83864      18639.239     -542.85069      6130.3588      3927.8313      17646.662     -3848.899       40.80053       1.0209242      53370.2      
   1200000   593.02008      18662.875     -621.38856      6105.5146      3866.3229      17804.116     -3815.9861      37.548432      1.0336058      52715.385    
   1200102   610.95044      18509.645     -658.81863      6112.1106      3851.9677      17686.791     -3819.2752      49.267339      1.0344057      52674.624    
Loop time of 4174.68 on 24 procs for 1200000 steps with 4952 atoms

Performance: 6.209 ns/day, 3.865 hours/ns, 287.447 timesteps/s, 1.423 Matom-step/s
99.5% CPU use with 24 MPI tasks x no OpenMP threads

MPI task timing breakdown:
Section |  min time  |  avg time  |  max time  |%varavg| %total
---------------------------------------------------------------
Pair    | 1769       | 2103.7     | 2529.6     | 368.9 | 50.39
Bond    | 697.21     | 807.41     | 933.34     | 193.8 | 19.34
Kspace  | 492.47     | 1043.5     | 1480       | 660.6 | 25.00
Neigh   | 46.575     | 46.615     | 46.65      |   0.3 |  1.12
Comm    | 120.86     | 123.36     | 126.33     |  12.6 |  2.96
Output  | 0.0034144  | 0.00404    | 0.017881   |   4.5 |  0.00
Modify  | 31.87      | 36.206     | 39.007     |  38.0 |  0.87
Other   |            | 13.79      |            |       |  0.33

Nlocal:        206.333 ave         230 max         175 min
Histogram: 1 0 4 2 3 1 5 2 4 2
Nghost:         4698.5 ave        4770 max        4625 min
Histogram: 2 0 1 3 7 4 3 1 0 3
Neighs:        70333.3 ave       80930 max       57584 min
Histogram: 1 4 0 1 3 4 2 5 2 2

Total # of neighbors = 1688000
Ave neighs/atom = 340.87237
Ave special neighs/atom = 6.4321486
Neighbor list builds = 15684
Dangerous builds = 0
unfix           fNPT
unfix           fMOM
next            a
jump            SELF loop
variable        a loop 26
variable        b equal 600-20*($a-1)
variable        b equal 600-20*(2-1)
fix             fMOM all momentum 100 linear 1 1 1 angular
fix             fNPT all npt temp $b $b $(100.0*dt) iso 1 1 $(100.0*dt)
fix             fNPT all npt temp 580 $b $(100.0*dt) iso 1 1 $(100.0*dt)
fix             fNPT all npt temp 580 580 $(100.0*dt) iso 1 1 $(100.0*dt)
fix             fNPT all npt temp 580 580 25 iso 1 1 $(100.0*dt)
fix             fNPT all npt temp 580 580 25 iso 1 1 25
run             1200000
PPPM initialization ...
  using 12-bit tables for long-range coulomb (../kspace.cpp:342)
  G vector (1/distance) = 0.15418422
  grid = 6 6 6
  stencil order = 5
  estimated absolute RMS force accuracy = 0.27993989
  estimated relative force accuracy = 0.00084303067
  using double precision KISS FFT
  3d grid and FFT values/proc = 392 12
Generated 45 of 45 mixed pair_coeff terms from sixthpower/sixthpower mixing rule
WARNING: Inconsistent image flags (../domain.cpp:815)
Per MPI rank memory allocation (min/avg/max) = 16.13 | 16.13 | 16.14 Mbytes
   Step          Temp          PotEng         E_vdwl         E_coul         E_bond        E_angle        E_dihed        E_impro        Density         Volume    
   1200102   610.95044      18509.592     -658.81863      6125.8614      3851.9677      17686.791     -3819.2752      49.267339      1.0344057      52674.624    
   1220000   584.71962      18331.576     -603.68515      6106.6574      3808.0987      17608.676     -3886.0044      25.903851      1.0442236      52179.368    
   1240000   576.18567      18314.104     -705.0027       6119.3934      3815.9684      17617.619     -3840.2248      35.139535      1.050468       51869.193    
   1260000   577.89819      18241.754     -640.49373      6140.0897      3734.6699      17592.537     -3901.3962      43.814978      1.027879       53009.087    
   1280000   588.86777      18358.58      -616.98611      6119.9215      3698.316       17765.818     -3906.0779      25.450297      1.0435393      52213.585    
   1300000   573.34874      18219.691     -603.77753      6138.1918      3734.2485      17582.083     -3924.9883      21.283619      1.0231323      53255.02     
   1320000   590.21036      18307.054     -596.17132      6126.5435      3702.9448      17754.148     -3962.9951      9.680032       1.0317475      52810.334    
   1340000   583.92241      18134.621     -664.86771      6109.9609      3660.6533      17600.225     -3873.0476      25.403547      1.0445643      52162.349    
   1360000   576.42277      18154.25      -686.42704      6113.8885      3669.8894      17596.695     -3831.2646      18.288576      1.0405987      52361.137    
   1380000   584.18376      18368.998     -637.59529      6100.1206      3761.9336      17680.178     -3834.7596      25.921148      1.0307264      52862.652    
   1400000   593.79902      18147.443     -675.07382      6096.8373      3719.8443      17535.626     -3825.4564      24.802965      1.0426958      52255.826    
   1420000   595.48441      18308.208     -650.67709      6141.8749      3823.0127      17695.869     -4002.0808      25.771509      1.0387365      52455.004    
   1440000   577.64717      18265.471     -614.38955      6107.1049      3657.0033      17700.97      -3879.7738      23.184416      1.032527       52770.463    
   1460000   574.196        18370.09      -531.87946      6139.1692      3827.2074      17601.663     -3964.8229      26.374354      1.0213157      53349.743    
   1480000   582.82943      18329.778     -718.34628      6118.4759      3806.925       17651.112     -3832.333       30.548189      1.0394515      52418.926    
   1500000   583.23637      18234.911     -629.97133      6115.1518      3661.1208      17653.053     -3855.8916      17.367524      1.0225378      53285.979    
   1520000   584.32012      18344.664     -644.17841      6112.7816      3837.8843      17614.659     -3879.0031      29.521814      1.0334305      52724.328    
   1540000   563.91684      18444.476     -655.52676      6108.7425      3717.1599      17840.708     -3885.8454      43.890044      1.0422244      52279.459    
   1560000   579.24656      18230.94      -630.24496      6106.5299      3791.3958      17554.89      -3894.2677      26.44786       1.0189016      53476.146    
   1580000   572.23319      18160.762     -571.21637      6101.6752      3630.2987      17617.668     -3901.8964      10.769623      1.0430267      52239.247    
   1600000   586.70375      18182.547     -649.43992      6120.603       3731.0157      17554.435     -3860.6639      15.848716      1.0274548      53030.972    
   1620000   577.07097      18237.911     -552.31981      6108.7301      3720.4825      17577.97      -3917.7723      25.072564      1.0271917      53044.558    
   1640000   578.92428      18478.18      -533.66604      6133.0834      3755.6156      17731.981     -3911.8878      30.796074      1.0171081      53570.443    
   1660000   588.46868      18386.014     -579.21433      6119.2307      3736.1351      17632.253     -3848.0655      51.917628      1.0333911      52726.338    
   1680000   575.27907      18306.712     -649.04761      6109.6596      3743.8413      17712.868     -3900.4732      15.495711      1.0272867      53039.654    
   1700000   591.46142      18038.695     -619.97847      6117.1401      3612.3087      17607.994     -3972.0165      20.235939      1.0383042      52476.848    
   1720000   578.22577      18201.509     -599.13981      6117.6818      3697.832       17650.11      -3962.6068      25.604455      1.0282011      52992.484    
   1740000   577.50346      18273.351     -717.14757      6123.8927      3803.8291      17654.843     -3887.4915      21.223572      1.0382479      52479.693    
   1760000   578.19173      18260.006     -684.27399      6109.0964      3719.3749      17801.994     -3986.2105      29.206563      1.0322552      52784.361    
   1780000   574.8323       18325.83      -618.30526      6113.2649      3704.9172      17713.812     -3890.5021      30.852708      1.0308195      52857.873    
   1800000   578.32967      18231.281     -628.64057      6122.2982      3632.6339      17650.498     -3835.8509      16.057033      1.0295723      52921.909    
   1820000   576.30141      18164.267     -594.06157      6126.7673      3766.3799      17586.88      -4027.9459      34.638461      1.0415205      52314.795    
   1840000   580.51544      18183.419     -639.36206      6114.8273      3730.6694      17550.383     -3866.9856      23.921483      1.0291002      52946.184    
   1860000   589.93292      18248.061     -619.75866      6106.9033      3777.021       17594.914     -3904.4142      23.566663      1.0281236      52996.478    
   1880000   577.71067      18408.991     -735.22819      6117.7333      3797.9371      17803.567     -3868.0712      21.043444      1.0452438      52128.44     
   1900000   575.06277      18240.7       -695.97426      6118.8336      3695.6883      17748.915     -3924.7843      26.212593      1.04275        52253.109    
   1920000   575.62728      18383.5       -659.09026      6104.3756      3837.3845      17797.693     -3986.8016      16.908382      1.0403387      52374.22     
   1940000   592.23691      18009.33      -720.4581       6088.3502      3788.104       17498.954     -3952.3803      35.800381      1.0378666      52498.972    
   1960000   571.09174      18474.295     -731.98671      6125.3264      3912.5996      17727.44      -3884.5679      53.60031       1.0322147      52786.429    
   1980000   588.3138       18067.26      -683.58032      6121.2363      3710.6657      17571.112     -3944.1696      20.356721      1.040247       52378.84     
   2000000   584.50061      18392.358     -656.0729       6096.6551      3801.1035      17667.53      -3803.4883      13.800948      1.0400383      52389.35     
   2020000   584.72719      18198.221     -673.51172      6118.9986      3735.2956      17540.518     -3821.7645      24.369354      1.0499063      51896.947    
   2040000   584.54263      18174.116     -711.3342       6117.9353      3669.6071      17674.076     -3873.5761      21.892822      1.0392559      52428.787    
   2060000   597.47946      18118.207     -735.83972      6104.954       3827.032       17535.151     -3896.0848      8.5777977      1.0407185      52355.105    
   2080000   580.48964      18229.957     -695.94802      6125.0928      3772.2129      17568.548     -3850.8047      36.799884      1.0325724      52768.145    
   2100000   572.60141      18249.15      -646.72213      6111.4947      3723.9065      17656.317     -3894.7221      26.070516      1.0379553      52494.487    
   2120000   579.94819      18197.814     -661.41347      6134.6652      3675.4434      17732.289     -3986.4314      30.143589      1.0389806      52442.681    
   2140000   573.0627       18134.593     -687.52318      6111.1755      3636.2931      17659.265     -3884.7757      24.454216      1.0388882      52447.347    
   2160000   578.97681      18271.643     -704.48398      6139.4112      3795.0767      17577.352     -3840.6663      32.779828      1.040262       52378.085    
   2180000   584.79902      18432.71      -697.3408       6149.9237      3945.8879      17628.178     -3911.064       43.29274       1.0350134      52643.696    
   2200000   572.96623      18022.509     -717.10102      6117.1108      3719.6263      17566.047     -3961.0128      25.574317      1.0497584      51904.257    
   2220000   580.64947      18102.982     -686.97469      6134.3409      3627.887       17660.212     -3916.1785      10.780663      1.0385633      52463.756    
   2240000   578.27291      18251.526     -720.18195      6138.7605      3821.6833      17580.256     -3886.7675      47.228546      1.0505237      51866.442    
   2260000   579.51356      18361.712     -699.94795      6113.0297      3783.3561      17804.381     -3957.5779      44.932259      1.0367447      52555.784    
   2280000   575.49253      18406.481     -671.7968       6097.6228      3865.7156      17704.67      -3878.5356      15.558649      1.0261831      53096.691    
   2300000   584.58393      18247.516     -671.5492       6139.5416      3698.1691      17584.963     -3792.8017      14.570995      1.0412522      52328.272    
   2320000   582.83294      18369.729     -562.48858      6100.854       3750.1062      17608.745     -3828.3883      25.403742      1.0396698      52407.919    
   2340000   567.64634      18184.105     -661.72201      6125.5029      3590.9964      17716.933     -3894.8499      34.22321       1.0416775      52306.906    
   2360000   581.56087      18263.98      -667.24422      6145.1796      3744.8851      17679.338     -3938.3238      24.126072      1.0302465      52887.277    
   2380000   575.08529      18250.154     -660.06905      6142.2427      3869.5023      17486.935     -3887.2105      26.441336      1.0371841      52533.516    
   2400000   567.37719      18243.326     -643.58049      6117.5017      3752.7104      17487.775     -3774.9715      32.18786       1.0376769      52508.571    
   2400102   577.64216      18373.518     -644.09288      6102.2896      3825.3145      17598.738     -3832.9925      51.299686      1.0423811      52271.603    
Loop time of 4176.55 on 24 procs for 1200000 steps with 4952 atoms

Performance: 6.206 ns/day, 3.867 hours/ns, 287.318 timesteps/s, 1.423 Matom-step/s
99.5% CPU use with 24 MPI tasks x no OpenMP threads

MPI task timing breakdown:
Section |  min time  |  avg time  |  max time  |%varavg| %total
---------------------------------------------------------------
Pair    | 1774       | 2136.8     | 2526.9     | 374.6 | 51.16
Bond    | 694.46     | 805.55     | 931.45     | 190.4 | 19.29
Kspace  | 501.33     | 1016.9     | 1491.5     | 675.6 | 24.35
Neigh   | 44.136     | 44.176     | 44.213     |   0.3 |  1.06
Comm    | 121.2      | 123.12     | 124.69     |   8.1 |  2.95
Output  | 0.0054787  | 0.0057862  | 0.012375   |   1.8 |  0.00
Modify  | 31.74      | 36.137     | 38.729     |  38.4 |  0.87
Other   |            | 13.88      |            |       |  0.33

Nlocal:        206.333 ave         236 max         170 min
Histogram: 2 0 2 3 1 5 3 4 3 1
Nghost:        4675.46 ave        4728 max        4616 min
Histogram: 4 1 1 0 4 5 1 2 2 4
Neighs:        70475.4 ave       84374 max       53518 min
Histogram: 1 2 1 1 2 6 6 3 1 1

Total # of neighbors = 1691409
Ave neighs/atom = 341.56078
Ave special neighs/atom = 6.4321486
Neighbor list builds = 15045
Dangerous builds = 0
unfix           fNPT
unfix           fMOM
next            a
jump            SELF loop
variable        a loop 26
variable        b equal 600-20*($a-1)
variable        b equal 600-20*(3-1)
fix             fMOM all momentum 100 linear 1 1 1 angular
fix             fNPT all npt temp $b $b $(100.0*dt) iso 1 1 $(100.0*dt)
fix             fNPT all npt temp 560 $b $(100.0*dt) iso 1 1 $(100.0*dt)
fix             fNPT all npt temp 560 560 $(100.0*dt) iso 1 1 $(100.0*dt)
fix             fNPT all npt temp 560 560 25 iso 1 1 $(100.0*dt)
fix             fNPT all npt temp 560 560 25 iso 1 1 25
run             1200000
PPPM initialization ...
  using 12-bit tables for long-range coulomb (../kspace.cpp:342)
  G vector (1/distance) = 0.1544259
  grid = 6 6 6
  stencil order = 5
  estimated absolute RMS force accuracy = 0.27892884
  estimated relative force accuracy = 0.00083998593
  using double precision KISS FFT
  3d grid and FFT values/proc = 392 12
Generated 45 of 45 mixed pair_coeff terms from sixthpower/sixthpower mixing rule
WARNING: Inconsistent image flags (../domain.cpp:815)
Per MPI rank memory allocation (min/avg/max) = 16.13 | 16.13 | 16.14 Mbytes
   Step          Temp          PotEng         E_vdwl         E_coul         E_bond        E_angle        E_dihed        E_impro        Density         Volume    
   2400102   577.64216      18373.443     -644.09288      6109.599       3825.3145      17598.738     -3832.9925      51.299686      1.0423811      52271.603    
   2420000   557.13481      17972.216     -728.90454      6130.4265      3677.8297      17498.299     -3894.2231      23.169584      1.0248101      53167.829    
   2440000   554.49571      17950.5       -688.82332      6119.5244      3727.7052      17428.04      -3945.9557      45.373386      1.0367398      52556.029    
   2460000   561.11445      18013.563     -694.19288      6132.5166      3716.959       17482.699     -3919.6464      33.265063      1.0337913      52705.928    
   2480000   560.08286      17997.324     -723.1803       6112.9671      3665.8866      17575.031     -3918.3814      21.97223       1.0451569      52132.776    
   2500000   566.9132       17905.203     -708.51611      6126.6637      3643.2711      17508.148     -3948.628       18.411378      1.0437371      52203.689    
   2520000   545.29959      17897.142     -697.36371      6149.2112      3592.1869      17506.313     -3953.6256      34.778095      1.0472049      52030.821    
   2540000   559.34423      17831.393     -749.53727      6129.8846      3630.996       17509.429     -3973.1225      16.887345      1.0519415      51796.541    
   2560000   562.6892       17943.409     -786.66555      6136.6646      3700.5357      17474.523     -3891.9981      41.41979       1.0477767      52002.427    
   2580000   564.72232      17951.475     -728.33086      6113.5226      3721.1958      17511.78      -3965.8013      35.270523      1.0490304      51940.275    
   2600000   553.097        17875.141     -717.56601      6136.2163      3648.1643      17373.983     -3849.3757      16.407342      1.0367059      52557.748    
   2620000   545.25737      17921.838     -666.45334      6121.2124      3594.3182      17542.286     -3966.4086      31.451742      1.0502379      51880.558    
   2640000   558.02159      17926.057     -806.2666       6130.8168      3633.1662      17572.838     -3901.9693      31.840102      1.050108       51886.978    
   2660000   566.75723      18092.52      -726.13163      6126.5256      3633.788       17583.688     -3808.2367      16.412191      1.0450658      52137.319    
   2680000   564.97534      17900.628     -729.37057      6121.486       3612.4011      17467.681     -3868.788       29.077982      1.0468776      52047.087    
   2700000   571.52573      17838.661     -667.57726      6130.0284      3522.3218      17462.678     -3893.4802      19.190944      1.0402095      52380.727    
   2720000   552.82531      17914.833     -659.59999      6133.1751      3618.4169      17429.344     -3892.3854      18.34843       1.0456206      52109.657    
   2740000   555.33436      17888.217     -684.2581       6126.6937      3594.5399      17429.795     -3902.1023      55.921441      1.0485562      51963.768    
   2760000   573.8297       18069.337     -680.20486      6137.1198      3696.1606      17562.668     -3937.6146      23.780235      1.0322101      52786.667    
   2780000   566.60346      17957.397     -712.60733      6122.0765      3587.1833      17618.427     -3949.0862      27.501064      1.0421751      52281.931    
   2800000   554.79609      18068.424     -684.04778      6138.2803      3622.2237      17540.234     -3840.1874      27.354683      1.0395786      52412.516    
   2820000   557.62251      18101.21      -688.9459       6105.2502      3707.3891      17636.962     -3958.1103      32.58764       1.027449       53031.276    
   2840000   553.98474      17845.333     -600.95094      6108.8853      3555.226       17425.578     -3943.1329      33.773131      1.0319801      52798.428    
   2860000   554.05529      17993.114     -566.82206      6126.4207      3668.4657      17459.529     -3980.0913      18.51842       1.0341608      52687.096    
   2880000   558.4642       17962.147     -662.86743      6110.2017      3647.2301      17484.033     -3909.8096      26.012652      1.0369661      52544.561    
   2900000   553.62777      17874.417     -631.33304      6103.669       3680.8523      17348.211     -3913.9478      21.129171      1.0351956      52634.429    
   2920000   555.43516      18003.138     -666.6036       6126.4926      3683.1214      17419.564     -3836.0939      8.9783271      1.0453543      52122.931    
   2940000   573.81182      18084.932     -726.83312      6098.2516      3800.1906      17551.108     -3923.0112      20.000675      1.0344029      52674.762    
   2960000   548.62466      17772.002     -640.79741      6114.6499      3473.5939      17402.469     -3883.6403      40.808597      1.0366482      52560.674    
   2980000   562.73653      18010.863     -683.3066       6113.0533      3689.7784      17469.133     -3872.4739      28.796556      1.0343952      52675.159    
   3000000   568.69349      17890.886     -743.49181      6119.2157      3576.0158      17555.326     -3908.8979      28.140852      1.0434797      52216.571    
   3020000   557.60204      18090.886     -621.20396      6128.8839      3666.8281      17505.14      -3883.7204      27.935404      1.0472829      52026.943    
   3040000   559.79991      17900.838     -713.14694      6123.4546      3577.5364      17503.411     -3867.5814      11.574768      1.033117       52740.33     
   3060000   563.88917      17842.002     -712.14243      6117.8526      3628.5953      17361.895     -3832.6747      13.655928      1.0445875      52161.193    
   3080000   553.57258      18084.17      -762.6558       6107.764       3700.4638      17563.341     -3804.5715      13.711278      1.0466762      52057.103    
   3100000   556.96406      17960.308     -725.14701      6114.8502      3627.0777      17566.105     -3909.2662      25.184317      1.0435503      52213.037    
   3120000   565.50365      18008.332     -693.81587      6113.5662      3673.484       17615.18      -3982.091       17.333389      1.0369793      52543.894    
   3140000   557.23606      18228.647     -669.83864      6121.3271      3765.4959      17573.712     -3870.0762      43.75065       1.0276556      53020.611    
   3160000   549.1925       17968.704     -705.71628      6097.618       3720.3593      17426.681     -3863.9464      30.145009      1.0326562      52763.863    
   3180000   567.17077      18153.066     -657.01558      6118.8534      3669.6267      17624.663     -3883.1491      12.566004      1.0369458      52545.592    
   3200000   557.733        17917.692     -784.03185      6137.6848      3715.5875      17511.342     -3947.06        17.382657      1.051795       51803.753    
   3220000   561.59737      17856.242     -716.85517      6140.8568      3636.8296      17451.219     -3948.8888      27.446514      1.0398831      52397.166    
   3240000   549.86773      17975.942     -654.03773      6097.9955      3647.6932      17534.673     -3929.3525      12.622694      1.037735       52505.631    
   3260000   556.65089      18044.709     -663.77988      6145.5379      3779.7549      17455.958     -3957.1059      16.808922      1.0350979      52639.399    
   3280000   569.03774      18015.298     -698.00032      6122.3239      3679.8778      17557.553     -3939.6094      26.571456      1.0367055      52557.768    
   3300000   554.45017      18002.409     -622.5731       6114.4867      3642.3154      17434.84      -3858.373       26.404239      1.0249717      53159.449    
   3320000   548.64585      18151.913     -630.30343      6137.6225      3611.6827      17654.138     -3913.4939      27.448206      1.0305412      52872.153    
   3340000   558.63782      17978.739     -717.56221      6131.2619      3637.2404      17492.358     -3859.5372      29.51217       1.0485865      51962.266    
   3360000   556.80212      17930.598     -728.65549      6128.4172      3647.0183      17463.262     -3870.5481      26.656464      1.0436534      52207.878    
   3380000   562.91368      18078.001     -617.5384       6120.9433      3664.3089      17517.712     -3887.0138      15.288127      1.0346927      52660.011    
   3400000   567.53996      18081.562     -736.21489      6146.0444      3744.7681      17483.979     -3846.2534      25.000682      1.0442229      52179.403    
   3420000   553.16913      17939.457     -670.51713      6132.104       3588.8372      17516.74      -3934.788       40.529881      1.0456619      52107.595    
   3440000   565.24105      17975.202     -738.40207      6115.2463      3596.6276      17589.606     -3878.8886      27.484008      1.0446848      52156.332    
   3460000   565.7837       17890.692     -706.08169      6106.2558      3639.0356      17452.808     -3884.4626      19.158326      1.0311286      52842.03     
   3480000   559.87449      17747.554     -743.76141      6111.6321      3664.8921      17316.597     -3899.4584      32.751411      1.0490401      51939.799    
   3500000   553.58622      17987.792     -663.2141       6112.4561      3736.0303      17500.789     -3995.9832      32.879537      1.0291537      52943.435    
   3520000   553.55577      18070.19      -701.2668       6130.821       3723.6232      17446.308     -3821.0952      25.928662      1.027702       53018.218    
   3540000   559.36463      17953.392     -709.12213      6115.085       3641.4944      17531         -3918.8744      30.539875      1.0351309      52637.721    
   3560000   571.34862      17836.767     -672.78321      6125.4287      3503.245       17468.44      -3881.6429      29.568463      1.030262       52886.481    
   3580000   563.48373      17962.273     -730.49375      6120.5544      3725.5607      17479.677     -3906.6152      9.7166821      1.0344817      52670.754    
   3600000   559.6868       17711.374     -774.23051      6082.7268      3604.9312      17385.888     -3888.8957      35.850614      1.0455118      52115.079    
   3600102   550.57626      17928.809     -699.5062       6098.6312      3619.8726      17492.858     -3874.1873      26.993127      1.0553413      51629.677    
Loop time of 4065.8 on 24 procs for 1200000 steps with 4952 atoms

Performance: 6.375 ns/day, 3.765 hours/ns, 295.145 timesteps/s, 1.462 Matom-step/s
99.5% CPU use with 24 MPI tasks x no OpenMP threads

MPI task timing breakdown:
Section |  min time  |  avg time  |  max time  |%varavg| %total
---------------------------------------------------------------
Pair    | 1816.1     | 2131.9     | 2445.8     | 331.7 | 52.44
Bond    | 705.79     | 804.62     | 886.94     | 181.0 | 19.79
Kspace  | 518.24     | 913.38     | 1303.6     | 622.3 | 22.46
Neigh   | 42.217     | 42.246     | 42.294     |   0.3 |  1.04
Comm    | 121.74     | 123.56     | 125.53     |   8.2 |  3.04
Output  | 0.0074222  | 0.0077477  | 0.014561   |   1.6 |  0.00
Modify  | 31.607     | 36.143     | 38.834     |  38.3 |  0.89
Other   |            | 13.92      |            |       |  0.34

Nlocal:        206.333 ave         228 max         176 min
Histogram: 1 0 1 4 3 3 4 4 1 3
Nghost:        4741.04 ave        4808 max        4684 min
Histogram: 2 1 3 3 3 5 5 1 0 1
Neighs:        71504.6 ave       83922 max       60900 min
Histogram: 2 3 2 2 3 4 5 1 1 1

Total # of neighbors = 1716110
Ave neighs/atom = 346.54887
Ave special neighs/atom = 6.4321486
Neighbor list builds = 14683
Dangerous builds = 0
unfix           fNPT
unfix           fMOM
next            a
jump            SELF loop
variable        a loop 26
variable        b equal 600-20*($a-1)
variable        b equal 600-20*(4-1)
fix             fMOM all momentum 100 linear 1 1 1 angular
fix             fNPT all npt temp $b $b $(100.0*dt) iso 1 1 $(100.0*dt)
fix             fNPT all npt temp 540 $b $(100.0*dt) iso 1 1 $(100.0*dt)
fix             fNPT all npt temp 540 540 $(100.0*dt) iso 1 1 $(100.0*dt)
fix             fNPT all npt temp 540 540 25 iso 1 1 $(100.0*dt)
fix             fNPT all npt temp 540 540 25 iso 1 1 25
run             1200000
PPPM initialization ...
  using 12-bit tables for long-range coulomb (../kspace.cpp:342)
  G vector (1/distance) = 0.15481491
  grid = 6 6 6
  stencil order = 5
  estimated absolute RMS force accuracy = 0.27730141
  estimated relative force accuracy = 0.00083508495
  using double precision KISS FFT
  3d grid and FFT values/proc = 392 12
Generated 45 of 45 mixed pair_coeff terms from sixthpower/sixthpower mixing rule
WARNING: Inconsistent image flags (../domain.cpp:815)
Per MPI rank memory allocation (min/avg/max) = 16.13 | 16.13 | 16.14 Mbytes
   Step          Temp          PotEng         E_vdwl         E_coul         E_bond        E_angle        E_dihed        E_impro        Density         Volume    
   3600102   550.57626      17928.866     -699.5062       6110.5737      3619.8726      17492.858     -3874.1873      26.993127      1.0553413      51629.677    
   3620000   530.6734       17709.328     -672.83816      6128.0672      3361.0823      17430.95      -3811.7969      23.329453      1.0438437      52198.362    
   3640000   541.02123      17627.545     -763.9352       6146.5014      3549.8595      17274.561     -3863.0902      30.850219      1.0603829      51384.202    
   3660000   538.1189       17686.423     -757.23375      6127.4861      3592.6798      17339.804     -3903.5429      33.666839      1.0532294      51733.202    
   3680000   551.79216      17555.689     -727.08113      6122.6047      3546.6564      17253.782     -3925.2389      32.220154      1.0437662      52202.234    
   3700000   545.73788      17606.437     -817.88786      6139.1272      3496.5399      17405.136     -3897.4405      23.540628      1.0615547      51327.481    
   3720000   533.83835      17288.921     -805.55559      6140.5774      3338.8409      17253.457     -3939.0516      48.44613       1.0546196      51665.008    
   3740000   539.70767      17711.058     -752.6171       6130.3622      3563.7923      17467.928     -3964.8661      11.485777      1.0527366      51757.421    
   3760000   539.27028      17672.761     -717.47142      6108.3989      3443.8245      17427.56      -3870.4798      27.853629      1.0407398      52354.038    
   3780000   533.84842      17535.688     -778.1765       6141.0713      3590.8144      17272.685     -3967.628       23.909592      1.0403388      52374.216    
   3800000   525.72223      17774.091     -749.35645      6123.4679      3598.6236      17383.66      -3879.4841      44.744962      1.0574224      51528.064    
   3820000   545.55035      17640.857     -687.35713      6139.2202      3550.135       17274.495     -3905.6472      17.736209      1.0460387      52088.829    
   3840000   528.62794      17755.013     -696.22739      6110.5798      3663.3629      17208.514     -3838.9522      55.159473      1.041771       52302.213    
   3860000   525.7244       17680.71      -732.75257      6145.7331      3496.7839      17403.206     -3901.1584      17.047341      1.0544465      51673.488    
   3880000   541.36093      17662.75      -723.39396      6137.6775      3609.5099      17280.756     -3914.036       19.448961      1.0477364      52004.425    
   3900000   534.22649      17596.992     -716.80038      6131.9387      3573.8461      17239.878     -3918.6439      32.139664      1.0550802      51642.455    
   3920000   540.03701      17562.547     -770.3581       6100.7195      3438.165       17474.133     -3966.2039      32.634174      1.0476911      52006.676    
   3940000   537.24994      17611.61      -704.08471      6120.9356      3534.9485      17279.076     -3875.8952      5.2370792      1.0364691      52569.757    
   3960000   539.30706      17809.237     -631.02698      6113.3226      3502.2676      17393.071     -3839.5951      20.973527      1.0326485      52764.258    
   3980000   527.37005      17550.503     -670.88015      6127.1728      3513.6061      17283.436     -3991.5         36.331864      1.0526194      51763.182    
   4000000   541.87554      17688.598     -745.81048      6160.913       3546.0805      17342.944     -3894.4824      27.610187      1.0490132      51941.128    
   4020000   539.44596      17792.968     -772.27353      6132.9153      3613.3378      17435.291     -3896.4115      27.814957      1.0467262      52054.615    
   4040000   548.36231      17672.931     -732.75186      6130.6259      3486.9595      17417.481     -3915.3857      31.359878      1.0585762      51471.903    
   4060000   532.64503      17677.079     -710.48992      6114.7654      3550.2195      17348.218     -3908.0645      28.721511      1.0481025      51986.261    
   4080000   536.07029      17728.731     -788.57543      6141.7698      3609.1004      17379.437     -3888.0786      24.15011       1.0503283      51876.094    
   4100000   540.78826      17387.053     -777.99761      6115.1118      3366.0074      17283.994     -3889.7524      36.389758      1.0478331      51999.627    
   4120000   549.33901      17843.397     -812.97543      6123.1349      3619.3531      17530.332     -3876.8212      7.3754927      1.0499723      51893.684    
   4140000   531.73336      17533.064     -696.21328      6098.118       3451.2375      17282.927     -3874.5225      19.778721      1.0380047      52491.989    
   4160000   539.60257      17629.696     -760.44343      6119.9626      3471.08        17378.76      -3863.4572      31.23679       1.0505372      51865.776    
   4180000   534.08121      17792.581     -759.68529      6154.8874      3625.01        17365.897     -3858.0926      9.3390893      1.0491857      51932.587    
   4200000   528.70238      17866.256     -638.99277      6107.8615      3632.4449      17405.981     -3925.5756      32.650614      1.0542263      51684.282    
   4220000   539.15845      17652.445     -765.80997      6117.5463      3650.5864      17311.338     -3933.0439      18.498424      1.0575214      51523.241    
   4240000   532.80923      17562.435     -822.37225      6149.0256      3540.0483      17364.737     -3939.0623      16.183609      1.04992        51896.267    
   4260000   532.38996      17575.582     -782.17501      6125.062       3551.3129      17357.395     -3952.6402      21.165791      1.050782       51853.694    
   4280000   534.05564      17615.004     -779.88491      6119.7257      3577.26        17310.695     -3894.9388      30.584291      1.0434015      52220.482    
   4300000   541.35428      17614.002     -719.39183      6111.9651      3597.0208      17301.941     -3932.9063      3.5899786      1.0511189      51837.076    
   4320000   540.26036      17621.18      -667.31973      6116.1202      3416.4726      17323.711     -3844.2923      23.40656       1.0330827      52742.081    
   4340000   548.88151      17636.556     -636.41824      6132.9519      3450.8462      17355.234     -3939.6501      19.667228      1.0361383      52586.539    
   4360000   535.78512      17636.175     -703.24381      6157.3418      3571.4529      17257.936     -3922.4219      19.64605       1.0431198      52234.583    
   4380000   538.58305      17553.292     -687.11588      6120.2284      3425.8053      17365.382     -3948.7036      20.721721      1.0430017      52240.5      
   4400000   545.09308      17610.801     -789.68934      6123.6012      3555.6098      17399.234     -3951.7872      22.958143      1.0621997      51296.314    
   4420000   540.5699       17569.234     -756.10184      6132.5248      3534.7838      17373.736     -3994.05        23.251886      1.0478833      51997.137    
   4440000   537.48204      17599.971     -757.50639      6138.0874      3556.4737      17313.148     -3925.7685      21.188263      1.0446694      52157.103    
   4460000   533.09086      17696.656     -711.11177      6144.1251      3606.4173      17303.103     -3923.1057      23.923486      1.0442201      52179.544    
   4480000   546.34167      17790.822     -735.51353      6134.8045      3628.6093      17370.237     -3876.3344      15.98802       1.0478374      51999.411    
   4500000   547.63827      17807.004     -738.9461       6150.3156      3646.7528      17343.177     -3869.5254      22.557831      1.040735       52354.278    
   4520000   539.67405      17683.673     -780.79149      6125.8465      3584.7599      17289.695     -3811.4072      22.4681        1.0592303      51440.117    
   4540000   541.84232      17653.14      -752.23336      6161.0977      3581.9203      17350.032     -3953.1276      12.76274       1.0522128      51783.185    
   4560000   538.12381      17557.874     -780.5942       6122.9084      3549.8761      17354.851     -3949.2278      8.8912764      1.0555524      51619.353    
   4580000   548.00345      17612.222     -687.04793      6118.6195      3453.8032      17372.111     -3936.4359      36.824399      1.0461577      52082.9      
   4600000   543.10663      17639.36      -775.21508      6127.7183      3524.2289      17413.926     -3943.2064      39.720213      1.0449778      52141.708    
   4620000   534.11558      17543.354     -794.59657      6142.4168      3511.4652      17373.116     -3957.2712      13.716017      1.0456203      52109.673    
   4640000   532.54942      17684.107     -750.40914      6125.1164      3486.5986      17547.936     -4006.0457      29.8316        1.0564062      51577.633    
   4660000   534.96232      17638.836     -753.84218      6151.3261      3569.7374      17213.211     -3812.8785      19.295471      1.0502486      51880.028    
   4680000   530.42299      17606.7       -774.7628       6125.1888      3532.1618      17436.813     -3980.1294      15.971764      1.0390932      52437        
   4700000   546.17785      17586.807     -686.11335      6148.4479      3411.6507      17420.253     -3973.5929      11.767572      1.0517422      51806.355    
   4720000   545.7598       17709.197     -669.03014      6120.6772      3540.3421      17326.657     -3866.8405      6.7981439      1.0391729      52432.976    
   4740000   532.31515      17630.635     -750.58063      6154.3568      3525.1884      17311.422     -3900.1379      39.517117      1.0380225      52491.087    
   4760000   549.99898      17750.818     -752.87849      6132.1053      3567.8826      17483.482     -3953.3091      21.214874      1.0323272      52780.676    
   4780000   529.45732      17556.026     -706.02186      6110.0584      3457.2476      17405.646     -3986.6592      21.970818      1.0522125      51783.199    
   4800000   534.40854      17576.331     -661.47551      6127.7362      3436.8715      17335.287     -3940.8939      27.403392      1.0339031      52700.228    
   4800102   536.6963       17573.339     -683.74454      6101.7784      3469.6085      17266.46      -3866.6331      34.347691      1.0373833      52523.429    
Loop time of 4110.18 on 24 procs for 1200000 steps with 4952 atoms

Performance: 6.306 ns/day, 3.806 hours/ns, 291.958 timesteps/s, 1.446 Matom-step/s
99.5% CPU use with 24 MPI tasks x no OpenMP threads

MPI task timing breakdown:
Section |  min time  |  avg time  |  max time  |%varavg| %total
---------------------------------------------------------------
Pair    | 1868.8     | 2150.3     | 2499.7     | 325.8 | 52.32
Bond    | 727.71     | 804.81     | 888.78     | 167.2 | 19.58
Kspace  | 503.92     | 936.86     | 1291.9     | 591.6 | 22.79
Neigh   | 42.557     | 42.612     | 42.661     |   0.5 |  1.04
Comm    | 123.35     | 124.72     | 126.56     |   7.7 |  3.03
Output  | 0.0036946  | 0.0040145  | 0.010855   |   2.3 |  0.00
Modify  | 32.375     | 36.989     | 39.371     |  38.9 |  0.90
Other   |            | 13.92      |            |       |  0.34

Nlocal:        206.333 ave         237 max         176 min
Histogram: 3 1 1 1 5 4 6 1 0 2
Nghost:        4680.17 ave        4739 max        4641 min
Histogram: 2 4 5 3 3 2 0 3 0 2
Neighs:        70329.7 ave       87512 max       55258 min
Histogram: 2 0 2 3 7 4 4 1 0 1

Total # of neighbors = 1687913
Ave neighs/atom = 340.85481
Ave special neighs/atom = 6.4321486
Neighbor list builds = 14724
Dangerous builds = 0
unfix           fNPT
unfix           fMOM
next            a
jump            SELF loop
variable        a loop 26
variable        b equal 600-20*($a-1)
variable        b equal 600-20*(5-1)
fix             fMOM all momentum 100 linear 1 1 1 angular
fix             fNPT all npt temp $b $b $(100.0*dt) iso 1 1 $(100.0*dt)
fix             fNPT all npt temp 520 $b $(100.0*dt) iso 1 1 $(100.0*dt)
fix             fNPT all npt temp 520 520 $(100.0*dt) iso 1 1 $(100.0*dt)
fix             fNPT all npt temp 520 520 25 iso 1 1 $(100.0*dt)
fix             fNPT all npt temp 520 520 25 iso 1 1 25
run             1200000
PPPM initialization ...
  using 12-bit tables for long-range coulomb (../kspace.cpp:342)
  G vector (1/distance) = 0.15427466
  grid = 6 6 6
  stencil order = 5
  estimated absolute RMS force accuracy = 0.27956155
  estimated relative force accuracy = 0.00084189131
  using double precision KISS FFT
  3d grid and FFT values/proc = 392 12
Generated 45 of 45 mixed pair_coeff terms from sixthpower/sixthpower mixing rule
WARNING: Inconsistent image flags (../domain.cpp:815)
Per MPI rank memory allocation (min/avg/max) = 16.13 | 16.13 | 16.14 Mbytes
   Step          Temp          PotEng         E_vdwl         E_coul         E_bond        E_angle        E_dihed        E_impro        Density         Volume    
   4800102   536.6963       17573.387     -683.74454      6085.3064      3469.6085      17266.46      -3866.6331      34.347691      1.0373833      52523.429    
   4820000   522.40104      17234.413     -737.24425      6130.4912      3384.9593      17140.428     -3974.2889      23.193797      1.0412715      52327.305    
   4840000   533.49742      17269.149     -773.30328      6086.4124      3321.0636      17333.638     -3986.7482      17.919537      1.0452131      52129.97     
   4860000   517.42975      17314.901     -756.68358      6117.3509      3471.8401      17112.734     -3913.3722      15.309197      1.0392533      52428.923    
   4880000   513.79881      17256.174     -650.06209      6094.8119      3346.6275      17091.048     -3925.9532      32.672838      1.0338575      52702.552    
   4900000   519.88015      17370.509     -698.67504      6104.4252      3385.4443      17226.737     -3943.3876      24.943774      1.0387517      52454.238    
   4920000   523.20058      17247.187     -725.2504       6104.8812      3337.9938      17161.241     -3931.6529      29.111487      1.0477292      52004.781    
   4940000   509.38445      17250.811     -763.51913      6118.4893      3425.1627      17122.984     -3926.2815      6.4529365      1.0544137      51675.097    
   4960000   521.42697      17321.119     -699.89747      6110.327       3356.8306      17256.588     -3986.6411      17.112982      1.0528418      51752.247    
   4980000   515.26081      17209.892     -854.21063      6091.9706      3368.9373      17168.286     -3852.12        18.218772      1.0658478      51120.741    
   5000000   510.75269      17489.4       -710.23014      6093.3627      3526.3985      17241.847     -3952.3513      21.609196      1.035179       52635.271    
   5020000   512.0357       17330.842     -802.6983       6113.626       3489.6147      17142.861     -3907.2077      27.773296      1.0495555      51914.289    
   5040000   523.80342      17275.672     -751.10928      6101.8573      3384.3795      17165.383     -3910.8866      18.639743      1.0512611      51830.066    
   5060000   527.31554      17316.659     -781.16638      6100.0448      3455.9191      17129.958     -3875.9225      21.434629      1.0510884      51838.579    
   5080000   519.79773      17221.301     -766.08254      6117.4385      3295.6903      17224.3       -3943.3596      24.459398      1.0465831      52061.73     
   5100000   502.69813      17265.495     -785.75997      6116.0429      3378.0522      17177.238     -3906.2048      18.832745      1.0568978      51553.641    
   5120000   526.12371      17341.307     -764.19881      6093.5217      3391.2945      17255.134     -3941.0628      35.882265      1.0594689      51428.532    
   5140000   510.73042      17204.832     -849.71069      6084.9604      3367.2039      17250.978     -3930.4454      12.412432      1.0579989      51499.989    
   5160000   510.03422      17333.382     -829.97711      6110.5678      3473.604       17225.943     -3948.0494      31.219123      1.0667431      51077.837    
   5180000   514.3768       17337.614     -765.23759      6104.2039      3356.8602      17355.123     -3991.818       11.363691      1.0627609      51269.226    
   5200000   516.0238       17169.45      -775.50539      6096.2025      3401.888       17098.359     -3946.9257      26.302443      1.0610141      51353.633    
   5220000   511.71794      17422.937     -753.49646      6084.4495      3485.4748      17223.523     -3914.1395      29.104918      1.052135       51787.012    
   5240000   519.27495      17340.647     -832.18387      6121.649       3432.001       17254.209     -3912.2721      5.7151054      1.0629614      51259.557    
   5260000   522.7003       17413.747     -723.69281      6125.5519      3506.1845      17202.3       -3981.1924      17.349357      1.0471834      52031.886    
   5280000   520.45188      17301.441     -733.77717      6103.753       3354.9362      17243.897     -3950.8637      17.171101      1.0485274      51965.193    
   5300000   519.28059      17356.751     -805.52482      6078.2859      3482.1354      17219.249     -3910.1525      24.274655      1.0511188      51837.08     
   5320000   511.09987      17302.708     -794.22653      6105.0833      3427.2719      17224.14      -3965.4726      36.656505      1.0543422      51678.599    
   5340000   531.98775      17237.492     -849.30722      6093.7248      3365.9578      17249.552     -3907.1896      15.460665      1.0543776      51676.866    
   5360000   522.41209      17099.937     -820.26333      6142.1764      3417.1362      16995.669     -3925.627       21.706702      1.0523381      51777.019    
   5380000   516.86415      17328.672     -787.75749      6099.0143      3325.2292      17291.064     -3883.9433      17.935982      1.0536838      51710.894    
   5400000   508.56789      17101.028     -764.77472      6106.2995      3274.0983      17076.26      -3890.2395      31.201355      1.0603416      51386.202    
   5420000   517.35906      16991.283     -878.42042      6105.5692      3323.0577      17117.893     -3964.7106      16.551067      1.0654114      51141.679    
   5440000   518.12725      17272.702     -758.32585      6107.0971      3437.1237      17163.371     -3973.0698      27.061353      1.0442275      52179.175    
   5460000   525.86838      17321.2       -806.86529      6104.799       3393.4226      17219.561     -3889.4052      30.513867      1.0701394      50915.729    
   5480000   524.40395      17210.807     -871.33991      6111.1368      3390.6943      17253.303     -3958.2743      16.26992       1.0651066      51156.314    
   5500000   526.70271      17229.538     -784.23747      6125.1709      3305.0777      17223.767     -3929.7637      18.191185      1.0632312      51246.549    
   5520000   515.77604      17237.613     -747.14131      6127.1205      3400.259       17115.561     -3939.6977      11.118857      1.0471911      52031.506    
   5540000   523.39758      17248.796     -811.24846      6105.5396      3427.4684      17181.833     -3947.4384      22.254822      1.0502828      51878.343    
   5560000   527.30192      17198.309     -768.91364      6083.0728      3355.4758      17209.453     -3956.0538      8.3850904      1.065177       51152.934    
   5580000   527.49989      17197.948     -891.45922      6113.4407      3384.8641      17270.61      -3971.3349      23.154365      1.0681929      51008.512    
   5600000   521.81233      17402.995     -764.78951      6101.776       3460.9369      17297.32      -3977.7096      15.789291      1.0511163      51837.203    
   5620000   517.50519      17311.225     -786.19529      6084.7007      3390.4602      17259.811     -3924.1195      18.188037      1.0621212      51300.106    
   5640000   512.73833      17269.649     -786.43892      6113.3195      3281.5009      17239.25      -3861.4542      11.995524      1.0590398      51449.369    
   5660000   511.69205      17179.807     -800.99249      6120.8209      3241.9911      17230.644     -3920.4548      35.922128      1.0547413      51659.047    
   5680000   530.05158      17431.884     -844.62417      6110.7563      3491.8356      17346.915     -3969.1512      26.081357      1.0572714      51535.426    
   5700000   514.07884      17338.118     -795.38597      6127.4088      3451.4592      17240.007     -3970.2547      15.336918      1.0481565      51983.581    
   5720000   512.59004      17287.368     -763.93423      6122.6701      3391.1578      17157.228     -3925.8374      35.923827      1.0503339      51875.818    
   5740000   521.07654      17188.8       -807.33104      6128.3602      3301.0663      17196.549     -3927.6803      28.095977      1.0584229      51479.358    
   5760000   518.74002      17451.7       -688.09461      6107.803       3390.6446      17278.78      -3929.752       23.241388      1.0382975      52477.182    
   5780000   525.83417      17421.269     -861.41644      6116.0129      3421.0591      17375.164     -3933.708       33.217398      1.0582215      51489.153    
   5800000   526.77812      17185.595     -808.1856       6106.607       3341.8921      17224.425     -3952.2046      2.774057       1.0543001      51680.662    
   5820000   506.49997      17325.576     -758.71955      6116.6734      3402.989       17200.208     -3934.2304      28.543536      1.0509861      51843.627    
   5840000   531.9366       17463.549     -727.68087      6110.0533      3395.6947      17336.617     -3936.0747      14.148615      1.0512735      51829.453    
   5860000   524.86458      17282.626     -755.57883      6118.4496      3342.7189      17258.368     -3979.0076      24.148547      1.0593016      51436.655    
   5880000   514.51834      17276.202     -776.33929      6118.557       3426.8813      17172.833     -3954.3037      17.588551      1.0536422      51712.932    
   5900000   524.12638      17443.072     -708.08475      6113.9329      3415.7755      17280.771     -3942.9124      13.181548      1.0443846      52171.327    
   5920000   507.93303      17172.348     -801.09858      6121.7968      3403.0408      17112.144     -3953.8943      19.441658      1.0523757      51775.167    
   5940000   524.38978      17288.009     -828.76054      6136.0618      3417.6755      17215.058     -3953.0545      31.426476      1.0555056      51621.638    
   5960000   521.44058      17246.926     -749.1002       6123.93        3352.1302      17167.604     -3936.2727      15.892635      1.05007        51888.856    
   5980000   516.563        17249.223     -776.90289      6158.2687      3310.8932      17109.917     -3864.9924      40.204266      1.0442707      52177.015    
   6000000   508.93528      17428.036     -729.75833      6121.8767      3489.7773      17166.434     -3923.6151      31.085038      1.0473751      52022.366    
   6000102   521.25476      17224.982     -776.15361      6116.2713      3421.6223      17096.323     -3941.5506      37.736007      1.0510377      51841.081    
Loop time of 4085.95 on 24 procs for 1200000 steps with 4952 atoms

Performance: 6.344 ns/day, 3.783 hours/ns, 293.689 timesteps/s, 1.454 Matom-step/s
99.5% CPU use with 24 MPI tasks x no OpenMP threads

MPI task timing breakdown:
Section |  min time  |  avg time  |  max time  |%varavg| %total
---------------------------------------------------------------
Pair    | 1807.4     | 2164.3     | 2485.3     | 329.4 | 52.97
Bond    | 721.09     | 804.18     | 885.92     | 171.3 | 19.68
Kspace  | 515.99     | 904.36     | 1343.2     | 612.5 | 22.13
Neigh   | 38.563     | 38.605     | 38.655     |   0.4 |  0.94
Comm    | 122.91     | 124.33     | 126.27     |   7.3 |  3.04
Output  | 0.0084037  | 0.0088847  | 0.019414   |   2.3 |  0.00
Modify  | 31.814     | 36.506     | 38.955     |  39.4 |  0.89
Other   |            | 13.7       |            |       |  0.34

Nlocal:        206.333 ave         235 max         184 min
Histogram: 4 1 1 2 6 6 2 0 1 1
Nghost:        4739.38 ave        4789 max        4701 min
Histogram: 5 3 2 1 2 3 3 1 2 2
Neighs:        71462.3 ave       87902 max       58389 min
Histogram: 3 1 2 4 5 2 5 1 0 1

Total # of neighbors = 1715096
Ave neighs/atom = 346.3441
Ave special neighs/atom = 6.4321486
Neighbor list builds = 13293
Dangerous builds = 0
unfix           fNPT
unfix           fMOM
next            a
jump            SELF loop
variable        a loop 26
variable        b equal 600-20*($a-1)
variable        b equal 600-20*(6-1)
fix             fMOM all momentum 100 linear 1 1 1 angular
fix             fNPT all npt temp $b $b $(100.0*dt) iso 1 1 $(100.0*dt)
fix             fNPT all npt temp 500 $b $(100.0*dt) iso 1 1 $(100.0*dt)
fix             fNPT all npt temp 500 500 $(100.0*dt) iso 1 1 $(100.0*dt)
fix             fNPT all npt temp 500 500 25 iso 1 1 $(100.0*dt)
fix             fNPT all npt temp 500 500 25 iso 1 1 25
run             1200000
PPPM initialization ...
  using 12-bit tables for long-range coulomb (../kspace.cpp:342)
  G vector (1/distance) = 0.15468624
  grid = 6 6 6
  stencil order = 5
  estimated absolute RMS force accuracy = 0.2778397
  estimated relative force accuracy = 0.000836706
  using double precision KISS FFT
  3d grid and FFT values/proc = 392 12
Generated 45 of 45 mixed pair_coeff terms from sixthpower/sixthpower mixing rule
WARNING: Inconsistent image flags (../domain.cpp:815)
Per MPI rank memory allocation (min/avg/max) = 16.13 | 16.13 | 16.14 Mbytes
   Step          Temp          PotEng         E_vdwl         E_coul         E_bond        E_angle        E_dihed        E_impro        Density         Volume    
   6000102   521.25476      17225.034     -776.15361      6128.8835      3421.6223      17096.323     -3941.5506      37.736007      1.0510377      51841.081    
   6020000   510.3896       16940.89      -765.95529      6125.865       3209.4272      17050.834     -3952.8176      12.906677      1.0519575      51795.752    
   6040000   507.19991      16953.553     -812.03649      6122.3649      3271.3872      17025.549     -3929.1336      18.899956      1.0593058      51436.451    
   6060000   501.40547      16983.416     -787.55591      6125.0938      3253.6781      17041.495     -3914.1575      7.2945739      1.0595651      51423.862    
   6080000   507.29701      16926.53      -823.09231      6136.8654      3173.2489      17155.575     -3995.9269      19.371312      1.06143        51333.513    
   6100000   502.15745      16949.645     -826.10432      6123.0391      3221.915       17120.494     -3961.5143      13.846421      1.065627       51131.331    
   6120000   504.43973      17157.863     -773.15489      6128.6279      3318.5153      17214.014     -4004.1774      15.805497      1.0708833      50880.362    
   6140000   501.56893      16928.642     -859.98261      6126.1126      3319.9475      17023.017     -3962.9694      25.917297      1.0641381      51202.876    
   6160000   501.37555      16930.056     -864.94575      6109.9482      3235.045       17164.863     -3988.5267      15.734361      1.0657754      51124.216    
   6180000   499.65251      16971.693     -770.04837      6119.6309      3251.3426      16990.228     -3896.5851      18.93434       1.046793       52051.294    
   6200000   498.96692      17120.865     -799.95056      6116.5181      3267.2038      17236.455     -3975.1664      14.625835      1.0558384      51605.369    
   6220000   502.42498      16871.488     -837.85639      6115.1366      3281.4171      16997.899     -3961.2406      14.445633      1.0664163      51093.491    
   6240000   504.23351      16980.548     -817.69602      6130.9448      3258.918       17147.57      -4025.0908      27.123904      1.0567261      51562.016    
   6260000   499.79075      17067.477     -825.09412      6140.5322      3279.7818      17135.804     -3960.7061      36.096645      1.0565108      51572.526    
   6280000   498.05502      16996.245     -810.48233      6149.0141      3227.2963      17128.978     -3985.2764      26.271849      1.0566782      51564.356    
   6300000   513.88043      16996.312     -765.3883       6097.2117      3295.5332      17054.079     -3958.7917      16.397446      1.0533652      51726.531    
   6320000   494.79554      16999.27      -790.41508      6128.3918      3287.7579      17018.144     -3921.2416      19.395944      1.0496685      51908.704    
   6340000   502.2444       16926.559     -820.6835       6129.5876      3332.1013      16998.397     -3983.5711      12.396311      1.0488747      51947.986    
   6360000   503.24599      16901.192     -776.70495      6106.1311      3209.5838      17045.873     -3963.5743      21.500939      1.05659        51568.66     
   6380000   494.99436      17088.26      -850.13042      6138.3192      3282.5514      17096.584     -3852.5618      14.455072      1.0605538      51375.922    
   6400000   503.00351      16924.859     -851.56851      6148.6053      3312.6006      17033.753     -3984.4342      6.7797966      1.0581888      51490.745    
   6420000   502.786        17034.972     -812.6579       6126.9621      3368.8375      17032.079     -3969.4599      30.040927      1.0589112      51455.619    
   6440000   500.86833      17052.655     -793.45928      6129.1499      3156.0549      17216.484     -3925.2179      12.470985      1.0534692      51721.427    
   6460000   499.57722      16936.908     -818.68445      6127.1881      3320.7992      16991.382     -3960.8472      19.136994      1.0642289      51198.507    
   6480000   498.10279      16907.332     -826.76887      6121.1881      3250.3554      17042.583     -3942.1481      4.1356885      1.0553119      51631.112    
   6500000   505.40504      16939.681     -814.85294      6126.1883      3368.0673      17063.224     -4074.4619      13.033232      1.0622385      51294.44     
   6520000   500.94897      16954.436     -861.18974      6129.0636      3309.2075      17057.781     -3959.051       18.616141      1.0619626      51307.765    
   6540000   500.80291      17041.893     -772.13429      6127.5903      3326.3237      17112.646     -4033.582       24.365412      1.0444943      52165.848    
   6560000   494.93169      16771.084     -837.3847       6100.0272      3238.5041      16982.985     -3993.6331      23.378446      1.0615712      51326.685    
   6580000   498.54681      16809.528     -790.90662      6137.1481      3129.648       17011.575     -3950.5961      13.194475      1.0749543      50687.668    
   6600000   509.57266      17059.304     -826.0179       6126.8376      3305.1427      17145.404     -3958.9736      10.361957      1.0639365      51212.574    
   6620000   495.09715      17075.766     -844.95617      6086.5698      3328.2329      17186.019     -3942.0721      7.2396342      1.0505061      51867.312    
   6640000   497.08863      16994.095     -762.40331      6115.305       3273.7143      17066.192     -3955.7123     -0.20536748     1.055314       51631.01     
   6660000   495.02251      16957.505     -832.03729      6155.0875      3267.1507      17055.473     -3975.095       28.091016      1.0502918      51877.895    
   6680000   507.20395      17071.364     -761.97296      6112.0332      3349.2205      17094.457     -4002.8419      19.964217      1.0533766      51725.973    
   6700000   513.8127       17016.038     -817.98638      6113.106       3435.9218      17012.127     -4000.5108      17.178601      1.0536072      51714.65     
   6720000   496.99877      16906.472     -801.22769      6133.5801      3230.3209      16992.903     -3920.493       16.020503      1.0440835      52186.369    
   6740000   496.78931      17089.565     -773.24423      6122.8654      3324.0469      17094.924     -3945.9953      9.3409458      1.0525622      51765.994    
   6760000   506.63274      17012.207     -938.23254      6124.4542      3320.8083      17198.376     -3979.0909      28.150946      1.0544202      51674.78     
   6780000   496.84221      17006.698     -815.14758      6122.5561      3296.5879      17097.465     -3964.83        13.890776      1.0621592      51298.271    
   6800000   502.29846      16868.513     -878.32499      6144.2949      3224.0817      17038.552     -3935.0073      19.10944       1.0600716      51399.293    
   6820000   498.41215      16977.765     -831.90025      6101.5332      3267.1507      17084.225     -3906.7099      8.2397134      1.0703518      50905.625    
   6840000   495.71007      17045.549     -845.12967      6114.1998      3354.0066      17081.504     -3944.5487      26.048748      1.0613532      51337.228    
   6860000   502.242        16878.394     -904.80142      6124.0068      3264.3403      17057.087     -3951.5981      33.669518      1.0659792      51114.438    
   6880000   492.96051      16911.132     -845.20678      6139.9223      3304.6042      17006.506     -3976.0163      24.214973      1.0642958      51195.288    
   6900000   500.85976      16920.485     -876.21772      6136.5355      3207.0955      17118.635     -3939.4162      17.683825      1.052772       51755.68     
   6920000   500.84584      16892.371     -806.69515      6124.5212      3270.8705      17048.5       -4014.9307      11.851097      1.0508261      51851.517    
   6940000   504.56997      17070.119     -845.44417      6119.3119      3375.4385      17107.336     -3955.7844      12.887757      1.0495714      51913.506    
   6960000   501.72948      16903.723     -800.95918      6120.2386      3244.3081      17044.851     -3972.0038      12.545421      1.0603878      51383.963    
   6980000   504.34108      17074.168     -800.27035      6131.2392      3382.1401      17082.401     -3989.3069      11.928776      1.0611851      51345.359    
   7000000   499.30557      16826.584     -798.06185      6126.1294      3233.2674      17047.73      -4063.5377      24.469349      1.0534165      51724.013    
   7020000   502.24713      16969.859     -796.06535      6153.4157      3220.858       17049.546     -3937.6046      24.176244      1.0566266      51566.873    
   7040000   492.90584      17035.753     -864.78846      6144.5567      3359.0723      17022.598     -3904.2336      21.905726      1.0602008      51393.025    
   7060000   498.28114      17002.327     -891.41683      6134.6982      3403.9057      17038.327     -3963.4119      25.463468      1.0754044      50666.457    
   7080000   504.5519       17153.988     -754.02264      6131.0966      3267.6213      17110.004     -3895.7998      37.256451      1.0576029      51519.27     
   7100000   504.893        16875.307     -818.38361      6112.8231      3191.6286      17039.171     -3918.7714      13.76611       1.0631129      51252.25     
   7120000   496.35036      16943.817     -865.41933      6136.2772      3257.108       17128.142     -3990.6264      22.225394      1.0713023      50860.461    
   7140000   502.13522      17030.67      -752.48959      6149.4945      3289.0157      17013.069     -3938.4847      11.824731      1.0516147      51812.637    
   7160000   505.93383      17059.99      -767.7851       6136.7791      3250.382       17160.92      -3995.8701      19.608816      1.0636929      51224.306    
   7180000   500.67099      16969.313     -799.2044       6095.7714      3375.1267      17037.503     -3999.3133      0.43810652     1.069746       50934.457    
   7200000   505.9514       17128.495     -810.49299      6133.2822      3372.2298      17126.893     -3975.235       26.162926      1.0739735      50733.958    
   7200102   510.01755      16970.583     -933.07619      6147.8126      3348.2201      17128.993     -3997.4803      20.943758      1.0669679      51067.074    
Loop time of 4083.29 on 24 procs for 1200000 steps with 4952 atoms

Performance: 6.348 ns/day, 3.781 hours/ns, 293.881 timesteps/s, 1.455 Matom-step/s
99.5% CPU use with 24 MPI tasks x no OpenMP threads

MPI task timing breakdown:
Section |  min time  |  avg time  |  max time  |%varavg| %total
---------------------------------------------------------------
Pair    | 1893.2     | 2177.3     | 2509.7     | 300.5 | 53.32
Bond    | 723.18     | 803.81     | 882.42     | 141.8 | 19.69
Kspace  | 498.35     | 890.25     | 1254.6     | 543.7 | 21.80
Neigh   | 36.604     | 36.642     | 36.675     |   0.3 |  0.90
Comm    | 123.05     | 124.83     | 126.79     |   8.0 |  3.06
Output  | 0.0028958  | 0.0034353  | 0.015319   |   4.2 |  0.00
Modify  | 32.139     | 36.716     | 39.443     |  37.5 |  0.90
Other   |            | 13.79      |            |       |  0.34

Nlocal:        206.333 ave         220 max         176 min
Histogram: 1 0 0 1 3 2 3 7 3 4
Nghost:        4796.04 ave        4848 max        4749 min
Histogram: 3 1 3 4 3 2 1 3 1 3
Neighs:        72469.5 ave       79984 max       64551 min
Histogram: 3 0 1 5 5 2 0 3 3 2

Total # of neighbors = 1739267
Ave neighs/atom = 351.22516
Ave special neighs/atom = 6.4321486
Neighbor list builds = 12723
Dangerous builds = 0
unfix           fNPT
unfix           fMOM
next            a
jump            SELF loop
variable        a loop 26
variable        b equal 600-20*($a-1)
variable        b equal 600-20*(7-1)
fix             fMOM all momentum 100 linear 1 1 1 angular
fix             fNPT all npt temp $b $b $(100.0*dt) iso 1 1 $(100.0*dt)
fix             fNPT all npt temp 480 $b $(100.0*dt) iso 1 1 $(100.0*dt)
fix             fNPT all npt temp 480 480 $(100.0*dt) iso 1 1 $(100.0*dt)
fix             fNPT all npt temp 480 480 25 iso 1 1 $(100.0*dt)
fix             fNPT all npt temp 480 480 25 iso 1 1 25
run             1200000
PPPM initialization ...
  using 12-bit tables for long-range coulomb (../kspace.cpp:342)
  G vector (1/distance) = 0.15516006
  grid = 6 6 6
  stencil order = 5
  estimated absolute RMS force accuracy = 0.27585757
  estimated relative force accuracy = 0.00083073687
  using double precision KISS FFT
  3d grid and FFT values/proc = 392 12
Generated 45 of 45 mixed pair_coeff terms from sixthpower/sixthpower mixing rule
WARNING: Inconsistent image flags (../domain.cpp:815)
Per MPI rank memory allocation (min/avg/max) = 16.13 | 16.13 | 16.14 Mbytes
   Step          Temp          PotEng         E_vdwl         E_coul         E_bond        E_angle        E_dihed        E_impro        Density         Volume    
   7200102   510.01755      16970.218     -933.07619      6161.9344      3348.2201      17128.993     -3997.4803      20.943758      1.0669679      51067.074    
   7220000   480.54558      16633.597     -853.75284      6117.7526      3147.6056      16975.961     -4013.4234      18.162942      1.0692193      50959.545    
   7240000   476.48152      16658.172     -847.89689      6144.8031      3179.5421      16845.951     -3933.491       25.241001      1.0709323      50878.035    
   7260000   480.36896      16694.722     -856.97455      6143.9889      3215.6041      16887.352     -3953.534       16.675528      1.0632935      51243.545    
   7280000   468.46311      16756.094     -896.71214      6130.5938      3177.5831      17076.769     -3993.8084      19.9595        1.0707669      50885.891    
   7300000   486.95541      16552.904     -848.73864      6150.611       3052.735       16896.05      -3952.9869      12.547984      1.0738983      50737.511    
   7320000   476.34379      16737.047     -846.98409      6133.8109      3195.2475      16932.937     -3923.6347      4.7755873      1.0754506      50664.277    
   7340000   489.85968      16685.963     -933.38158      6136.6399      3242.8275      16929.93      -3953.5858      22.446         1.0766036      50610.021    
   7360000   472.84439      16672.675     -838.51598      6125.5846      3140.0066      16948.127     -3960.4005      16.136208      1.0723707      50809.789    
   7380000   479.61645      16539.202     -841.13156      6119.5401      3126.6454      16827.248     -3947.1928      10.478375      1.0629695      51259.165    
   7400000   484.41344      16568.063     -938.33174      6181.1685      3126.208       16932.945     -4002.526       26.126233      1.0734902      50756.802    
   7420000   481.80638      16482.308     -864.69802      6146.6249      3018.2711      16891.088     -3971.1078      19.39775       1.0710941      50870.346    
   7440000   486.67184      16547.767     -912.58716      6172.6013      3134.6445      16895.799     -3991.2972      5.5700289      1.0674121      51045.824    
   7460000   475.49626      16629.079     -904.83733      6136.6626      3133.5334      16960.058     -3954.1867      13.008352      1.0672179      51055.11     
   7480000   488.64529      16658.526     -810.16253      6159.3967      3119.9653      16963.947     -4030.6937      9.8423341      1.0684979      50993.949    
   7500000   477.37065      16562.438     -863.94804      6158.1691      3132.9913      16756.202     -3904.0655      39.17676       1.0755063      50661.656    
   7520000   479.19741      16740.563     -891.28549      6169.2032      3249.7661      16999.59      -4054.1447      21.368759      1.0722109      50817.364    
   7540000   489.97666      16564.975     -829.63396      6143.8386      3059.6409      16892.447     -3954.8317      10.912141      1.0625559      51279.119    
   7560000   477.50196      16863.509     -825.33892      6143.7456      3246.7195      16998.105     -3967.92        24.526453      1.0576579      51516.592    
   7580000   477.53731      16825.35      -866.09399      6147.8663      3252.6157      16990.871     -3957.6462      15.863375      1.0510548      51840.238    
   7600000   475.11131      16619.242     -839.82201      6116.6853      3117.4305      16900.703     -3946.7385      26.227784      1.0706605      50890.95     
   7620000   479.22261      16665.362     -936.35762      6150.0395      3198.0679      16948.172     -3947.5748      10.539553      1.0768229      50599.714    
   7640000   483.60173      16694.43      -781.06475      6143.091       3107.7039      16970.098     -4016.8752      29.639997      1.0705494      50896.229    
   7660000   477.10283      16658.743     -795.14191      6150.6476      3120.282       16859.333     -3933.6446      15.448195      1.0585398      51473.671    
   7680000   484.08602      16643.708     -856.22477      6146.9467      3143.0155      16930.047     -3970.4772      7.3233722      1.0599408      51405.636    
   7700000   478.52693      16676.653     -862.6908       6141.1265      3208.3496      16929.242     -4017.4938      36.340486      1.0778924      50549.506    
   7720000   475.86947      16537.656     -939.81604      6143.7163      3192.8553      16872.024     -3999.9764      26.910066      1.0653902      51142.7      
   7740000   483.53479      16750.405     -806.56256      6138.8481      3077.7412      17010.048     -3909.5177     -2.5221122      1.0700973      50917.731    
   7760000   475.51666      16701.585     -804.28714      6121.2439      3154.9247      16994.318     -4031.5341      23.951147      1.0613711      51336.361    
   7780000   473.5508       16471.061     -802.40865      6114.465       3081.7516      16800.744     -3981.3899      16.081871      1.0608323      51362.434    
   7800000   472.03178      16668.194     -820.48217      6138.9853      3117.7767      16927.944     -3949.8163      11.00958       1.0571424      51541.711    
   7820000   472.85641      16649.135     -844.31242      6140.0786      3123.1996      16978.688     -4014.1837      23.4282        1.0597407      51415.343    
   7840000   480.41104      16844.936     -769.77046      6143.5396      3242.9518      16915.145     -3940.3899      11.307246      1.0433162      52224.752    
   7860000   481.87931      16647.528     -824.89538      6144.7135      3088.2008      16942.487     -3950.2474      4.7554893      1.071525       50849.892    
   7880000   482.85416      16551.253     -845.58386      6136.5267      3095.7343      16960.111     -4046.5509      9.6236709      1.0772582      50579.268    
   7900000   470.94902      16580.896     -869.05722      6150.9721      3162.4493      16871.928     -3994.8197      17.530585      1.0640566      51206.796    
   7920000   472.59801      16748.419     -800.04198      6131.2493      3180.6488      17005.604     -4035.5795      23.501918      1.061123       51348.363    
   7940000   485.90094      16804.688     -850.95747      6145.6452      3167.3033      17004.346     -3915.3276      14.296455      1.0639729      51210.827    
   7960000   472.40876      16563.892     -903.9078       6143.0041      3056.4585      16982.371     -3986.5639      31.775295      1.0703453      50905.937    
   7980000   484.89869      16641.917     -867.45165      6138.7609      3214.4366      16868.224     -3981.3303      26.204368      1.0676296      51035.424    
   8000000   483.47867      16705.817     -814.89195      6145.9009      3156.7455      16924.425     -3975.8849      28.645878      1.0710881      50870.632    
   8020000   482.82355      16720.587     -884.97235      6150.9235      3196.9603      17006.4       -4003.9729      12.588118      1.0679461      51020.297    
   8040000   477.81116      16663.755     -825.21775      6135.6299      3196.9356      16853.356     -3958.97        20.562614      1.0716015      50846.26     
   8060000   478.88604      16567.125     -891.34159      6137.4219      3124.4676      16901.092     -3966.5321      19.552235      1.056675       51564.51     
   8080000   488.87869      16559.974     -865.67423      6147.7652      3123.531       16917.025     -4012.9694      7.6534597      1.0744373      50712.062    
   8100000   486.40396      16556.02      -860.34502      6140.4918      3240.5232      16764.753     -3984.1857      12.123214      1.0657458      51125.633    
   8120000   473.30239      16575.77      -844.83217      6111.6884      3175.3211      16835.261     -3965.3937      20.567039      1.0815436      50378.858    
   8140000   469.92079      16626.156     -893.43132      6140.1416      3223.6515      16929.367     -4042.984       29.131539      1.0722633      50814.877    
   8160000   482.20555      16640.004     -819.04289      6151.9887      3113.8968      16921.056     -4012.6035      43.815204      1.0613548      51337.147    
   8180000   484.7492       16603.367     -815.83514      6118.5968      3185.4717      16853.741     -3985.7337      5.1533555      1.061712       51319.877    
   8200000   478.49961      16751.555     -869.09661      6163.4272      3227.1397      16889.741     -3932.9789      26.58652       1.0651656      51153.484    
   8220000   479.66843      16726.884     -820.21864      6131.8459      3164.931       16903.721     -3908.5822      11.534955      1.0529387      51747.484    
   8240000   478.49951      16626.134     -895.26173      6129.5504      3167.6797      16966.266     -3996.0643      11.230703      1.0665648      51086.376    
   8260000   480.54589      16741.998     -808.21885      6159.2755      3191.6514      16917.103     -3977.1773      17.042766      1.0634297      51236.983    
   8280000   479.08944      16668.471     -948.80168      6161.3981      3237.0798      16940.792     -3982.1357      17.171647      1.0679509      51020.067    
   8300000   482.44866      16604.51      -843.29126      6149.9928      3080.0743      16949.435     -3997.0635      23.906788      1.0626941      51272.448    
   8320000   477.09348      16729.504     -788.17515      6158.6009      3162.3983      16977.051     -4040.4364      20.006808      1.0595568      51424.265    
   8340000   475.76087      16619.723     -890.85141      6144.053       3205.2076      16906.054     -3994.0939      9.4239005      1.0546715      51662.464    
   8360000   471.28313      16614.574     -818.54436      6140.0979      3140.2101      16915.442     -4024.9154      20.354361      1.0544838      51671.663    
   8380000   480.71654      16903.054     -770.89774      6114.7065      3211.754       17078.832     -3999.6926      29.205021      1.0488254      51950.431    
   8400000   481.50516      16827.334     -887.05358      6152.3272      3156.0728      17067.847     -3932.7364      28.497771      1.069369       50952.411    
   8400102   481.71652      16649.218     -870.96588      6140.7291      3200.045       16825.719     -3896.6154      9.1757635      1.0704488      50901.012    
Loop time of 4068.8 on 24 procs for 1200000 steps with 4952 atoms

Performance: 6.370 ns/day, 3.767 hours/ns, 294.927 timesteps/s, 1.460 Matom-step/s
99.5% CPU use with 24 MPI tasks x no OpenMP threads

MPI task timing breakdown:
Section |  min time  |  avg time  |  max time  |%varavg| %total
---------------------------------------------------------------
Pair    | 1913.3     | 2192.1     | 2450       | 295.1 | 53.88
Bond    | 720.68     | 803.18     | 884.04     | 151.6 | 19.74
Kspace  | 556.76     | 862.96     | 1169.7     | 529.5 | 21.21
Neigh   | 35.128     | 35.156     | 35.17      |   0.2 |  0.86
Comm    | 122.03     | 124.66     | 126.88     |   9.7 |  3.06
Output  | 0.0034365  | 0.004017   | 0.016802   |   4.2 |  0.00
Modify  | 32.029     | 36.828     | 40.014     |  38.0 |  0.91
Other   |            | 13.86      |            |       |  0.34

Nlocal:        206.333 ave         223 max         189 min
Histogram: 2 1 1 3 5 3 3 2 3 1
Nghost:        4778.62 ave        4819 max        4733 min
Histogram: 1 2 3 4 1 4 1 1 5 2
Neighs:        72517.4 ave       81728 max       61913 min
Histogram: 2 1 2 4 0 3 5 3 1 3

Total # of neighbors = 1740417
Ave neighs/atom = 351.45739
Ave special neighs/atom = 6.4321486
Neighbor list builds = 12185
Dangerous builds = 0
unfix           fNPT
unfix           fMOM
next            a
jump            SELF loop
variable        a loop 26
variable        b equal 600-20*($a-1)
variable        b equal 600-20*(8-1)
fix             fMOM all momentum 100 linear 1 1 1 angular
fix             fNPT all npt temp $b $b $(100.0*dt) iso 1 1 $(100.0*dt)
fix             fNPT all npt temp 460 $b $(100.0*dt) iso 1 1 $(100.0*dt)
fix             fNPT all npt temp 460 460 $(100.0*dt) iso 1 1 $(100.0*dt)
fix             fNPT all npt temp 460 460 25 iso 1 1 $(100.0*dt)
fix             fNPT all npt temp 460 460 25 iso 1 1 25
run             1200000
PPPM initialization ...
  using 12-bit tables for long-range coulomb (../kspace.cpp:342)
  G vector (1/distance) = 0.1552627
  grid = 6 6 6
  stencil order = 5
  estimated absolute RMS force accuracy = 0.27542822
  estimated relative force accuracy = 0.00082944392
  using double precision KISS FFT
  3d grid and FFT values/proc = 392 12
Generated 45 of 45 mixed pair_coeff terms from sixthpower/sixthpower mixing rule
WARNING: Inconsistent image flags (../domain.cpp:815)
Per MPI rank memory allocation (min/avg/max) = 16.13 | 16.13 | 16.14 Mbytes
   Step          Temp          PotEng         E_vdwl         E_coul         E_bond        E_angle        E_dihed        E_impro        Density         Volume    
   8400102   481.71652      16649.189     -870.96588      6143.8364      3200.045       16825.719     -3896.6154      9.1757635      1.0704488      50901.012    
   8420000   460.51169      16275.921     -884.51926      6163.3799      2975.9542      16766.694     -3991.3966      8.8681372      1.0737831      50742.956    
   8440000   455.25318      16234.643     -899.67216      6136.347       2961.9427      16781.578     -3991.127       6.2310765      1.0664246      51093.091    
   8460000   458.56464      16438.19      -934.17191      6154.7023      3032.8011      16919.131     -3983.7863      12.092094      1.069019       50969.092    
   8480000   462.48941      16272.598     -867.78487      6148.3088      3013.3706      16711.455     -3973.6225      1.3936547      1.0691427      50963.198    
   8500000   458.16339      16342.788     -954.65217      6127.7957      3019.0145      16865.044     -3973.1664      20.129919      1.0755115      50661.411    
   8520000   473.60982      16226.52      -911.79718      6127.2273      2969.5206      16766.186     -3985.808       22.121643      1.0658083      51122.638    
   8540000   462.59385      16316.625     -913.38474      6146.7186      3027.2937      16784.021     -3979.5495      14.665128      1.0712569      50862.615    
   8560000   461.45285      16378.855     -934.52096      6141.0761      2993.277       16878.083     -3955.4049      18.168076      1.0678079      51026.904    
   8580000   461.51819      16312.957     -959.35201      6141.7303      3089.5965      16833.135     -4036.8859      6.0947676      1.0952998      49746.135    
   8600000   453.60032      16271.734     -901.9021       6144.2636      3004.518       16821.631     -4034.5679     -1.2013754      1.0714554      50853.193    
   8620000   462.77771      16472.056     -857.42111      6133.7713      3091.0855      16842.512     -4007.2988      30.539541      1.0717661      50838.45     
   8640000   453.94762      16294.56      -896.3526       6148.9612      2981.4998      16810.957     -3998.9499      9.6627944      1.0753106      50670.877    
   8660000   457.18009      16438.927     -940.65684      6142.1699      3029.144       16899.276     -3934.5111      6.8205399      1.0771205      50585.731    
   8680000   461.18664      16206.095     -960.32707      6138.2107      2961.2529      16791.652     -3981.114       19.386754      1.0705112      50898.048    
   8700000   463.43625      16259.098     -940.18883      6132.8166      2973.1017      16835.68      -3995.0562      14.913892      1.0749019      50690.141    
   8720000   465.49601      16256.847     -920.98414      6147.959       3037.9286      16707.742     -3966.1997      11.519256      1.0826479      50327.47     
   8740000   448.43208      16284.724     -991.02412      6164.0435      3032.4902      16824.455     -4004.6032      19.325205      1.0924458      49876.092    
   8760000   468.62742      16435.224     -886.23607      6152.0596      2919.1857      17026.89      -4034.0556      18.710507      1.0799147      50454.847    
   8780000   461.08698      16307.254     -880.27291      6129.1147      3028.1668      16790.866     -4002.0534      4.3601399      1.0745893      50704.885    
   8800000   453.6014       16409.718     -897.89346      6143.9411      3164.6071      16760.223     -4012.1061      13.59543       1.0768445      50598.698    
   8820000   461.10914      16391.511     -893.77241      6141.3931      3124.9851      16770.337     -3997.8685      6.7505053      1.0670856      51061.44     
   8840000   455.58993      16236.313     -922.16666      6142.8714      3038.1169      16743.892     -4020.0206      11.563094      1.0761021      50633.605    
   8860000   468.70424      16307.16      -922.44115      6132.5579      3017.4678      16789.661     -3959.9151      12.985964      1.0753772      50667.737    
   8880000   464.56358      16407.743     -895.02183      6129.4217      3049.7025      16871.18      -3991.5994      4.18493        1.0744617      50710.909    
   8900000   454.3826       16298.832     -888.25085      6128.7583      2970.4493      16826.431     -3984.3375      7.1520287      1.0819763      50358.71     
   8920000   466.52192      16358.781     -939.89566      6119.3812      3049.3328      16906.014     -4016.7716      2.7771735      1.0762435      50626.954    
   8940000   461.45338      16322.97      -939.01807      6144.6572      3065.9421      16791.146     -3989.5946      10.02511       1.076938       50594.304    
   8960000   466.41536      16360.27      -881.31286      6119.4458      3106.7063      16703.356     -3934.4046      7.279023       1.0729113      50784.189    
   8980000   461.08407      16363.123     -874.03998      6116.3443      3055.276       16773.221     -3960.6104      16.315353      1.0714512      50853.396    
   9000000   466.72711      16285.132     -923.64681      6142.3902      3042.8441      16740.805     -3969.2167      14.611799      1.067153       51058.217    
   9020000   464.40936      16324.365     -924.84198      6149.3738      3041.9307      16797.736     -3995.9443      19.921921      1.0696938      50936.942    
   9040000   454.80988      16359.929     -883.84145      6115.1585      3119.9461      16749.619     -3999.295       19.323522      1.0836503      50280.916    
   9060000   458.84905      16205.339     -962.59819      6134.0847      3010.1091      16760.077     -3994.9129      21.135941      1.0813319      50388.718    
   9080000   451.5522       16295.043     -1000.7898      6144.8832      3049.4155      16801.127     -3951.7712      12.049523      1.0840854      50260.735    
   9100000   464.46851      16232.525     -897.43961      6127.0343      3028.1528      16750.922     -4020.3481      6.3269396      1.0778264      50552.604    
   9120000   457.62882      16298.051     -912.92455      6143.3158      2944.2189      16827.011     -3962.3174      19.966273      1.0751059      50680.524    
   9140000   468.36455      16480.168     -874.25504      6133.4391      3134.7144      16817.063     -3983.5212      15.33901       1.0883661      50063.053    
   9160000   457.42832      16013.278     -961.01702      6135.0507      2921.318       16683.632     -4020.2758      17.158182      1.079445       50476.802    
   9180000   472.70812      16272.644     -956.80424      6126.6699      3093.1217      16725.659     -3959.4887      4.519245       1.0787486      50509.384    
   9200000   464.95551      16343.099     -896.90515      6127.9253      3000.134       16942.483     -4087.5713      18.358052      1.0850327      50216.852    
   9220000   472.45999      16488.86      -893.81509      6145.333       3101.3334      16850.112     -3967.4527      14.693556      1.0777808      50554.74     
   9240000   451.36337      16404.306     -959.8823       6134.1218      3110.7197      16862.569     -3982.2776      2.171233       1.0714805      50852.002    
   9260000   465.92876      16272.559     -921.85957      6147.8297      2992.6883      16826.646     -4016.7651      7.2864252      1.0836048      50283.026    
   9280000   462.89484      16243.723     -980.24209      6128.0526      3015.3622      16782.598     -3956.6428      18.550323      1.0775624      50564.988    
   9300000   467.48047      16274.87      -951.17846      6140.4552      3078.8917      16780.116     -4025.7104      13.121667      1.0781668      50536.643    
   9320000   467.6094       16210.388     -876.56716      6126.9986      2998.3347      16725.884     -4003.9436      2.3222911      1.0921786      49888.297    
   9340000   448.22222      16185.901     -943.30564      6165.6992      2971.9062      16788.26      -4042.6611      7.133272       1.0906907      49956.353    
   9360000   464.49915      16370.316     -921.80046      6137.7841      3028.7854      16830.011     -3962.7258      18.860944      1.0895617      50008.117    
   9380000   464.76311      16447.327     -854.4583       6148.1088      3063.3348      16825.187     -3976.6679      1.5570123      1.0856797      50186.927    
   9400000   459.95407      16456.528     -892.59584      6139.693       3016.3245      16928.994     -3988.4002      14.965239      1.091284       49929.193    
   9420000   459.43284      16386.684     -939.14464      6128.297       3080.5117      16889.022     -4018.7673      6.3801838      1.075606       50656.959    
   9440000   462.06627      16283.762     -934.09495      6130.4152      3026.421       16765.065     -3947.1122      4.1106222      1.080405       50431.948    
   9460000   458.5321       16329.766     -915.62461      6121.7328      3049.7377      16784.949     -3970.7846      21.631484      1.0823775      50340.044    
   9480000   463.0413       16357.802     -917.42135      6138.0395      3074.0133      16804.26      -3997.4142      17.961962      1.0801196      50445.273    
   9500000   456.05183      16379.448     -907.63079      6118.4554      3005.6986      16888.954     -3989.9928      25.814882      1.0820783      50353.963    
   9520000   466.51694      16417.141     -1026.3326      6124.4104      3126.4824      16920.63      -3985.4488      19.064467      1.0841719      50256.726    
   9540000   466.45626      16280.361     -888.35259      6149.5818      2975.4786      16850.341     -4065.7553      22.224851      1.0810741      50400.734    
   9560000   461.33         16389.323     -959.93808      6143.5807      3174.7858      16815.903     -4030.9876      7.7281598      1.0762212      50628.004    
   9580000   467.50462      16232.606     -892.24193      6124.6406      3030.3956      16817.817     -4087.4474      0.33183017     1.0865796      50145.362    
   9600000   458.8241       16336.835     -926.10217      6137.873       3055.8912      16823.968     -4001.9103      9.1928931      1.0913609      49925.674    
   9600102   449.51916      16444.443     -930.36466      6130.5899      3096.6518      16901.17      -3992.8934      1.862473       1.0890541      50031.426    
Loop time of 4084.56 on 24 procs for 1200000 steps with 4952 atoms

Performance: 6.346 ns/day, 3.782 hours/ns, 293.789 timesteps/s, 1.455 Matom-step/s
99.5% CPU use with 24 MPI tasks x no OpenMP threads

MPI task timing breakdown:
Section |  min time  |  avg time  |  max time  |%varavg| %total
---------------------------------------------------------------
Pair    | 1970.5     | 2210.7     | 2495.3     | 294.6 | 54.12
Bond    | 708.73     | 803.15     | 900.7      | 158.9 | 19.66
Kspace  | 523.18     | 860.79     | 1154.9     | 543.4 | 21.07
Neigh   | 33.721     | 33.77      | 33.797     |   0.4 |  0.83
Comm    | 123.06     | 125.33     | 127.3      |   8.7 |  3.07
Output  | 0.0028649  | 0.0031783  | 0.0097281  |   2.4 |  0.00
Modify  | 32.037     | 36.92      | 40.117     |  38.4 |  0.90
Other   |            | 13.87      |            |       |  0.34

Nlocal:        206.333 ave         231 max         193 min
Histogram: 3 4 5 3 4 1 2 0 1 1
Nghost:        4859.58 ave        4903 max        4814 min
Histogram: 2 1 5 0 4 4 3 0 2 3
Neighs:        73688.5 ave       84856 max       63198 min
Histogram: 1 2 3 2 5 1 6 3 0 1

Total # of neighbors = 1768523
Ave neighs/atom = 357.13308
Ave special neighs/atom = 6.4321486
Neighbor list builds = 11744
Dangerous builds = 0
unfix           fNPT
unfix           fMOM
next            a
jump            SELF loop
variable        a loop 26
variable        b equal 600-20*($a-1)
variable        b equal 600-20*(9-1)
fix             fMOM all momentum 100 linear 1 1 1 angular
fix             fNPT all npt temp $b $b $(100.0*dt) iso 1 1 $(100.0*dt)
fix             fNPT all npt temp 440 $b $(100.0*dt) iso 1 1 $(100.0*dt)
fix             fNPT all npt temp 440 440 $(100.0*dt) iso 1 1 $(100.0*dt)
fix             fNPT all npt temp 440 440 25 iso 1 1 $(100.0*dt)
fix             fNPT all npt temp 440 440 25 iso 1 1 25
run             1200000
PPPM initialization ...
  using 12-bit tables for long-range coulomb (../kspace.cpp:342)
  G vector (1/distance) = 0.15580597
  grid = 6 6 6
  stencil order = 5
  estimated absolute RMS force accuracy = 0.27315603
  estimated relative force accuracy = 0.00082260126
  using double precision KISS FFT
  3d grid and FFT values/proc = 392 12
Generated 45 of 45 mixed pair_coeff terms from sixthpower/sixthpower mixing rule
WARNING: Inconsistent image flags (../domain.cpp:815)
Per MPI rank memory allocation (min/avg/max) = 16.13 | 16.13 | 16.14 Mbytes
   Step          Temp          PotEng         E_vdwl         E_coul         E_bond        E_angle        E_dihed        E_impro        Density         Volume    
   9600102   449.51916      16444.44      -930.36466      6147.1942      3096.6518      16901.17      -3992.8934      1.862473       1.0890541      50031.426    
   9620000   435.43838      15965.212     -964.91733      6149.397       2878.9308      16704.43      -4031.5152      5.1670634      1.0836657      50280.202    
   9640000   436.26295      16052.308     -966.41838      6143.2451      2927.5569      16661.077     -3958.9231      23.602856      1.0743149      50717.838    
   9660000   437.42856      15947.567     -990.35714      6158.3333      2861.0026      16625.628     -3943.4948      16.391655      1.0816904      50372.017    
   9680000   441.2128       16103.81      -967.15425      6161.0243      2963.6035      16747.303     -4034.1212      11.823456      1.0850509      50216.015    
   9700000   442.08262      15935.627     -1000.3457      6165.426       2872.0868      16648.825     -3986.1933      14.134923      1.0861789      50163.861    
   9720000   441.34792      16022.405     -1017.2295      6157.3722      2964.3127      16727.439     -4052.4367      20.453158      1.0858604      50178.575    
   9740000   441.54601      15915.226     -991.0124       6166.0684      2874.1647      16640.472     -4007.5042      9.5237297      1.0885749      50053.451    
   9760000   442.46559      15908.301     -983.37593      6143.7258      2995.0197      16515.638     -3995.2955      10.69661       1.0854341      50198.285    
   9780000   444.76254      16019.478     -945.89286      6168.2901      2883.3698      16703.52      -4023.1206      10.733238      1.0850828      50214.537    
   9800000   438.96577      16096.422     -951.80009      6144.6669      2962.0331      16717.449     -4002.0566      4.7067455      1.0914066      49923.585    
   9820000   440.26749      15950.637     -952.35473      6150.6332      2872.3682      16662.308     -4020.2542      13.651832      1.0877834      50089.869    
   9840000   443.10498      15987.393     -921.34189      6169.3149      2861.1275      16697.109     -4048.9719      7.434557       1.0769427      50594.083    
   9860000   445.72024      16029.863     -989.658        6144.6616      2962.9496      16690.548     -4018.9469      19.641123      1.0774043      50572.406    
   9880000   434.8103       15982.666     -919.73725      6155.2428      2923.4817      16681.908     -4081.8206      0.85622002     1.0878143      50088.448    
   9900000   434.1565       15955.281     -984.79151      6143.6273      2934.8949      16663.393     -4028.2483      4.17939        1.0767548      50602.915    
   9920000   435.27646      15955.966     -972.76922      6140.7251      2843.2651      16702.355     -3986.8375      7.8633498      1.0992526      49567.248    
   9940000   445.10185      15971.385     -1019.5734      6140.5262      2882.9186      16755.75      -4024.7611      14.610131      1.0817357      50369.908    
   9960000   434.93479      15924.144     -971.07562      6151.8296      2932.3799      16570.149     -3998.4915      17.900349      1.0899972      49988.139    
   9980000   441.44707      16167.647     -930.83783      6168.7468      2993.273       16776.351     -4062.3741      0.91146412     1.0900284      49986.704    
  10000000   445.87427      16047.662     -954.84326      6136.8889      2931.8039      16691.301     -3991.62        14.113328      1.0884364      50059.817    
  10020000   440.7653       15966.128     -934.9626       6150.2721      2997.4265      16536.443     -4012.7878      7.5745379      1.0813573      50387.535    
  10040000   434.3344       16036.792     -946.15549      6147.5423      2936.4097      16657.057     -3990.0471      12.061888      1.0833155      50296.453    
  10060000   448.90879      15971.629     -939.39926      6138.4533      2861.7015      16670.94      -3991.3764      7.6485854      1.0888836      50039.259    
  10080000   448.14062      16055.293     -958.525        6134.9056      2938.2871      16756.084     -4051.3206      13.679731      1.0782544      50532.535    
  10100000   443.07485      16080.973     -949.74521      6141.6156      2962.0196      16672.724     -3987.7373      22.101572      1.0730765      50776.371    
  10120000   437.91352      15863.766     -1022.6071      6136.4146      2811.4973      16654.914     -3955.2155      17.085248      1.0892322      50023.245    
  10140000   442.89346      15925.98      -924.47183      6175.8323      2806.157       16668.371     -4034.5911      13.332133      1.0841946      50255.675    
  10160000   448.31725      15992.552     -1005.2118      6161.4895      2889.9248      16711.526     -4007.8711      21.366081      1.0798792      50456.505    
  10180000   434.1993       15993.013     -1021.6364      6149.9404      2907.5949      16711.761     -3985.715       8.9486688      1.0826701      50326.437    
  10200000   438.30205      15893.405     -995.76761      6163.5921      2885.5679      16692.736     -4088.9213      14.104638      1.0776838      50559.293    
  10220000   438.08445      15844.935     -997.75837      6169.2324      2894.2273      16575.789     -4032.5449      13.882912      1.0868665      50132.125    
  10240000   435.05566      15998.277     -1028.5917      6155.5119      2962.1485      16717.498     -4030.9265      1.4185328      1.0955957      49732.695    
  10260000   440.32259      15966.073     -966.55224      6161.3694      2860.0222      16686.558     -4013.0132      16.846614      1.0836307      50281.824    
  10280000   451.10246      15829.211     -940.88221      6150.2867      2854.9324      16545.328     -4016.1058      13.408079      1.0909137      49946.142    
  10300000   440.72532      15959.578     -941.49367      6159.3751      2885.8786      16619.636     -3993.106       8.3537327      1.084268       50252.272    
  10320000   442.81556      15927.314     -956.51391      6137.2276      2896.7647      16636.443     -4022.7073      16.153129      1.0892742      50021.318    
  10340000   437.64403      15873.587     -982.57113      6127.2069      2894.8545      16639.253     -4045.1948      20.510914      1.0872936      50112.434    
  10360000   443.09115      15937.121     -983.34998      6136.9231      2899.8272      16624.214     -3975.7518      12.251871      1.0975906      49642.306    
  10380000   444.23192      16046.189     -963.03862      6140.495       2910.1027      16653.404     -3943.9357      27.094094      1.0965544      49689.218    
  10400000   431.9883       16045.587     -979.60396      6149.0029      2966.7362      16751.803     -4069.4063      5.8574534      1.0785559      50518.408    
  10420000   440.47549      16122.617     -922.71018      6147.5187      2908.5028      16771.833     -4013.2902      9.3776275      1.0883167      50065.323    
  10440000   446.37995      15990.072     -1003.6479      6135.788       2896.8811      16765.481     -4029.17        4.2289957      1.0907334      49954.396    
  10460000   435.94598      15959.223     -979.1732       6154.6751      2936.3701      16653.297     -4058.0718      28.712276      1.0845085      50241.127    
  10480000   440.15079      16131.233     -902.59238      6155.3334      3012.7277      16684.642     -4056.4629      16.643547      1.08249        50334.813    
  10500000   444.36073      15936.988     -995.65642      6152.1967      2917.5261      16597.757     -3962.1974      6.6676564      1.0807965      50413.682    
  10520000   441.5936       15931.815     -966.41974      6129.8837      2966.6321      16575.612     -4010.9326      16.316378      1.0872162      50116.003    
  10540000   435.01819      15875.237     -982.15745      6138.218       2821.8558      16647.021     -3988.3324      17.060154      1.0823026      50343.525    
  10560000   451.41763      16103.738     -965.17385      6141.6618      2930.2739      16751.233     -3983.1499      8.192628       1.1000713      49530.363    
  10580000   442.28729      15956.273     -989.00037      6131.5006      2965.7754      16594.74      -3986.7728      18.785006      1.0815446      50378.811    
  10600000   444.35415      15849.837     -975.92613      6180.9152      2881.0231      16570.128     -4032.3557      4.5588655      1.0833339      50295.6      
  10620000   441.67058      15902.588     -926.76107      6138.8092      2856.9349      16623.333     -4038.7169      27.654519      1.0855889      50191.126    
  10640000   440.46809      15921.715     -968.01315      6146.4665      2912.405       16623.959     -4029.8478      15.846817      1.0768813      50596.969    
  10660000   442.68371      15796.421     -973.31974      6160.768       2834.0289      16549.229     -4003.63        5.810275       1.0919558      49898.476    
  10680000   443.66158      15981.332     -957.52831      6147.3833      2819.8451      16684.06      -3967.6701      35.064176      1.0967573      49680.024    
  10700000   447.2347       15861.231     -1003.1871      6121.7446      2910.323       16622.684     -4027.8124      17.553355      1.0951964      49750.828    
  10720000   442.88637      15917.909     -996.79424      6159.0282      2872.6838      16640.734     -3996.0926      16.173232      1.0868389      50133.402    
  10740000   443.65802      16090.711     -927.21226      6145.9622      2978.9742      16705.869     -4051.706       17.286711      1.0786955      50511.871    
  10760000   440.49655      15904.838     -958.88303      6141.0422      2955.2827      16521.921     -3991.7975      17.497273      1.0874138      50106.895    
  10780000   445.22331      16010.991     -968.75721      6146.2346      2883.9753      16769.097     -4040.459       1.3756118      1.0834419      50290.586    
  10800000   429.46119      16082.717     -974.03463      6143.75        3017.1037      16728.913     -4053.3417     -0.00071038558  1.0802553      50438.937    
  10800102   436.70119      15869.709     -905.62177      6146.7235      2892.405       16552.4       -4042.9442      7.2367758      1.086056       50169.539    
Loop time of 4105.33 on 24 procs for 1200000 steps with 4952 atoms

Performance: 6.314 ns/day, 3.801 hours/ns, 292.303 timesteps/s, 1.447 Matom-step/s
99.5% CPU use with 24 MPI tasks x no OpenMP threads

MPI task timing breakdown:
Section |  min time  |  avg time  |  max time  |%varavg| %total
---------------------------------------------------------------
Pair    | 2007.2     | 2228.6     | 2510.1     | 295.7 | 54.29
Bond    | 703.81     | 802.68     | 912.77     | 173.4 | 19.55
Kspace  | 525.34     | 864.6      | 1126.8     | 568.0 | 21.06
Neigh   | 32.673     | 32.722     | 32.761     |   0.4 |  0.80
Comm    | 123.51     | 125.89     | 128.19     |   9.1 |  3.07
Output  | 0.0070704  | 0.0074539  | 0.015608   |   2.0 |  0.00
Modify  | 32.095     | 36.932     | 40.077     |  37.4 |  0.90
Other   |            | 13.9       |            |       |  0.34

Nlocal:        206.333 ave         232 max         185 min
Histogram: 1 4 2 3 3 4 5 0 1 1
Nghost:        4837.88 ave        4874 max        4774 min
Histogram: 1 1 1 2 2 2 4 4 2 5
Neighs:        73473.9 ave       82570 max       64098 min
Histogram: 3 2 3 1 3 2 1 5 2 2

Total # of neighbors = 1763373
Ave neighs/atom = 356.09309
Ave special neighs/atom = 6.4321486
Neighbor list builds = 11260
Dangerous builds = 0
unfix           fNPT
unfix           fMOM
next            a
jump            SELF loop
variable        a loop 26
variable        b equal 600-20*($a-1)
variable        b equal 600-20*(10-1)
fix             fMOM all momentum 100 linear 1 1 1 angular
fix             fNPT all npt temp $b $b $(100.0*dt) iso 1 1 $(100.0*dt)
fix             fNPT all npt temp 420 $b $(100.0*dt) iso 1 1 $(100.0*dt)
fix             fNPT all npt temp 420 420 $(100.0*dt) iso 1 1 $(100.0*dt)
fix             fNPT all npt temp 420 420 25 iso 1 1 $(100.0*dt)
fix             fNPT all npt temp 420 420 25 iso 1 1 25
run             1200000
PPPM initialization ...
  using 12-bit tables for long-range coulomb (../kspace.cpp:342)
  G vector (1/distance) = 0.15571902
  grid = 6 6 6
  stencil order = 5
  estimated absolute RMS force accuracy = 0.27351962
  estimated relative force accuracy = 0.00082369622
  using double precision KISS FFT
  3d grid and FFT values/proc = 392 12
Generated 45 of 45 mixed pair_coeff terms from sixthpower/sixthpower mixing rule
WARNING: Inconsistent image flags (../domain.cpp:815)
Per MPI rank memory allocation (min/avg/max) = 16.13 | 16.13 | 16.14 Mbytes
   Step          Temp          PotEng         E_vdwl         E_coul         E_bond        E_angle        E_dihed        E_impro        Density         Volume    
  10800102   436.70119      15869.731     -905.62177      6144.085       2892.405       16552.4       -4042.9442      7.2367758      1.086056       50169.539    
  10820000   427.30924      15710.339     -995.20635      6150.0857      2792.6027      16552.955     -4023.8113      8.6018504      1.0919401      49899.194    
  10840000   418.8732       15751.963     -900.13179      6131.8712      2799.5549      16523.749     -4032.8143      6.6452685      1.0781966      50535.245    
  10860000   414.63451      15843.143     -994.82365      6140.8102      2888.8517      16680.092     -4105.6654      9.4636874      1.0766179      50609.346    
  10880000   419.42886      15588.563     -967.37383      6153.4871      2724.3233      16451.296     -3997.6218     -2.0432749      1.0801381      50444.409    
  10900000   416.45499      15684.196     -964.86511      6130.131       2812.3177      16539.73      -4060.0302      4.891968       1.0950745      49756.367    
  10920000   421.74735      15638.954     -997.25649      6125.7573      2761.2315      16513.511     -3994.3607      6.2441829      1.0980838      49620.01     
  10940000   424.15935      15606.249     -1013.4916      6135.025       2741.0293      16531.015     -4028.5598      16.930741      1.0975185      49645.567    
  10960000   432.31744      15579.144     -994.01631      6154.4332      2745.2133      16506.167     -4062.3532      6.9307324      1.0973209      49654.506    
  10980000   417.68999      15717.081     -970.72176      6124.3761      2872.0719      16504.985     -4041.2888      6.0037026      1.0835538      50285.394    
  11000000   418.83305      15659.402     -1066.9324      6118.0395      2809.4483      16626.268     -4044.5175     -6.3228808      1.0981472      49617.144    
  11020000   413.667        15636.001     -987.46211      6114.0512      2783.7152      16492.709     -3996.8043      6.4370796      1.0955879      49733.051    
  11040000   425.45446      15810.764     -953.31229      6151.7645      2765.7369      16636.356     -4025.2704      11.874246      1.0988402      49585.854    
  11060000   424.96986      15681.48      -977.41921      6141.2476      2844.4922      16452.548     -4014.5546      11.516617      1.0897215      50000.783    
  11080000   422.72567      15823.232     -1008.9643      6123.3327      2845.3551      16626.135     -4001.6157      15.050244      1.0921565      49889.307    
  11100000   422.45648      15659.124     -956.68028      6136.2492      2747.0683      16515.969     -4014.9573      6.5313269      1.0890935      50029.618    
  11120000   419.23237      15581.925     -974.18832      6145.742       2754.6904      16467.273     -4049.8104      11.532543      1.0885245      50055.767    
  11140000   418.71016      15674.706     -949.70048      6111.5634      2792.5398      16522.873     -4028.8441      0.21583458     1.0866852      50140.491    
  11160000   412.245        15652.86      -913.51965      6128.0598      2819.7343      16461.672     -4078.4555      11.661049      1.0935675      49824.933    
  11180000   415.53579      15831.438     -1009.9987      6144.6429      2859.2054      16635.998     -4032.5833      9.7834983      1.0938706      49811.127    
  11200000   421.8658       15666.921     -992.58349      6121.4128      2812.4711      16531.335     -4048.0174      18.679502      1.098606       49596.423    
  11220000   419.44588      15635.55      -1027.6917      6158.5102      2864.8794      16475.407     -4063.8229      4.8824944      1.1038176      49362.259    
  11240000   418.76796      15707.836     -983.31587      6151.2298      2824.3762      16544.241     -4058.7323      7.5157973      1.0963661      49697.752    
  11260000   420.13618      15761.299     -1035.0007      6146.8053      2889.9099      16562.855     -4037.2929      10.799769      1.0920455      49894.378    
  11280000   417.88677      15608.891     -983.26958      6142.4266      2865.1279      16435.16      -4087.0838      12.27915       1.0918936      49901.317    
  11300000   407.59128      15627.41      -1039.3535      6131.2073      2722.8766      16647.729     -4068.2494      9.7531684      1.0873361      50110.476    
  11320000   426.77962      15763.77      -989.46388      6142.1186      2783.8168      16616.906     -4038.7176      23.037796      1.0965951      49687.37     
  11340000   415.4832       15602.136     -964.0804       6145.4011      2758.8364      16489.287     -4062.7213      12.129253      1.0885419      50054.966    
  11360000   429.96718      15721.416     -1017.2055      6140.7979      2816.0355      16556.725     -4010.5755      10.519183      1.0874487      50105.289    
  11380000   413.3589       15708.788     -965.78179      6168.3189      2806.6986      16528.357     -4049.4818     -2.0684457      1.091577       49915.79     
  11400000   405.55043      15722.202     -983.69452      6125.2327      2858.1028      16503         -4019.9152      15.430413      1.0806291      50421.489    
  11420000   422.38477      15713.924     -986.30857      6177.0299      2786.9296      16604.066     -4096.3493      2.4254133      1.0919136      49900.403    
  11440000   419.50176      15647.317     -983.07929      6139.6833      2829.6155      16478.161     -4051.1618      8.1257222      1.0908612      49948.543    
  11460000   425.43297      15588.09      -981.6406       6119.0447      2773.2628      16510.153     -4073.7015      17.538867      1.0948756      49765.405    
  11480000   413.88291      15718.071     -1019.5897      6155.917       2805.2347      16571.918     -4025.1696      6.8811888      1.0852616      50206.263    
  11500000   416.54309      15616.994     -1069.6887      6138.3188      2784.4888      16538.509     -4012.7699      15.066985      1.095706       49727.692    
  11520000   420.77031      15857.642     -981.39499      6158.3556      2901.1951      16557.721     -4008.1673      4.7401188      1.0946569      49775.348    
  11540000   420.27425      15726.045     -939.4149       6144.5478      2757.2215      16595.018     -4067.5616      12.005841      1.0914968      49919.457    
  11560000   418.31246      15662.54      -892.61916      6143.755       2785.8851      16409.236     -4017.2213      8.8870096      1.0906491      49958.257    
  11580000   419.53037      15637.772     -1060.4537      6145.4886      2828.1603      16507.324     -4020.0315      13.913142      1.094416       49786.307    
  11600000   415.94908      15654.367     -1035.557       6151.9526      2840.1388      16544.481     -4069.7411     -3.4698999      1.0978306      49631.454    
  11620000   419.95709      15596.491     -1019.1464      6162.1067      2848.1093      16420.61      -4048.058       7.5529921      1.0927222      49863.479    
  11640000   415.76619      15591.538     -982.05737      6148.4876      2736.6958      16474.557     -4017.0255      6.385571       1.1006209      49505.627    
  11660000   415.78098      15666.058     -958.57493      6162.3776      2800.7506      16401.608     -3971.4232      6.3978224      1.0849859      50219.023    
  11680000   418.22064      15637.87      -993.16696      6138.4049      2806.4877      16532.131     -4073.672       2.5593141      1.0973159      49654.733    
  11700000   413.53281      15747.506     -1000.5141      6151.8913      2754.8863      16676.559     -4073.6917      13.532991      1.0922224      49886.294    
  11720000   423.21883      15581.345     -1076.0255      6159.6476      2743.4875      16557.885     -4042.6639      13.48603       1.0998232      49541.536    
  11740000   423.8042       15675.188     -972.59252      6153.8106      2823.5245      16488.403     -4036.2363     -6.0849103      1.0949085      49763.911    
  11760000   413.96196      15810.723     -982.03155      6141.9589      2842.4583      16563.234     -3989.3259      10.145533      1.0823959      50339.185    
  11780000   419.10214      15672.011     -993.07444      6151.4579      2775.3622      16465.289     -3966.4115      15.122833      1.0831516      50304.068    
  11800000   428.25197      15571.403     -947.71688      6157.4134      2791.442       16375.699     -4036.411       8.0118273      1.0737071      50746.549    
  11820000   418.04538      15656.277     -996.34572      6137.7568      2767.5345      16515.315     -3995.6979      4.1134369      1.091728       49908.887    
  11840000   426.02426      15555.985     -970.96785      6157.8357      2677.6707      16481.011     -4036.2442      22.680033      1.0926789      49865.455    
  11860000   421.83768      15548.802     -1009.1991      6111.3722      2746.5704      16509.052     -4044.1642      12.333975      1.0854194      50198.962    
  11880000   415.45132      15736.29      -891.5441       6135.6838      2727.9898      16580.569     -4048.71        8.9267134      1.0841962      50255.601    
  11900000   430.10007      15599.207     -1028.1496      6163.6846      2773.2847      16475.791     -4025.0149      15.036683      1.0841226      50259.011    
  11920000   408.15734      15652.751     -981.56         6126.5273      2821.3465      16473.836     -4019.0039      9.4704571      1.082495       50334.58     
  11940000   425.66834      15616.054     -939.92915      6142.631       2807.7696      16452.591     -4072.8537      3.5912835      1.1029143      49402.687    
  11960000   425.01798      15661.663     -997.31134      6117.5779      2851.1882      16559.779     -4110.4568      17.524944      1.0861772      50163.943    
  11980000   425.17031      15469.319     -993.29288      6122.8052      2688.3414      16490.74      -4055.8492     -6.8008355      1.0947914      49769.234    
  12000000   425.89809      15589.613     -1017.3821      6131.3185      2780.9292      16464.308     -4009.6353      16.096703      1.0834411      50290.622    
  12000102   417.12034      15728.427     -974.17587      6143.8524      2778.576       16599.351     -4043.4235      0.88225073     1.0896238      50005.269    
Loop time of 4095.51 on 24 procs for 1200000 steps with 4952 atoms

Performance: 6.329 ns/day, 3.792 hours/ns, 293.004 timesteps/s, 1.451 Matom-step/s
99.5% CPU use with 24 MPI tasks x no OpenMP threads

MPI task timing breakdown:
Section |  min time  |  avg time  |  max time  |%varavg| %total
---------------------------------------------------------------
Pair    | 1990.4     | 2231.8     | 2505.3     | 306.5 | 54.49
Bond    | 695.84     | 802.15     | 914.36     | 178.2 | 19.59
Kspace  | 556        | 852.92     | 1145.4     | 593.2 | 20.83
Neigh   | 31.395     | 31.412     | 31.443     |   0.2 |  0.77
Comm    | 123.67     | 126.27     | 128.38     |   8.7 |  3.08
Output  | 0.0028795  | 0.0032203  | 0.010332   |   2.6 |  0.00
Modify  | 32.281     | 37.163     | 40.209     |  37.6 |  0.91
Other   |            | 13.79      |            |       |  0.34

Nlocal:        206.333 ave         225 max         182 min
Histogram: 2 0 1 2 3 2 9 1 3 1
Nghost:        4857.79 ave        4880 max        4829 min
Histogram: 1 3 2 1 2 5 2 3 0 5
Neighs:        73749.1 ave       84579 max       61587 min
Histogram: 1 0 2 5 4 2 4 3 2 1

Total # of neighbors = 1769979
Ave neighs/atom = 357.4271
Ave special neighs/atom = 6.4321486
Neighbor list builds = 10774
Dangerous builds = 0
unfix           fNPT
unfix           fMOM
next            a
jump            SELF loop
variable        a loop 26
variable        b equal 600-20*($a-1)
variable        b equal 600-20*(11-1)
fix             fMOM all momentum 100 linear 1 1 1 angular
fix             fNPT all npt temp $b $b $(100.0*dt) iso 1 1 $(100.0*dt)
fix             fNPT all npt temp 400 $b $(100.0*dt) iso 1 1 $(100.0*dt)
fix             fNPT all npt temp 400 400 $(100.0*dt) iso 1 1 $(100.0*dt)
fix             fNPT all npt temp 400 400 25 iso 1 1 $(100.0*dt)
fix             fNPT all npt temp 400 400 25 iso 1 1 25
run             1200000
PPPM initialization ...
  using 12-bit tables for long-range coulomb (../kspace.cpp:342)
  G vector (1/distance) = 0.15582246
  grid = 6 6 6
  stencil order = 5
  estimated absolute RMS force accuracy = 0.27308705
  estimated relative force accuracy = 0.00082239354
  using double precision KISS FFT
  3d grid and FFT values/proc = 392 12
Generated 45 of 45 mixed pair_coeff terms from sixthpower/sixthpower mixing rule
WARNING: Inconsistent image flags (../domain.cpp:815)
Per MPI rank memory allocation (min/avg/max) = 16.13 | 16.13 | 16.14 Mbytes
   Step          Temp          PotEng         E_vdwl         E_coul         E_bond        E_angle        E_dihed        E_impro        Density         Volume    
  12000102   417.12034      15728.422     -974.17587      6147.0096      2778.576       16599.351     -4043.4235      0.88225073     1.0896238      50005.269    
  12020000   389.59997      15226.363     -1056.1215      6154.9369      2585.7788      16307.099     -4000.7531      14.303545      1.0965834      49687.901    
  12040000   399.05141      15356.825     -984.76085      6161.1676      2632.1265      16350.77      -4035.1652      12.254214      1.0888515      50040.736    
  12060000   396.58122      15345.835     -1041.0695      6137.5643      2584.2352      16410.798     -3984.0053      16.831601      1.095212       49750.119    
  12080000   402.82712      15308.426     -1035.474       6135.9026      2641.2195      16429.833     -4097.7626      15.441001      1.0949054      49764.053    
  12100000   402.15315      15509.343     -974.73178      6129.1251      2698.9883      16499.895     -4076.7443      14.557469      1.0981206      49618.345    
  12120000   391.8234       15304.495     -1008.5897      6117.9705      2712.746       16249.065     -3993.7927      7.9998691      1.1032663      49386.923    
  12140000   397.7847       15333.768     -1120.3163      6150.7701      2724.9621      16393.146     -4049.1701      15.358254      1.0939969      49805.379    
  12160000   406.46021      15350.846     -1055.9271      6130.2593      2696.398       16427.743     -4081.2441      15.413097      1.1044894      49332.233    
  12180000   396.32934      15315.13      -1061.0089      6137.6036      2697.439       16327.474     -4011.9863      4.7578179      1.1112903      49030.327    
  12200000   404.62036      15378.204     -1002.3161      6150.8836      2700.0086      16377.25      -4084.2622      16.217177      1.0929148      49854.69     
  12220000   404.72906      15310.954     -1027.5666      6144.2955      2704.5636      16361.859     -4104.3464      13.851589      1.1012586      49476.963    
  12240000   399.50025      15401.277     -1060.6821      6149.2122      2705.4537      16426.918     -4049.2244      9.9497025      1.1007479      49499.916    
  12260000   400.1049       15257.733     -1067.56        6139.2606      2675.9373      16378.647     -4098.6975      10.472682      1.1042865      49341.298    
  12280000   402.51679      15291.831     -1029.2544      6131.5364      2598.5971      16436.985     -4070.8687      4.6276708      1.0999327      49536.604    
  12300000   397.89192      15354.203     -1056.2284      6135.9474      2646.8306      16438.997     -4054.4687      23.861658      1.100236       49522.946    
  12320000   403.53383      15347.175     -991.29781      6142.2593      2692.4074      16386.733     -4109.0256      5.9254129      1.1032162      49389.167    
  12340000   400.58226      15349.18      -988.04451      6163.0357      2615.4441      16345.046     -4021.5104      16.18855       1.1077822      49185.597    
  12360000   398.10046      15378.665     -1094.9522      6142.0451      2662.8532      16410.538     -3967.4119      5.39877        1.0886367      50050.609    
  12380000   393.04775      15400.656     -1092.3478      6141.5569      2721.3583      16453.613     -4047.7599      3.7811445      1.0954927      49737.372    
  12400000   393.45459      15465.664     -1028.0182      6132.6522      2654.1867      16531.312     -4048.1011      4.4835337      1.0883787      50062.474    
  12420000   407.46631      15331.493     -1037.899       6131.7285      2699.4597      16397.143     -4075.9222     -2.8799958      1.1048569      49315.823    
  12440000   400.08096      15332.961     -997.66824      6135.0985      2628.2105      16442.79      -4102.5947      8.2146607      1.0882861      50066.735    
  12460000   399.47252      15333.719     -1056.1866      6139.7408      2676.3679      16415.024     -4065.2942      4.9411029      1.096077       49710.86     
  12480000   400.44177      15437.029     -1067.5018      6134.738       2756.5436      16439.289     -4059.7566      14.496112      1.0925458      49871.53     
  12500000   403.85204      15456.116     -1022.8753      6145.8406      2749.4183      16429.031     -4065.3518      1.574394       1.1031511      49392.083    
  12520000   402.69239      15362.801     -992.9318       6143.4688      2726.793       16323.88      -4071.256       13.00714       1.0951776      49751.684    
  12540000   394.95381      15277.628     -1021.174       6129.1306      2622.8146      16374.484     -4057.2649      10.178861      1.089154       50026.838    
  12560000   402.51325      15400.107     -1031.5079      6131.1102      2777.3145      16316.1       -4018.5185      6.634452       1.0877815      50089.959    
  12580000   399.1619       15207.803     -1102.8331      6133.6524      2663.1815      16277.22      -3994.5163      11.842042      1.0887641      50044.753    
  12600000   397.1154       15341.211     -1034.2181      6127.477       2690.9693      16393.021     -4065.2089      10.019083      1.0963389      49698.983    
  12620000   396.87584      15329.979     -1014.1876      6129.8334      2626.5977      16400.887     -4049.766       16.654877      1.0892153      50024.021    
  12640000   401.65929      15251.856     -1094.9735      6125.5955      2638.6392      16390.155     -4043.8288      16.133093      1.1037729      49364.258    
  12660000   402.6282       15434.572     -1069.4423      6116.0875      2783.0594      16426.923     -4051.1321      8.5742152      1.094475       49783.622    
  12680000   395.80051      15399.619     -1016.2117      6149.309       2682.8289      16454.924     -4096.7355      6.0980917      1.0924962      49873.794    
  12700000   390.95091      15305.769     -1064.5535      6130.8177      2693.992       16386.555     -4067.3396      6.5162983      1.099163       49571.29     
  12720000   397.07571      15346.883     -1042.399       6145.9078      2649.2152      16425.975     -4060.7206      9.194934       1.089789       49997.687    
  12740000   396.68077      15208.81      -1005.7337      6128.4853      2624.245       16301.736     -4053.0618     -5.8119038      1.0996852      49547.753    
  12760000   399.37264      15439.295     -999.96691      6121.7443      2688.7243      16431.631     -4025.8103      3.7881728      1.0876531      50095.871    
  12780000   389.86406      15434.53      -1079.6203      6132.7097      2741.4696      16504.203     -4092.5943      8.8055229      1.0951175      49754.412    
  12800000   409.72906      15327.168     -1043.4582      6128.2484      2702.6326      16389.035     -4094.4402      25.214127      1.0965242      49690.585    
  12820000   399.23966      15250.711     -994.23606      6135.097       2601.6489      16316.023     -4056.3266      28.612087      1.1004282      49514.296    
  12840000   399.09816      15330.048     -1072.0075      6129.7114      2627.2593      16442.408     -4024.3997      9.2419943      1.102266       49431.743    
  12860000   397.90113      15293.785     -1090.7266      6162.1512      2706.8666      16364.309     -4070.1876     -1.9035349      1.0995846      49552.285    
  12880000   399.13641      15337.655     -1028.6358      6149.7878      2664.4522      16400.641     -4079.5442      9.526098       1.1012335      49478.088    
  12900000   396.69702      15353.806     -1031.3066      6134.8234      2707.5811      16411.667     -4102.5585      9.771865       1.096517       49690.912    
  12920000   394.64512      15252.137     -1001.3929      6136.1917      2580.4365      16388.572     -4064.4004     -7.1932969      1.0877956      50089.308    
  12940000   402.54957      15322.755     -1047.6587      6132.0471      2655.3403      16399.559     -4042.7934      6.4514575      1.0956667      49729.474    
  12960000   394.90428      15266.755     -1068.121       6155.8096      2661.7738      16378.329     -4086.8698      4.9993344      1.0943353      49789.978    
  12980000   397.64311      15227.641     -1018.1449      6116.2583      2633.2024      16332.007     -4058.4703      2.2792314      1.0979623      49625.501    
  13000000   405.18367      15250.925     -1031.7573      6119.0769      2719.1519      16342.782     -4114.7968     -4.5658799      1.0925891      49869.554    
  13020000   402.68911      15448.396     -1078.6086      6156.405       2741.7682      16470.561     -4063.546       1.6304195      1.1057662      49275.271    
  13040000   398.07672      15430.552     -1020.2652      6163.8278      2636.091       16455.125     -4042.1746      16.523836      1.0893976      50015.65     
  13060000   394.19686      15305.768     -1062.1819      6124.662       2619.8635      16407.613     -4017.145       10.285495      1.0938386      49812.584    
  13080000   406.94332      15373.997     -1010.2245      6148.1323      2692.2727      16351.383     -4032.9123      3.8863524      1.0903078      49973.895    
  13100000   395.92965      15356.717     -1005.1351      6142.3046      2723.0006      16331.722     -4066.7978      12.740276      1.0949563      49761.739    
  13120000   402.20775      15417.556     -940.96857      6148.2628      2639.29        16378.132     -4037.8744      8.7005337      1.0980523      49621.435    
  13140000   406.47506      15374.962     -1050.7661      6146.2141      2704.9191      16389.549     -4039.4828      6.0134469      1.0904365      49967.999    
  13160000   398.84117      15437.956     -1051.2848      6135.2448      2774.9883      16395.315     -4041.2762      4.7803469      1.0910418      49940.275    
  13180000   388.89508      15279.23      -1065.4335      6148.7739      2634.139       16404.703     -4056.6525     -5.4284314      1.0910497      49939.913    
  13200000   400.03665      15297.332     -1055.3897      6139.5165      2741.5925      16321.296     -4074.3834      5.3559598      1.0906906      49956.355    
  13200102   392.12401      15415.065     -1038.2711      6143.5927      2734.2648      16378.37      -4023.306       0.29540417     1.0925996      49869.072    
Loop time of 4093.16 on 24 procs for 1200000 steps with 4952 atoms

Performance: 6.333 ns/day, 3.790 hours/ns, 293.172 timesteps/s, 1.452 Matom-step/s
99.5% CPU use with 24 MPI tasks x no OpenMP threads

MPI task timing breakdown:
Section |  min time  |  avg time  |  max time  |%varavg| %total
---------------------------------------------------------------
Pair    | 2005.6     | 2244       | 2509.4     | 294.9 | 54.82
Bond    | 727.79     | 801.87     | 912.08     | 160.1 | 19.59
Kspace  | 531        | 840.93     | 1110.6     | 557.6 | 20.54
Neigh   | 29.904     | 29.931     | 29.976     |   0.3 |  0.73
Comm    | 123.52     | 126.03     | 128.39     |   9.6 |  3.08
Output  | 0.011033   | 0.011453   | 0.020538   |   1.8 |  0.00
Modify  | 31.714     | 36.556     | 39.542     |  37.6 |  0.89
Other   |            | 13.86      |            |       |  0.34

Nlocal:        206.333 ave         219 max         182 min
Histogram: 1 0 0 1 5 4 2 2 5 4
Nghost:        4870.88 ave        4916 max        4833 min
Histogram: 2 2 4 4 2 2 2 4 1 1
Neighs:          74365 ave       83523 max       65447 min
Histogram: 3 2 1 4 2 4 1 1 4 2

Total # of neighbors = 1784759
Ave neighs/atom = 360.41175
Ave special neighs/atom = 6.4321486
Neighbor list builds = 10310
Dangerous builds = 0
unfix           fNPT
unfix           fMOM
next            a
jump            SELF loop
variable        a loop 26
variable        b equal 600-20*($a-1)
variable        b equal 600-20*(12-1)
fix             fMOM all momentum 100 linear 1 1 1 angular
fix             fNPT all npt temp $b $b $(100.0*dt) iso 1 1 $(100.0*dt)
fix             fNPT all npt temp 380 $b $(100.0*dt) iso 1 1 $(100.0*dt)
fix             fNPT all npt temp 380 380 $(100.0*dt) iso 1 1 $(100.0*dt)
fix             fNPT all npt temp 380 380 25 iso 1 1 $(100.0*dt)
fix             fNPT all npt temp 380 380 25 iso 1 1 25
run             1200000
PPPM initialization ...
  using 12-bit tables for long-range coulomb (../kspace.cpp:342)
  G vector (1/distance) = 0.1559085
  grid = 6 6 6
  stencil order = 5
  estimated absolute RMS force accuracy = 0.27272729
  estimated relative force accuracy = 0.00082131014
  using double precision KISS FFT
  3d grid and FFT values/proc = 392 12
Generated 45 of 45 mixed pair_coeff terms from sixthpower/sixthpower mixing rule
WARNING: Inconsistent image flags (../domain.cpp:815)
Per MPI rank memory allocation (min/avg/max) = 16.13 | 16.14 | 16.14 Mbytes
   Step          Temp          PotEng         E_vdwl         E_coul         E_bond        E_angle        E_dihed        E_impro        Density         Volume    
  13200102   392.12401      15415.025     -1038.2711      6146.1828      2734.2648      16378.37      -4023.306       0.29540417     1.0925996      49869.072    
  13220000   384.07858      15151.854     -1093.8897      6154.2411      2692.7949      16258.933     -4080.9797      1.6731811      1.1029581      49400.726    
  13240000   373.32665      15057.665     -1057.4603      6147.7856      2559.7299      16307.724     -4116.2572     -1.6643727      1.0987454      49590.134    
  13260000   378.21932      14985.935     -1092.4139      6145.3192      2548.7691      16243.418     -4080.7648      3.6795301      1.0960826      49710.604    
  13280000   383.62474      15056.371     -1022.4516      6126.9721      2546.924       16213.399     -4037.2977      9.3442026      1.1095393      49107.706    
  13300000   383.99904      15098.525     -1068.625       6144.9738      2592.2785      16275.766     -4079.8385      15.805759      1.1009096      49492.645    
  13320000   378.30167      14998.904     -1069.5394      6148.9272      2507.9201      16245.698     -4060.8481      7.9209043      1.1000082      49533.204    
  13340000   380.94586      14967.298     -1064.3572      6132.7258      2499.8207      16283.176     -4104.2644      2.4539805      1.1007766      49498.625    
  13360000   378.88002      14971.309     -1098.8911      6122.9686      2530.9749      16254.109     -4059.9895      3.4342985      1.109392       49114.227    
  13380000   377.78145      14997.16      -1026.2057      6128.3366      2565.0543      16209.157     -4092.1604     -4.7969396      1.089382       50016.365    
  13400000   377.69253      15036.757     -1034.573       6118.6624      2539.9484      16217.377     -4031.7682      11.380525      1.0949389      49762.53     
  13420000   384.1281       14995.986     -1106.8155      6133.1092      2596.0547      16224.513     -4067.1906     -0.83314371     1.0961515      49707.48     
  13440000   382.04273      14945.536     -1085.5925      6142.163       2496.8556      16243.197     -4070.367       2.0166179      1.1014323      49469.158    
  13460000   378.84626      14812.101     -1173.7137      6140.3971      2556.8147      16166.17      -4099.8567      5.2468845      1.1153656      48851.181    
  13480000   373.90793      15020.533     -1121.8267      6139.531       2521.7949      16342.315     -4075.4106     -3.4652773      1.097292       49655.817    
  13500000   381.63605      15001.95      -1114.1974      6118.0496      2593.0246      16294.131     -4112.6415      5.4872338      1.1068487      49227.08     
  13520000   376.11912      14948.263     -1102.9725      6126.2882      2522.6049      16268.231     -4064.9993     -17.326763      1.0937869      49814.941    
  13540000   377.9527       15032.964     -1017.2091      6143.9055      2550.6158      16224.989     -4088.0402      1.7142405      1.0930215      49849.825    
  13560000   382.86698      15012.285     -1067.8936      6130.2417      2550.9962      16278.168     -4101.7167      6.2386586      1.1024328      49424.263    
  13580000   385.34718      14983.513     -1081.3593      6145.074       2533.3587      16240.548     -4072.4495      1.0954592      1.0989634      49580.294    
  13600000   380.95932      15048.936     -1053.91        6124.386       2568.0742      16257.938     -4072.0315      7.866898       1.1000583      49530.948    
  13620000   388.80043      15029.185     -1047.0991      6133.4312      2520.7764      16286.331     -4082.0164      1.2544942      1.1048781      49314.876    
  13640000   384.55245      14942.459     -1071.1482      6125.163       2501.0735      16292.133     -4130.5957      9.3929685      1.1046739      49323.994    
  13660000   383.85582      15020.267     -1068.6182      6135.3141      2553.6047      16252.51      -4075.0644      4.3420925      1.091793       49905.915    
  13680000   381.49622      14979.925     -1085.1328      6150.1439      2507.2627      16213.954     -4032.2358      8.8568583      1.0919008      49900.989    
  13700000   385.35995      15189.033     -1088.1854      6150.7765      2631.5805      16382.061     -4106.014       2.6233246      1.1010945      49484.336    
  13720000   385.83113      15041.644     -1027.3078      6122.9853      2599.6071      16258.916     -4139.4898      9.0372161      1.0938751      49810.925    
  13740000   381.03393      15096.942     -1106.3073      6138.8701      2583.7006      16374.195     -4116.0097      5.3109367      1.0941651      49797.72     
  13760000   377.8218       14849.248     -1023.1561      6138.3533      2411.2702      16197.547     -4107.0047      14.498226      1.0931698      49843.063    
  13780000   374.36738      15145.458     -1087.2182      6160.5669      2665.6254      16234.377     -4055.9447      11.035068      1.100055       49531.096    
  13800000   382.5269       14984.486     -1047.4775      6149.2142      2542.2948      16175.108     -4061.5219      9.6509885      1.1019268      49446.959    
  13820000   382.64032      14883.599     -1092.8585      6133.3115      2449.4927      16219.489     -4046.0673      2.9718266      1.0978553      49630.337    
  13840000   380.95846      14997.651     -1106.3386      6148.0914      2532.6119      16276.567     -4069.063      -2.6476901      1.1033291      49384.114    
  13860000   374.58786      14929.607     -1085.5189      6143.0843      2529.5628      16170.924     -4060.9512      15.938454      1.0979636      49625.442    
  13880000   389.07237      15003.435     -1129.7581      6141.7017      2619.4381      16252.282     -4093.2638     -4.1538306      1.0930699      49847.617    
  13900000   385.71398      15056.507     -1095.171       6135.1115      2628.6832      16253.758     -4092.0987      10.087109      1.1058961      49269.485    
  13920000   379.50873      15024.141     -1074.2797      6133.5756      2584.7083      16218.792     -4059.4104      3.5159807      1.1049798      49310.341    
  13940000   384.15163      15064.471     -1080.0269      6144.3071      2570.9533      16251.303     -4048.3374      10.633107      1.1058203      49272.861    
  13960000   376.06779      15043.462     -1101.2215      6125.2763      2581.808       16364.133     -4147.2763      4.3004126      1.0943648      49788.635    
  13980000   383.62154      14927.445     -1084.9926      6115.8344      2545.1434      16230.608     -4095.7429      0.24137706     1.0956485      49730.299    
  14000000   381.68799      14927.094     -1119.0812      6150.1117      2497.9327      16256.442     -4084.887       9.0438459      1.108283       49163.37     
  14020000   378.93766      15110.631     -1079.3897      6126.9159      2683.1619      16241.808     -4083.6439      5.7537442      1.0896334      50004.829    
  14040000   382.12785      15004.354     -1037.6737      6145.234       2557.8108      16181.704     -4063.496       2.6305317      1.0934423      49830.641    
  14060000   386.34713      15062.534     -1103.8529      6135.4445      2630.6598      16256.525     -4082.1007      8.8534277      1.0988253      49586.528    
  14080000   377.88907      15038.407     -1118.5986      6137.6549      2621.8859      16257.201     -4077.1125      0.86023276     1.0965708      49688.474    
  14100000   381.25091      15015.749     -1086.4793      6158.3058      2564.2724      16218.383     -4056.8193      0.3172533      1.1077392      49187.508    
  14120000   378.94553      14921.825     -1088.4067      6147.1406      2553.9913      16156.878     -4074.9593      9.4212644      1.107282       49207.816    
  14140000   383.27465      14922.733     -1071.0588      6140.2163      2510.7723      16166.293     -4043.9615      4.2676255      1.1059972      49264.978    
  14160000   375.95955      15111.524     -1079.1851      6131.9414      2551.7258      16397.067     -4120.6803      13.059473      1.098102       49619.186    
  14180000   379.33486      15112.588     -1061.2579      6127.2221      2655.4816      16252.164     -4074.4538     -5.1003223      1.1061542      49257.987    
  14200000   373.38995      14963.006     -1070.0971      6131.302       2576.558       16234.771     -4128.6152      2.0560128      1.0923864      49878.805    
  14220000   391.24057      14991.08      -1131.9418      6124.4584      2621.7596      16285.818     -4119.4569     -7.4141921      1.1119296      49002.141    
  14240000   379.43608      14941.131     -1008.2544      6148.5231      2529.0656      16166.129     -4122.7499      10.473801      1.0902284      49977.538    
  14260000   383.57499      14971.145     -1071.2288      6127.433       2569.0463      16224.042     -4102.9571      7.1812952      1.1040564      49351.579    
  14280000   374.65833      14945.025     -1063.4883      6125.6446      2572.9698      16186.561     -4095.5759      1.0497686      1.0972699      49656.815    
  14300000   381.27466      14973.232     -1108.6902      6142.4213      2490.4226      16310.776     -4080.7638      1.1519397      1.0928153      49859.232    
  14320000   381.61481      15019.485     -1105.1604      6126.4965      2576.5992      16320.13      -4108.3963     -9.6358899      1.0948201      49767.93     
  14340000   383.89117      14941.117     -1109.0058      6136.0344      2547.8243      16179.674     -4048.3165      16.125436      1.0975569      49643.833    
  14360000   384.5904       14959.875     -1068.8135      6158.7423      2519.6906      16184.388     -4048.4194     -3.9728783      1.0917627      49907.301    
  14380000   379.31168      14982.457     -1103.2403      6136.2311      2641.8429      16204.212     -4116.8477      0.73232823     1.0937636      49816.004    
  14400000   380.60078      14991.939     -1111.8646      6138.6486      2527.4771      16283.342     -4065.0167      2.2075532      1.1055339      49285.626    
  14400102   381.03322      15033.195     -1074.1652      6139.9254      2513.9557      16272.784     -4035.5525     -0.65205137     1.1061182      49259.591    
Loop time of 4104.93 on 24 procs for 1200000 steps with 4952 atoms

Performance: 6.314 ns/day, 3.801 hours/ns, 292.331 timesteps/s, 1.448 Matom-step/s
99.5% CPU use with 24 MPI tasks x no OpenMP threads

MPI task timing breakdown:
Section |  min time  |  avg time  |  max time  |%varavg| %total
---------------------------------------------------------------
Pair    | 2045.2     | 2253       | 2493.6     | 306.9 | 54.89
Bond    | 733.09     | 801.65     | 915.67     | 172.5 | 19.53
Kspace  | 566.03     | 844.84     | 1088.6     | 591.3 | 20.58
Neigh   | 28.514     | 28.56      | 28.597     |   0.6 |  0.70
Comm    | 123.4      | 126.32     | 128.51     |  10.2 |  3.08
Output  | 0.0029565  | 0.0032739  | 0.0098133  |   2.4 |  0.00
Modify  | 31.765     | 36.646     | 40.027     |  38.1 |  0.89
Other   |            | 13.91      |            |       |  0.34

Nlocal:        206.333 ave         235 max         191 min
Histogram: 2 2 9 5 2 1 1 1 0 1
Nghost:        4916.71 ave        4957 max        4867 min
Histogram: 1 1 2 2 4 3 3 3 3 2
Neighs:        74951.8 ave       84664 max       63229 min
Histogram: 1 0 5 2 1 2 5 5 1 2

Total # of neighbors = 1798843
Ave neighs/atom = 363.25586
Ave special neighs/atom = 6.4321486
Neighbor list builds = 9917
Dangerous builds = 0
unfix           fNPT
unfix           fMOM
next            a
jump            SELF loop
variable        a loop 26
variable        b equal 600-20*($a-1)
variable        b equal 600-20*(13-1)
fix             fMOM all momentum 100 linear 1 1 1 angular
fix             fNPT all npt temp $b $b $(100.0*dt) iso 1 1 $(100.0*dt)
fix             fNPT all npt temp 360 $b $(100.0*dt) iso 1 1 $(100.0*dt)
fix             fNPT all npt temp 360 360 $(100.0*dt) iso 1 1 $(100.0*dt)
fix             fNPT all npt temp 360 360 25 iso 1 1 $(100.0*dt)
fix             fNPT all npt temp 360 360 25 iso 1 1 25
run             1200000
PPPM initialization ...
  using 12-bit tables for long-range coulomb (../kspace.cpp:342)
  G vector (1/distance) = 0.15629653
  grid = 6 6 6
  stencil order = 5
  estimated absolute RMS force accuracy = 0.27110495
  estimated relative force accuracy = 0.00081642452
  using double precision KISS FFT
  3d grid and FFT values/proc = 392 12
Generated 45 of 45 mixed pair_coeff terms from sixthpower/sixthpower mixing rule
WARNING: Inconsistent image flags (../domain.cpp:815)
Per MPI rank memory allocation (min/avg/max) = 16.13 | 16.14 | 16.14 Mbytes
   Step          Temp          PotEng         E_vdwl         E_coul         E_bond        E_angle        E_dihed        E_impro        Density         Volume    
  14400102   381.03322      15033.268     -1074.1652      6151.8636      2513.9557      16272.784     -4035.5525     -0.65205137     1.1061182      49259.591    
  14420000   359.87087      14685.757     -1110.1315      6125.3526      2419.5995      16179.129     -4133.4621     -0.87886339     1.1162333      48813.207    
  14440000   359.08559      14639.416     -1114.7814      6131.2012      2475.7118      16114.893     -4164.512      -8.4450136      1.1031594      49391.71     
  14460000   365.80354      14682.288     -1154.5374      6139.7774      2441.8042      16129.949     -4086.4854      6.3405603      1.1159439      48825.866    
  14480000   355.74902      14545.847     -1180.6661      6148.1027      2429.2416      16083.74      -4128.5523     -11.626139      1.1051939      49300.785    
  14500000   360.57219      14765.892     -1100.2665      6134.0792      2440.9143      16206.57      -4124.7533      4.0859738      1.1097457      49098.57     
  14520000   367.37867      14839.777     -1101.3616      6150.0142      2437.2333      16248.337     -4102.4179      2.6432271      1.0987915      49588.05     
  14540000   362.38361      14709.917     -1128.1162      6161.4283      2451.8465      16153.511     -4129.7895     -4.0486086      1.1034223      49379.943    
  14560000   358.54142      14765.465     -1174.8425      6143.7756      2484.094       16169.257     -4060.0081     -1.6841874      1.1096624      49102.258    
  14580000   372.54807      14675.855     -1087.4991      6150.8079      2446.6049      16119.34      -4155.3764     -4.139942       1.0955353      49735.437    
  14600000   362.32302      14687.541     -1037.0618      6159.0101      2429.1166      16041.979     -4116.1032      4.1195556      1.1056405      49280.874    
  14620000   359.80374      14684.178     -1110.4939      6172.3836      2414.8675      16057.277     -4056.0561      0.34155214     1.1016613      49458.874    
  14640000   360.2942       14645.276     -1108.4167      6143.2186      2427.9192      16107.282     -4126.1869     -3.9723628      1.1009629      49490.251    
  14660000   361.21631      14694.323     -1061.2503      6176.8383      2345.0056      16144.15      -4111.4123     -4.8886397      1.1011375      49482.404    
  14680000   360.90643      14718.758     -1099.127       6152.9851      2474.12        16087.626     -4111.2079      9.045943       1.0963407      49698.902    
  14700000   361.75685      14866.866     -1080.2202      6156.1779      2458.2759      16234.096     -4104.0882     -1.8179574      1.0950162      49759.015    
  14720000   355.716        14760.822     -1097.7778      6165.2647      2494.2526      16046.632     -4052.1258      0.60886403     1.0998185      49541.745    
  14740000   358.78623      14715.565     -1106.2048      6147.9955      2422.5197      16177.69      -4131.6829     -0.19521651     1.1044405      49334.418    
  14760000   362.5601       14633.433     -1090.0253      6166.3795      2392.2721      16037.992     -4077.4383     -3.4656557      1.1060253      49263.729    
  14780000   355.42643      14618.255     -1118.6522      6163.2506      2390.3527      16073.158     -4099.7527      4.9346182      1.1133192      48940.976    
  14800000   364.45736      14711.834     -1094.3497      6182.3911      2432.6029      16048.06      -4077.0066      12.782962      1.1042202      49344.261    
  14820000   364.29286      14682.383     -1090.4086      6170.0614      2412.1725      16129.042     -4148.798       4.1129041      1.1060507      49262.597    
  14840000   367.60849      14779.705     -1081.597       6135.4982      2415.6714      16150.342     -4049.756       6.1647885      1.1039047      49358.362    
  14860000   360.13309      14665.409     -1138.1671      6145.5728      2421.902       16096.125     -4086.5788      20.272428      1.1036637      49369.141    
  14880000   349.15076      14678.743     -1107.555       6153.2731      2462.0143      16080.836     -4127.9052      12.019137      1.106663       49235.342    
  14900000   360.03166      14823.379     -1105.0662      6149.0861      2501.388       16160.993     -4094.7724      5.1765559      1.1108441      49050.021    
  14920000   356.40042      14688.775     -1163.6571      6150.2058      2425.1238      16179.278     -4109.0385      0.78806793     1.111216       49033.609    
  14940000   356.9288       14581.754     -1151.3091      6158.0971      2376.4169      16112.49      -4113.5126     -6.7358623      1.11114        49036.96     
  14960000   357.42508      14726.794     -1119.6558      6171.4607      2474.442       16074.925     -4080.8814     -0.45041908     1.1062436      49254.005    
  14980000   362.67555      14658.041     -1113.1327      6160.6884      2494.909       16039.963     -4125.1887     -5.3539434      1.1063613      49248.768    
  15000000   360.67555      14718.633     -1147.4575      6158.9853      2470.54        16175.58      -4143.2292     -0.71895402     1.1087032      49144.737    
  15020000   350.80887      14627.742     -1163.6907      6163.473       2468.6344      16064.191     -4100.3944     -9.4290364      1.1128261      48962.665    
  15040000   356.45813      14747.935     -1108.2293      6165.8461      2460.8983      16134.066     -4125.7494      14.890268      1.105544       49285.177    
  15060000   361.28036      14646.383     -1100.4957      6158.3203      2428.648       16105.42      -4153.9077      2.3581505      1.1104416      49067.801    
  15080000   360.83192      14660.904     -1154.4839      6154.6495      2442.7219      16062.732     -4049.7631     -1.8391921      1.1109574      49045.021    
  15100000   354.10284      14720.028     -1148.1797      6182.7768      2406.0799      16190.673     -4113.8074     -2.7483119      1.1097211      49099.66     
  15120000   360.07243      14803.4       -1145.7521      6156.8637      2483.7607      16237.147     -4137.6528      3.5790128      1.1107887      49052.472    
  15140000   358.68992      14573.396     -1157.3925      6173.079       2342.092       16092.278     -4091.0606      8.8743859      1.1093396      49116.545    
  15160000   361.41785      14707.884     -1103.8418      6144.4757      2479.9808      16083.318     -4110.456       8.3713399      1.1051668      49301.996    
  15180000   366.93922      14630.652     -1119.3323      6135.2431      2400.6072      16148.387     -4137.7808     -1.9605334      1.1117486      49010.118    
  15200000   350.22236      14768.215     -1144.5274      6146.8437      2478.9291      16181.729     -4092.5328     -6.7964131      1.1136819      48925.04     
  15220000   369.59155      14760.061     -1088.6585      6141.2736      2531.3289      16044.49      -4081.2904      7.596688       1.1065516      49240.297    
  15240000   351.24598      14684.114     -1136.0761      6157.3593      2489.2441      16066.828     -4095.6784     -1.430813       1.1086714      49146.148    
  15260000   360.62907      14744.862     -1122.2677      6176.9303      2496.1701      16058.841     -4059.6575     -9.8163503      1.1076176      49192.905    
  15280000   363.40073      14770.437     -1110.4576      6134.7283      2502.5136      16175.286     -4133.1911     -2.8581919      1.1028445      49405.813    
  15300000   358.58646      14580.082     -1154.6         6161.5215      2410.7521      16071.719     -4106.6349     -6.839709       1.1150727      48864.016    
  15320000   355.78026      14786.421     -1129.2861      6159.3723      2462.7324      16202.522     -4111.0807     -2.4723795      1.112833       48962.361    
  15340000   367.14297      14727.682     -1109.6218      6161.9188      2450.6106      16154.551     -4127.5675     -5.5896426      1.1116297      49015.358    
  15360000   367.39679      14796.937     -1123.7915      6161.9249      2472.7658      16136.975     -4057.6245      1.2669604      1.1040367      49352.463    
  15380000   362.37496      14797.156     -1124.2452      6157.4062      2496.959       16167.032     -4114.2389      9.1832245      1.1077825      49185.585    
  15400000   357.86528      14806.765     -1111.7753      6151.3669      2488.7236      16193.872     -4119.3717     -1.1026163      1.1094921      49109.794    
  15420000   343.80802      14701.772     -1138.0195      6154.1802      2434.8287      16140.419     -4097.4621      2.8845709      1.1110912      49039.114    
  15440000   357.81458      14738.79      -1097.9821      6152.627       2386.9135      16193         -4102.2838      2.0238972      1.1037669      49364.527    
  15460000   356.77039      14548.544     -1093.7336      6139.116       2314.1456      16045.686     -4079.6759      17.249145      1.0980035      49623.639    
  15480000   362.63449      14762.39      -1127.2671      6155.0836      2468.4724      16206.968     -4144.0356     -2.8004779      1.0982694      49611.625    
  15500000   363.69345      14702.593     -1128.3368      6160.2104      2420.9635      16147.745     -4113.5626      8.9444158      1.1034898      49376.924    
  15520000   351.63988      14657.117     -1111.4942      6152.08        2496.3974      16033.034     -4115.7331     -2.5168509      1.1060565      49262.336    
  15540000   359.02047      14796.412     -1107.1611      6150.0444      2444.7013      16198.11      -4099.118       4.0571946      1.1083515      49160.335    
  15560000   352.89439      14769.849     -1149.0754      6149.28        2454.8145      16137.972     -4041.3455      14.21169       1.1083141      49161.991    
  15580000   360.02599      14622.716     -1149.7834      6141.5713      2423.1911      16112.568     -4112.0531      1.219798       1.1126912      48968.6      
  15600000   360.89382      14644.895     -1152.3997      6150.3705      2489.6139      16013.064     -4063.3486      2.0085475      1.1099402      49089.967    
  15600102   358.30113      14730.254     -1135.6215      6155.9383      2416.7423      16122.896     -4034.1653     -0.78237263     1.1101684      49079.876    
Loop time of 4105.95 on 24 procs for 1200000 steps with 4952 atoms

Performance: 6.313 ns/day, 3.802 hours/ns, 292.259 timesteps/s, 1.447 Matom-step/s
99.5% CPU use with 24 MPI tasks x no OpenMP threads

MPI task timing breakdown:
Section |  min time  |  avg time  |  max time  |%varavg| %total
---------------------------------------------------------------
Pair    | 2035.3     | 2267.6     | 2527.4     | 294.4 | 55.23
Bond    | 730.98     | 801.26     | 908.87     | 171.7 | 19.51
Kspace  | 532.86     | 832.58     | 1083.9     | 568.0 | 20.28
Neigh   | 27.381     | 27.429     | 27.475     |   0.6 |  0.67
Comm    | 123.95     | 126.58     | 129.01     |  10.0 |  3.08
Output  | 0.0047026  | 0.0054087  | 0.021023   |   4.4 |  0.00
Modify  | 31.635     | 36.566     | 39.481     |  37.8 |  0.89
Other   |            | 13.93      |            |       |  0.34

Nlocal:        206.333 ave         224 max         189 min
Histogram: 1 1 3 4 4 4 2 1 2 2
Nghost:        4923.83 ave        4983 max        4857 min
Histogram: 2 0 2 2 5 4 2 3 3 1
Neighs:        75227.2 ave       83689 max       67462 min
Histogram: 2 3 4 1 0 4 5 2 1 2

Total # of neighbors = 1805454
Ave neighs/atom = 364.59087
Ave special neighs/atom = 6.4321486
Neighbor list builds = 9457
Dangerous builds = 0
unfix           fNPT
unfix           fMOM
next            a
jump            SELF loop
variable        a loop 26
variable        b equal 600-20*($a-1)
variable        b equal 600-20*(14-1)
fix             fMOM all momentum 100 linear 1 1 1 angular
fix             fNPT all npt temp $b $b $(100.0*dt) iso 1 1 $(100.0*dt)
fix             fNPT all npt temp 340 $b $(100.0*dt) iso 1 1 $(100.0*dt)
fix             fNPT all npt temp 340 340 $(100.0*dt) iso 1 1 $(100.0*dt)
fix             fNPT all npt temp 340 340 25 iso 1 1 $(100.0*dt)
fix             fNPT all npt temp 340 340 25 iso 1 1 25
run             1200000
PPPM initialization ...
  using 12-bit tables for long-range coulomb (../kspace.cpp:342)
  G vector (1/distance) = 0.15641191
  grid = 6 6 6
  stencil order = 5
  estimated absolute RMS force accuracy = 0.27062267
  estimated relative force accuracy = 0.00081497212
  using double precision KISS FFT
  3d grid and FFT values/proc = 392 12
Generated 45 of 45 mixed pair_coeff terms from sixthpower/sixthpower mixing rule
WARNING: Inconsistent image flags (../domain.cpp:815)
Per MPI rank memory allocation (min/avg/max) = 16.13 | 16.14 | 16.14 Mbytes
   Step          Temp          PotEng         E_vdwl         E_coul         E_bond        E_angle        E_dihed        E_impro        Density         Volume    
  15600102   358.30113      14730.224     -1135.6215      6159.4362      2416.7423      16122.896     -4034.1653     -0.78237263     1.1101684      49079.876    
  15620000   338.54711      14245.437     -1163.283       6141.747       2273.5739      15938.762     -4151.533       4.8640632      1.1156919      48836.898    
  15640000   338.70638      14295.271     -1154.1538      6148.4796      2251.2162      15997.497     -4134.6702     -13.297903      1.1162932      48810.59     
  15660000   341.31243      14366.569     -1160.3532      6153.528       2332.8352      15964.928     -4117.4872     -7.9669486      1.1014204      49469.692    
  15680000   342.43712      14464.266     -1174.5531      6158.3874      2309.2442      16063.457     -4099.2243      4.5530699      1.1054252      49290.469    
  15700000   344.83451      14357.811     -1111.3673      6149.3095      2313.8544      15911.213     -4097.7407     -8.0905499      1.1011655      49481.144    
  15720000   333.37788      14417.34      -1163.5869      6154.2133      2356.9898      16016.06      -4133.0673     -13.265116      1.1139434      48913.552    
  15740000   334.89614      14399.036     -1147.4179      6136.269       2394.7015      15911.669     -4096.8703      0.32392114     1.1085404      49151.956    
  15760000   334.57867      14464.636     -1135.0143      6166.3921      2289.8686      16045.494     -4106.6656      3.8330463      1.1138947      48915.689    
  15780000   335.0724       14362.564     -1179.8531      6148.376       2333.5093      15990.386     -4131.5678     -0.35996854     1.1125781      48973.577    
  15800000   341.17019      14292.874     -1150.1502      6149.0915      2375.7237      15858.085     -4146.4995      5.2207626      1.1060279      49263.612    
  15820000   341.54888      14372.499     -1158.1581      6149.0704      2303.3515      16034.627     -4155.8083     -1.8755503      1.1017547      49454.683    
  15840000   337.22533      14436.631     -1092.1977      6169.6455      2338.1358      15955.413     -4134.1929     -2.6019185      1.0994799      49557.003    
  15860000   336.87148      14402.257     -1149.158       6152.1517      2268.9027      16008.452     -4080.7339      2.7202059      1.105661       49279.96     
  15880000   334.82098      14471.207     -1067.2877      6138.5672      2390.5983      15899.632     -4093.9497      1.5451842      1.1000634      49530.717    
  15900000   345.10445      14412.558     -1144.2196      6161.0641      2256.1269      16039         -4101.4464      0.87926858     1.1077286      49187.975    
  15920000   342.80915      14340.965     -1119.0966      6147.4163      2320.9402      15943.436     -4150.3897     -2.6987367      1.1088061      49140.177    
  15940000   343.83795      14379.769     -1139.1935      6156.0115      2285.0038      15946.395     -4064.5679     -4.5388635      1.1104459      49067.612    
  15960000   340.32004      14209.531     -1164.0026      6150.3036      2223.1015      15966.158     -4162.9301     -4.5078079      1.118872       48698.091    
  15980000   339.76013      14383.405     -1124.6371      6129.8703      2340.9288      15945.876     -4112.4395      4.0693007      1.1067699      49230.583    
  16000000   347.21678      14334.226     -1122.3074      6151.7245      2319.6031      15910.811     -4113.5768     -13.754997      1.0989491      49580.94     
  16020000   336.17443      14401.366     -1163.9095      6145.0771      2317.9868      16048.202     -4148.1606     -0.70476229     1.1160391      48821.702    
  16040000   342.6903       14346.985     -1185.5841      6159.8255      2342.1883      15951.544     -4124.3382      1.5737214      1.1212086      48596.604    
  16060000   341.03931      14387.678     -1156.1292      6149.5318      2313.6781      16018.778     -4148.7988      9.9085666      1.1089535      49133.645    
  16080000   335.96762      14359.76      -1163.1967      6148.1687      2309.9822      15977.972     -4113.1764     -2.4111636      1.1187724      48702.427    
  16100000   338.8469       14306.922     -1241.48        6139.8948      2324.0425      16030.122     -4144.3499     -2.9811945      1.1147254      48879.238    
  16120000   345.55251      14399.384     -1134.4418      6148.1199      2296.0907      16041.081     -4148.5221     -4.5153831      1.1063318      49250.08     
  16140000   348.45448      14291.486     -1192.9013      6148.6089      2355.958       15937.404     -4156.545      -2.1409045      1.1069672      49221.811    
  16160000   339.13071      14424.268     -1170.3257      6140.7809      2352.7933      16062.413     -4150.0913     -12.488443      1.1211007      48601.282    
  16180000   342.13697      14423.943     -1167.8835      6145.3108      2315.971       16051.738     -4117.2488     -6.0978374      1.1035137      49375.85     
  16200000   339.33154      14372.048     -1197.3932      6146.6422      2336.4992      16016.446     -4132.9288      1.2212478      1.1150868      48863.398    
  16220000   343.34027      14494.822     -1182.1847      6138.0328      2437.5297      15967.211     -4075.8486      7.7765857      1.1083304      49161.268    
  16240000   337.30839      14421.19      -1186.811       6156.9605      2319.9263      15997.2       -4061.9036     -5.2982584      1.1156846      48837.216    
  16260000   336.81859      14384.787     -1188.6304      6153.8079      2332.187       15991.495     -4093.1682     -12.219222      1.1244324      48457.273    
  16280000   340.3615       14348.491     -1184.9426      6159.6863      2347.5244      15844.828     -4028.6811      7.6822982      1.1226732      48533.204    
  16300000   334.04249      14348.61      -1197.0819      6139.6225      2335.213       15943.813     -4081.9799      6.0165712      1.1134563      48934.95     
  16320000   332.99115      14412.869     -1140.2028      6156.9903      2279.3205      16011.917     -4101.8384      5.8424042      1.1110118      49042.618    
  16340000   336.08282      14336.681     -1167.4393      6161.5334      2286.0438      15936.263     -4078.6488     -2.9679177      1.1081568      49168.973    
  16360000   345.9143       14342.451     -1192.4754      6152.1345      2370.2122      15925.286     -4112.9214     -1.6123801      1.1160166      48822.687    
  16380000   336.44504      14377.129     -1147.277       6136.9954      2340.4796      15950.701     -4100.7571     -3.9724586      1.1134745      48934.15     
  16400000   347.928        14517.15      -1163.4597      6167.1085      2279.8922      16112.42      -4084.8434      5.2691055      1.1145504      48886.914    
  16420000   341.41356      14379.839     -1152.6335      6154.3157      2259.6131      16072.221     -4148.9661     -5.4683213      1.1105919      49061.16     
  16440000   337.62445      14275.556     -1167.6721      6151.9335      2265.1887      15911.611     -4078.4283     -7.3076995      1.1078003      49184.794    
  16460000   339.8267       14343.976     -1170.5306      6150.8947      2337.7361      15915.535     -4094.7297      3.3117381      1.0978829      49629.09     
  16480000   335.40658      14369.957     -1156.1524      6150.3229      2318.6484      15977.103     -4117.948      -3.163913       1.1211589      48598.758    
  16500000   345.17304      14383.302     -1098.234       6143.9644      2222.5743      16047.069     -4133.8323      0.63916002     1.1130617      48952.301    
  16520000   338.41545      14313.401     -1140.3105      6157.5581      2314.2787      15928.573     -4140.5921     -7.1482767      1.1115637      49018.271    
  16540000   342.85903      14368.827     -1115.5834      6160.8161      2332.8394      15896.455     -4099.7847     -6.4502198      1.1112945      49030.143    
  16560000   339.5814       14438.122     -1171.4057      6158.8479      2364.7119      16007.711     -4123.8973      1.5359961      1.1158774      48828.78     
  16580000   340.57629      14408.193     -1190.4654      6157.3116      2361.5323      16011.674     -4140.7301      6.5734598      1.1206623      48620.294    
  16600000   339.21545      14301.707     -1124.574       6150.8049      2249.7824      15954.445     -4124.749      -5.2449345      1.1071151      49215.233    
  16620000   344.52377      14467.165     -1163.1821      6137.3756      2360.8942      16019.186     -4099.1666      10.023033      1.1103003      49074.048    
  16640000   340.7343       14451.331     -1187.2286      6145.5743      2407.6765      16012.712     -4129.042      -0.094759684    1.1112803      49030.772    
  16660000   340.09489      14397.891     -1180.1007      6167.0657      2340.1916      15960.975     -4082.2014     -8.3488383      1.113993       48911.375    
  16680000   337.95119      14434.368     -1153.1907      6157.4223      2370.3007      15983.499     -4115.4481     -9.512142       1.1088092      49140.039    
  16700000   342.15511      14364.512     -1205.4681      6159.7952      2385.8076      15940.353     -4113.2048     -4.2246604      1.1128702      48960.722    
  16720000   345.54693      14386.281     -1161.71        6149.154       2366.1111      15986.699     -4149.409      -6.0246389      1.111047       49041.064    
  16740000   341.23835      14356.042     -1144.3509      6153.3844      2312.6416      16017.831     -4175.7559     -10.760221      1.112224       48989.169    
  16760000   340.87101      14374.339     -1152.2931      6147.077       2287.2508      15965.03      -4094.2952      20.038621      1.1133577      48939.286    
  16780000   337.21604      14339.504     -1173.0884      6155.1046      2292.941       16016.207     -4149.3552     -5.0041016      1.1194375      48673.49     
  16800000   333.12579      14358.726     -1181.2788      6139.4453      2309.4171      15994.622     -4111.8728      6.2404973      1.11262        48971.731    
  16800102   339.6946       14331.093     -1172.6396      6145.0859      2326.1734      15972.98      -4147.6078      4.6889621      1.1119347      49001.915    
Loop time of 4095.31 on 24 procs for 1200000 steps with 4952 atoms

Performance: 6.329 ns/day, 3.792 hours/ns, 293.018 timesteps/s, 1.451 Matom-step/s
99.5% CPU use with 24 MPI tasks x no OpenMP threads

MPI task timing breakdown:
Section |  min time  |  avg time  |  max time  |%varavg| %total
---------------------------------------------------------------
Pair    | 2022.4     | 2265       | 2494.5     | 308.3 | 55.31
Bond    | 714.42     | 800.76     | 905.93     | 179.7 | 19.55
Kspace  | 565.62     | 824.16     | 1137.6     | 601.4 | 20.12
Neigh   | 26.247     | 26.28      | 26.301     |   0.3 |  0.64
Comm    | 124.85     | 127.62     | 130.16     |  10.9 |  3.12
Output  | 0.0028806  | 0.0035255  | 0.017692   |   5.0 |  0.00
Modify  | 32.636     | 37.446     | 40.457     |  36.2 |  0.91
Other   |            | 13.99      |            |       |  0.34

Nlocal:        206.333 ave         226 max         191 min
Histogram: 3 2 3 4 2 2 2 2 1 3
Nghost:        4937.79 ave        4984 max        4891 min
Histogram: 2 1 3 5 1 3 3 1 2 3
Neighs:        75376.6 ave       87099 max       65994 min
Histogram: 2 4 2 4 0 4 4 3 0 1

Total # of neighbors = 1809038
Ave neighs/atom = 365.31462
Ave special neighs/atom = 6.4321486
Neighbor list builds = 9036
Dangerous builds = 0
unfix           fNPT
unfix           fMOM
next            a
jump            SELF loop
variable        a loop 26
variable        b equal 600-20*($a-1)
variable        b equal 600-20*(15-1)
fix             fMOM all momentum 100 linear 1 1 1 angular
fix             fNPT all npt temp $b $b $(100.0*dt) iso 1 1 $(100.0*dt)
fix             fNPT all npt temp 320 $b $(100.0*dt) iso 1 1 $(100.0*dt)
fix             fNPT all npt temp 320 320 $(100.0*dt) iso 1 1 $(100.0*dt)
fix             fNPT all npt temp 320 320 25 iso 1 1 $(100.0*dt)
fix             fNPT all npt temp 320 320 25 iso 1 1 25
run             1200000
PPPM initialization ...
  using 12-bit tables for long-range coulomb (../kspace.cpp:342)
  G vector (1/distance) = 0.1564621
  grid = 6 6 6
  stencil order = 5
  estimated absolute RMS force accuracy = 0.27041289
  estimated relative force accuracy = 0.00081434038
  using double precision KISS FFT
  3d grid and FFT values/proc = 392 12
Generated 45 of 45 mixed pair_coeff terms from sixthpower/sixthpower mixing rule
WARNING: Inconsistent image flags (../domain.cpp:815)
Per MPI rank memory allocation (min/avg/max) = 16.13 | 16.14 | 16.14 Mbytes
   Step          Temp          PotEng         E_vdwl         E_coul         E_bond        E_angle        E_dihed        E_impro        Density         Volume    
  16800102   339.6946       14331.094     -1172.6396      6146.6212      2326.1734      15972.98      -4147.6078      4.6889621      1.1119347      49001.915    
  16820000   318.08299      14066.908     -1156.3431      6142.4966      2169.7815      15848.417     -4127.9151     -10.153043      1.1190148      48691.874    
  16840000   320.19267      14035.587     -1202.9898      6157.3963      2174.0958      15883.523     -4159.061      -18.648233      1.1247189      48444.929    
  16860000   330.41071      14075.332     -1258.575       6156.5298      2177.9925      15946.404     -4143.6493     -4.6585074      1.1189566      48694.408    
  16880000   309.66717      14065.477     -1170.5029      6142.6675      2214.7201      15827.578     -4149.6374     -1.0282371      1.1178225      48743.811    
  16900000   318.73189      14043.132     -1217.1162      6155.8307      2198.3465      15813.357     -4104.0531     -3.5950194      1.1056925      49278.557    
  16920000   316.92913      14092.597     -1190.3388      6163.0083      2158.387       15897.752     -4133.7081     -2.9827937      1.1166056      48796.933    
  16940000   317.07294      14063.886     -1156.655       6127.319       2172.4475      15846.835     -4126.3927     -1.0584033      1.1215727      48580.826    
  16960000   318.86753      14116.6       -1177.009       6157.0317      2175.4552      15851.533     -4084.2408     -5.6863051      1.1162223      48813.692    
  16980000   318.05055      14094.123     -1181.3537      6147.4916      2195.7352      15859.992     -4126.0916     -1.1247459      1.1213859      48588.92     
  17000000   319.30601      14162.38      -1218.8936      6146.2252      2317.7822      15843.21      -4118.5138     -7.3343253      1.1079727      49177.143    
  17020000   322.53405      14023.507     -1241.8033      6154.8343      2203.0307      15852.462     -4148.7346      2.4150017      1.1218595      48568.406    
  17040000   321.64877      14074.366     -1233.438       6152.1851      2233.494       15864.084     -4137.3681     -4.7960767      1.1121894      48990.692    
  17060000   325.85963      14004.506     -1200.8964      6141.0614      2222.0525      15777.644     -4131.1922     -4.5880803      1.1099658      49088.835    
  17080000   324.58222      14171.772     -1207.0158      6151.2941      2246.9572      15887.098     -4110.2406      3.8407288      1.111793       49008.159    
  17100000   320.17846      14098.934     -1171.7501      6142.7952      2224.5213      15834.546     -4134.8233      3.3407743      1.1199558      48650.964    
  17120000   315.0732       14106.076     -1151.8208      6143.1534      2256.9172      15820.13      -4157.9292     -3.8973992      1.115247       48856.378    
  17140000   322.47489      13990.836     -1200.594       6125.2948      2228.4207      15753.446     -4121.3642      6.0839879      1.1205601      48624.727    
  17160000   323.78701      14093.479     -1224.0632      6152.33        2219.4823      15901.95      -4142.8706     -13.961712      1.118215       48726.702    
  17180000   327.15994      14101.855     -1217.0335      6160.5651      2223.5569      15894.632     -4151.4257     -8.4461698      1.1163607      48807.637    
  17200000   319.42239      14069.312     -1165.161       6166.6715      2166.943       15849.618     -4139.4554     -9.2128539      1.1125105      48976.551    
  17220000   324.46144      14088.389     -1185.0129      6147.3594      2154.9404      15916.787     -4150.7121      4.644501       1.1150314      48865.827    
  17240000   322.64971      14184.031     -1127.2685      6147.8191      2220.2714      15845.334     -4101.02       -1.1387955      1.1049971      49309.567    
  17260000   314.9222       14121.699     -1202.4058      6168.2856      2188.0528      15876.448     -4109.5799      0.75684771     1.124421       48457.764    
  17280000   320.23139      14090.388     -1135.5905      6162.5827      2132.4744      15846.469     -4118.3462      0.66547305     1.112917       48958.665    
  17300000   316.08084      14055.89      -1141.545       6156.1231      2222.4739      15776.271     -4144.9059     -12.454432      1.113755       48921.829    
  17320000   317.07356      14062.603     -1165.2736      6142.9752      2189.6891      15787.029     -4091.5798     -1.2633661      1.1148156      48875.284    
  17340000   322.70649      14076.005     -1165.9383      6164.5325      2195.7896      15897.058     -4212.1854     -2.105037       1.1151485      48860.692    
  17360000   329.44165      14049.981     -1177.587       6142.4994      2175.5328      15855.922     -4150.9149      4.6191642      1.1127373      48966.569    
  17380000   321.31857      14163.838     -1208.7596      6153.8343      2248.4284      15918.648     -4153.7465      5.7194883      1.1210636      48602.89     
  17400000   320.79715      14057.585     -1171.0947      6155.548       2195.6102      15819.073     -4142.6242      1.1857957      1.09688        49674.466    
  17420000   314.11715      14099.464     -1118.2273      6137.6578      2182.5448      15825.078     -4120.4722     -6.8549009      1.1084686      49155.141    
  17440000   319.64715      13991.466     -1153.5476      6159.2433      2145.6934      15775.137     -4132.329      -3.5549752      1.1136803      48925.109    
  17460000   322.26566      14106.915     -1118.5575      6147.5959      2214.1174      15791.016     -4125.1196     -2.5642176      1.1139037      48915.296    
  17480000   321.4552       14095.865     -1211.7044      6156.8936      2207.1636      15890.225     -4146.5655     -0.92384494     1.1159813      48824.231    
  17500000   321.8144       14136.541     -1148.3862      6153.7711      2219.1954      15851.025     -4134.5364     -4.0243836      1.111671       49013.536    
  17520000   316.1817       13975.867     -1188.424       6144.7367      2157.8297      15809.021     -4143.7168     -3.7844467      1.1178836      48741.148    
  17540000   320.43177      14150.467     -1131.0992      6147.5934      2236.1737      15831.468     -4138.1429      4.2250995      1.1088185      49139.627    
  17560000   314.56909      14113.895     -1157.3592      6158.0968      2236.0187      15795.944     -4140.542       22.309928      1.111195       49034.535    
  17580000   312.11367      14087.454     -1187.3181      6162.2249      2237.368       15838.28      -4166.5877      3.0129441      1.1152158      48857.747    
  17600000   318.98217      14054.449     -1187.7105      6139.9153      2246.9694      15804.055     -4140.877      -8.4565083      1.1153045      48853.86     
  17620000   319.64907      14086.237     -1164.3806      6149.3395      2208.0924      15834.165     -4135.5019     -6.0101008      1.111662       49013.937    
  17640000   311.92923      14041.126     -1132.4047      6164.3413      2116.3584      15846.439     -4156.9578      2.5972275      1.1093374      49116.642    
  17660000   316.96193      14010.27      -1151.3796      6161.2167      2127.2613      15814.555     -4140.4507     -2.1078305      1.1146042      48884.553    
  17680000   321.02935      14091.783     -1204.5373      6148.3393      2194.7999      15899.428     -4140.4033     -8.0250446      1.1070528      49218.005    
  17700000   320.28244      14023.075     -1166.7771      6148.7556      2200.0539      15794.579     -4146.1219     -7.9554055      1.1142411      48900.483    
  17720000   315.71692      14110.419     -1214.1156      6148.6505      2255.0099      15892.327     -4161.5475     -9.290634       1.1183794      48719.54     
  17740000   319.95544      14015.786     -1221.8635      6156.3985      2211.2014      15777.836     -4110.908       2.3645149      1.1133614      48939.121    
  17760000   315.2385       14034.75      -1213.5436      6156.6805      2236.6356      15788.925     -4140.0481      5.4174656      1.1246031      48449.921    
  17780000   314.72517      14184.895     -1198.4401      6162.3365      2203.9598      15903.373     -4095.9025      9.339293       1.1138965      48915.613    
  17800000   316.91677      14050.543     -1171.2944      6151.8534      2227.541       15802.194     -4153.4458     -6.0785571      1.1220465      48560.313    
  17820000   319.21559      14093.291     -1210.4054      6158.2478      2239.3028      15848.823     -4149.7192      6.5814144      1.1082938      49162.894    
  17840000   314.54539      13971.667     -1164.8044      6153.1568      2094.7617      15804.294     -4105.3047     -10.376274      1.1124269      48980.234    
  17860000   319.87514      14012.214     -1130.2889      6130.1424      2221.8466      15748.151     -4142.9523     -15.363516      1.1110642      49040.307    
  17880000   314.89319      14095.783     -1168.5247      6157.0651      2207.4587      15834.653     -4134.3299     -0.50474287     1.1070536      49217.97     
  17900000   318.40844      14000.995     -1217.8153      6130.9174      2202.9232      15810.609     -4124.821      -0.7742051      1.1135918      48928.995    
  17920000   321.93742      14031.298     -1179.6137      6153.166       2217.4325      15761.247     -4108.6016     -12.285106      1.1148856      48872.217    
  17940000   314.25151      14063.41      -1173.0679      6129.8624      2232.5818      15770.34      -4105.1461      9.5067166      1.1197701      48659.033    
  17960000   323.17089      14039.277     -1162.7088      6146.1172      2177.4329      15794.548     -4131.2561      14.914119      1.1134964      48933.19     
  17980000   325.33299      13976.064     -1230.0425      6135.4215      2199.7479      15817.953     -4144.0491     -3.8531037      1.1200397      48647.319    
  18000000   325.86615      14054.634     -1174.8599      6149.829       2192.7606      15855.246     -4160.8848     -7.6894563      1.1150757      48863.883    
  18000102   323.45548      14019.323     -1176.5796      6140.1754      2222.8279      15786.077     -4151.0057     -2.7468062      1.1109498      49045.359    
Loop time of 4113.65 on 24 procs for 1200000 steps with 4952 atoms

Performance: 6.301 ns/day, 3.809 hours/ns, 291.712 timesteps/s, 1.445 Matom-step/s
99.5% CPU use with 24 MPI tasks x no OpenMP threads

MPI task timing breakdown:
Section |  min time  |  avg time  |  max time  |%varavg| %total
---------------------------------------------------------------
Pair    | 1996.2     | 2267.7     | 2523.4     | 330.7 | 55.13
Bond    | 710.99     | 800.59     | 900.22     | 186.4 | 19.46
Kspace  | 554.2      | 842.14     | 1165.7     | 638.5 | 20.47
Neigh   | 24.519     | 24.542     | 24.576     |   0.4 |  0.60
Comm    | 124.66     | 127.25     | 129.61     |  10.5 |  3.09
Output  | 0.0059464  | 0.0064776  | 0.018113   |   3.0 |  0.00
Modify  | 32.4       | 37.188     | 40.114     |  37.6 |  0.90
Other   |            | 14.19      |            |       |  0.34

Nlocal:        206.333 ave         229 max         194 min
Histogram: 7 1 4 0 5 3 1 1 1 1
Nghost:        4931.71 ave        4973 max        4879 min
Histogram: 1 1 0 5 2 5 3 5 0 2
Neighs:          75618 ave       84521 max       66509 min
Histogram: 3 2 3 1 4 1 2 2 3 3

Total # of neighbors = 1814833
Ave neighs/atom = 366.48485
Ave special neighs/atom = 6.4321486
Neighbor list builds = 8437
Dangerous builds = 0
unfix           fNPT
unfix           fMOM
next            a
jump            SELF loop
variable        a loop 26
variable        b equal 600-20*($a-1)
variable        b equal 600-20*(16-1)
fix             fMOM all momentum 100 linear 1 1 1 angular
fix             fNPT all npt temp $b $b $(100.0*dt) iso 1 1 $(100.0*dt)
fix             fNPT all npt temp 300 $b $(100.0*dt) iso 1 1 $(100.0*dt)
fix             fNPT all npt temp 300 300 $(100.0*dt) iso 1 1 $(100.0*dt)
fix             fNPT all npt temp 300 300 25 iso 1 1 $(100.0*dt)
fix             fNPT all npt temp 300 300 25 iso 1 1 25
run             1200000
PPPM initialization ...
  using 12-bit tables for long-range coulomb (../kspace.cpp:342)
  G vector (1/distance) = 0.15643412
  grid = 6 6 6
  stencil order = 5
  estimated absolute RMS force accuracy = 0.27052983
  estimated relative force accuracy = 0.00081469254
  using double precision KISS FFT
  3d grid and FFT values/proc = 392 12
Generated 45 of 45 mixed pair_coeff terms from sixthpower/sixthpower mixing rule
WARNING: Inconsistent image flags (../domain.cpp:815)
Per MPI rank memory allocation (min/avg/max) = 16.13 | 16.14 | 16.14 Mbytes
   Step          Temp          PotEng         E_vdwl         E_coul         E_bond        E_angle        E_dihed        E_impro        Density         Volume    
  18000102   323.45548      14019.32      -1176.5796      6139.3175      2222.8279      15786.077     -4151.0057     -2.7468062      1.1109498      49045.359    
  18020000   298.50786      13841.938     -1188.741       6169.025       2115.515       15718.42      -4165.0333     -9.2318232      1.1225725      48537.56     
  18040000   292.93006      13759.186     -1248.163       6149.437       2106.6897      15689.777     -4137.0248     -3.4522668      1.1166668      48794.261    
  18060000   300.35098      13760.685     -1239.2037      6151.5021      2104.7514      15677.023     -4135.7139      1.1917523      1.1277041      48316.691    
  18080000   296.96255      13767.865     -1214.102       6139.5927      2097.8243      15667.174     -4119.7165     -3.93579        1.1219192      48565.821    
  18100000   296.51579      13809.259     -1225.0563      6152.8743      2071.1956      15752.446     -4133.4246     -8.5703986      1.1219302      48565.348    
  18120000   302.3098       13682.902     -1268.2248      6147.6884      2102.6632      15654.588     -4156.1274      2.5996818      1.1168681      48785.465    
  18140000   303.6258       13695.817     -1216.6321      6129.4534      2108.3741      15699.192     -4221.3423     -4.7225826      1.1180855      48732.345    
  18160000   290.60924      13757.514     -1219.4308      6163.3773      2079.8609      15689.946     -4141.0583     -15.36669       1.1189011      48696.825    
  18180000   298.10128      13786.603     -1202.3098      6132.5516      2121.498       15654.85      -4120.3002      0.26967625     1.1213499      48590.481    
  18200000   297.49419      13760.752     -1220.6635      6144.7989      2075.3476      15689.96      -4118.0308     -11.123621      1.1208969      48610.118    
  18220000   297.10468      13798.19      -1180.2713      6158.5006      2132.2482      15668.081     -4168.0518     -13.187877      1.1215851      48580.288    
  18240000   302.15407      13757.468     -1258.3852      6160.4189      2113.3117      15655.101     -4103.1418     -10.545721      1.1177363      48747.57     
  18260000   301.22754      13815.032     -1191.2166      6147.8924      2085.5675      15737.9       -4161.2881     -4.8542988      1.1224647      48542.223    
  18280000   293.66445      13748.573     -1207.426       6152.5268      2048.7479      15692.516     -4137.309      -1.0870309      1.1207332      48617.216    
  18300000   304.77538      13747.743     -1194.3905      6140.9382      2093.1291      15675.863     -4155.2535     -13.107816      1.1187477      48703.503    
  18320000   296.46601      13734.756     -1237.0724      6161.6596      2152.7381      15587.294     -4125.4774     -4.7991846      1.1214955      48584.171    
  18340000   297.47755      13777.713     -1224.6537      6138.6231      2132.9099      15643.01      -4099.7111     -12.588379      1.1198531      48655.424    
  18360000   299.11371      13754.041     -1205.4731      6150.9804      2068.0356      15709.053     -4156.7961     -12.501965      1.1205533      48625.021    
  18380000   303.04075      13760.812     -1191.9696      6143.0433      2106.1285      15635.272     -4117.2314     -15.051587      1.1226606      48533.752    
  18400000   298.0173       13705.159     -1203.6371      6143.4388      2013.8635      15719.774     -4163.5633     -4.8969794      1.1228602      48525.123    
  18420000   301.45223      13787.169     -1230.9041      6134.067       2104.7842      15756.736     -4169.199      -9.3091551      1.1186683      48706.959    
  18440000   294.25711      13792.022     -1193.2992      6160.5109      2082.9068      15726.174     -4170.798      -14.10976       1.1196025      48666.317    
  18460000   306.87846      13752.324     -1214.574       6139.8556      2051.5891      15737.572     -4162.6301     -0.42196951     1.1124444      48979.463    
  18480000   299.88804      13738.169     -1223.3675      6127.5895      2093.1346      15670.185     -4128.774      -0.5277582      1.1193883      48675.627    
  18500000   302.0497       13768.328     -1200.9116      6160.1218      2057.3721      15723.17      -4159.7577     -12.312784      1.1206611      48620.347    
  18520000   303.8627       13833.05      -1220.2788      6138.8232      2157.9293      15718.732     -4163.5336      1.0963949      1.1145041      48888.946    
  18540000   295.29744      13785.536     -1220.5506      6136.3289      2187.6412      15602.889     -4124.2096      3.8958324      1.117055       48777.302    
  18560000   297.37023      13717.372     -1216.2294      6141.8527      2066.1092      15691.822     -4155.546      -13.063735      1.1195511      48668.548    
  18580000   303.91097      13712.498     -1266.9154      6142.763       2160.995       15625.964     -4142.6365     -7.561181       1.1207671      48615.748    
  18600000   298.54586      13771.985     -1208.9472      6142.3313      2109.9245      15724.055     -4187.2341     -9.0169277      1.1220833      48558.719    
  18620000   303.45111      13861.525     -1198.4274      6132.0846      2170.4567      15713.216     -4150.8426     -5.3622186      1.1115659      49018.173    
  18640000   298.45478      13698.545     -1218.279       6137.6592      2089.962       15699.091     -4193.5945     -16.588384      1.1232798      48506.995    
  18660000   296.88637      13696.877     -1243.6571      6162.3435      2092.5213      15657.095     -4162.9541     -8.1414254      1.1217159      48574.624    
  18680000   299.07474      13749.331     -1251.8126      6148.4296      2115.8547      15716.648     -4173.1333     -7.7409428      1.118237       48725.744    
  18700000   294.09214      13812.778     -1255.8686      6141.9916      2150.2828      15733.617     -4158.3087     -0.49673608     1.1230307      48517.755    
  18720000   307.80431      13721.375     -1241.1871      6149.4247      2063.4902      15661.605     -4113.7885      0.59475713     1.1192884      48679.971    
  18740000   299.4061       13682.36      -1204.9142      6146.3746      2008.5309      15658.942     -4120.0747     -8.0315706      1.1193983      48675.195    
  18760000   300.7081       13749.502     -1251.9384      6157.4192      2052.6781      15688.929     -4107.0303      6.0887003      1.1262229      48380.234    
  18780000   296.83273      13728.189     -1246.7104      6147.6227      2106.1317      15692.154     -4157.0225     -15.056783      1.1260461      48387.832    
  18800000   306.00909      13770.585     -1226.3901      6138.334       2065.7494      15768.245     -4173.9917     -2.2815429      1.1235178      48496.722    
  18820000   301.06808      13794.86      -1212.8989      6152.7373      2164.0685      15678.708     -4190.7299      2.7594784      1.1240307      48474.593    
  18840000   298.32954      13786.256     -1244.5645      6146.7519      2130.003       15709.743     -4158.5477      1.5279744      1.1263301      48375.631    
  18860000   294.7604       13819.807     -1163.9713      6144.4028      2054.1579      15743.954     -4151.6151     -8.0700274      1.124856       48439.027    
  18880000   303.14065      13803.689     -1163.004       6141.9702      2084.2793      15697.193     -4149.4969     -8.4630059      1.1173496      48764.442    
  18900000   304.0587       13634.453     -1208.8433      6122.0779      2047.5788      15595.881     -4116.3431     -6.973542       1.1236004      48493.157    
  18920000   300.20693      13712.428     -1218.9764      6149.8133      2063.2442      15693.141     -4163.0749     -12.787041      1.1279784      48304.94     
  18940000   296.08447      13672.891     -1281.9518      6132.712       2081.4502      15703.25      -4153.4826     -8.4874929      1.1261682      48382.587    
  18960000   300.14013      13695.492     -1210.7435      6143.0576      2092.2532      15608.159     -4131.1862     -6.8337255      1.112101       48994.588    
  18980000   302.20645      13791.663     -1220.0713      6123.1         2083.934       15737.673     -4125.9161     -6.9459537      1.1178052      48744.564    
  19000000   304.17812      13834.493     -1209.3788      6140.0455      2130.7871      15740.663     -4171.5473      3.8942264      1.1237193      48488.024    
  19020000   297.2679       13663.878     -1224.8333      6141.1763      2063.3307      15617.68      -4135.2784      0.80877499     1.1146875      48880.902    
  19040000   296.20858      13789.427     -1236.105       6159.6763      2097.0554      15670.621     -4094.7127     -7.6944373      1.1164638      48803.129    
  19060000   303.31781      13764.925     -1243.867       6154.3802      2077.466       15743.145     -4156.0984     -10.504565      1.1286636      48275.616    
  19080000   304.13388      13821.742     -1220.3493      6133.9781      2089.4354      15759.782     -4135.5602     -6.316534       1.1232734      48507.273    
  19100000   299.33147      13684.359     -1236.445       6151.3037      2050.4329      15669.656     -4146.7113     -4.8612568      1.1201328      48643.275    
  19120000   296.83511      13707.557     -1274.0354      6145.3286      2163.4871      15652.079     -4179.1434     -1.0802275      1.1128476      48961.716    
  19140000   294.24562      13708.454     -1290.1142      6141.3736      2124.4808      15673.873     -4135.669      -7.4397418      1.1310951      48171.835    
  19160000   299.10168      13678.321     -1247.9365      6143.0861      2029.4652      15727.594     -4165.8664     -9.2866388      1.1307899      48184.838    
  19180000   291.54252      13731.299     -1257.3602      6126.2835      2118.7123      15679.368     -4131.992      -5.3888719      1.1196447      48664.482    
  19200000   296.45424      13803.302     -1233.1918      6139.1855      2113.9173      15755.967     -4173.5021      0.39793868     1.1176014      48753.455    
  19200102   302.4967       13685.719     -1206.858       6140.762       2061.4699      15692.328     -4199.4599     -3.0148658      1.1193537      48677.131    
Loop time of 4121.22 on 24 procs for 1200000 steps with 4952 atoms

Performance: 6.289 ns/day, 3.816 hours/ns, 291.176 timesteps/s, 1.442 Matom-step/s
99.5% CPU use with 24 MPI tasks x no OpenMP threads

MPI task timing breakdown:
Section |  min time  |  avg time  |  max time  |%varavg| %total
---------------------------------------------------------------
Pair    | 2023.5     | 2284.4     | 2509.2     | 324.9 | 55.43
Bond    | 719.56     | 800.2      | 909.24     | 194.0 | 19.42
Kspace  | 533.25     | 835.96     | 1160.3     | 643.5 | 20.28
Neigh   | 22.748     | 22.788     | 22.827     |   0.5 |  0.55
Comm    | 124.57     | 127.21     | 129.34     |  10.1 |  3.09
Output  | 0.002898   | 0.00332    | 0.012367   |   3.3 |  0.00
Modify  | 31.898     | 36.54      | 39.415     |  36.9 |  0.89
Other   |            | 14.17      |            |       |  0.34

Nlocal:        206.333 ave         225 max         183 min
Histogram: 1 1 0 1 7 4 5 2 1 2
Nghost:        4936.92 ave        4984 max        4887 min
Histogram: 1 1 2 4 3 5 5 0 2 1
Neighs:          75797 ave       83234 max       63963 min
Histogram: 1 2 2 3 2 0 2 2 5 5

Total # of neighbors = 1819129
Ave neighs/atom = 367.35238
Ave special neighs/atom = 6.4321486
Neighbor list builds = 7819
Dangerous builds = 0
unfix           fNPT
unfix           fMOM
next            a
jump            SELF loop
variable        a loop 26
variable        b equal 600-20*($a-1)
variable        b equal 600-20*(17-1)
fix             fMOM all momentum 100 linear 1 1 1 angular
fix             fNPT all npt temp $b $b $(100.0*dt) iso 1 1 $(100.0*dt)
fix             fNPT all npt temp 280 $b $(100.0*dt) iso 1 1 $(100.0*dt)
fix             fNPT all npt temp 280 280 $(100.0*dt) iso 1 1 $(100.0*dt)
fix             fNPT all npt temp 280 280 25 iso 1 1 $(100.0*dt)
fix             fNPT all npt temp 280 280 25 iso 1 1 25
run             1200000
PPPM initialization ...
  using 12-bit tables for long-range coulomb (../kspace.cpp:342)
  G vector (1/distance) = 0.1566721
  grid = 6 6 6
  stencil order = 5
  estimated absolute RMS force accuracy = 0.2695353
  estimated relative force accuracy = 0.00081169754
  using double precision KISS FFT
  3d grid and FFT values/proc = 392 12
Generated 45 of 45 mixed pair_coeff terms from sixthpower/sixthpower mixing rule
WARNING: Inconsistent image flags (../domain.cpp:815)
Per MPI rank memory allocation (min/avg/max) = 16.13 | 16.14 | 16.14 Mbytes
   Step          Temp          PotEng         E_vdwl         E_coul         E_bond        E_angle        E_dihed        E_impro        Density         Volume    
  19200102   302.4967       13685.685     -1206.858       6148.0043      2061.4699      15692.328     -4199.4599     -3.0148658      1.1193537      48677.131    
  19220000   280.69295      13448.833     -1230.5819      6135.4224      1939.2073      15608.377     -4182.4056     -14.188599      1.1286851      48274.697    
  19240000   279.661        13500.845     -1242.8334      6154.5165      1933.9909      15593.147     -4118.4882     -11.959089      1.1246495      48447.92     
  19260000   275.81815      13458.354     -1284.9675      6152.0506      1978.722       15611.63      -4185.5512     -6.8336508      1.1275273      48324.266    
  19280000   280.31479      13390.629     -1293.1543      6160.0812      1999.0502      15548.223     -4207.1253     -9.2903712      1.129319       48247.598    
  19300000   281.93483      13405.877     -1254.2803      6149.9764      1932.0686      15515.45      -4124.3413     -6.9549801      1.1242992      48463.014    
  19320000   283.7485       13456.844     -1280.2679      6150.7864      2009.0482      15572.391     -4178.208      -10.428195      1.1125498      48974.821    
  19340000   280.1032       13413.35      -1240.619       6154.9265      1945.5696      15537.048     -4171.7478     -4.4045889      1.1280663      48301.178    
  19360000   280.12165      13450.621     -1234.945       6163.2975      1956.4784      15563.653     -4190.8536     -1.6879916      1.119836       48656.168    
  19380000   285.50882      13507.792     -1248.59        6155.5033      2019.1707      15588.594     -4198.0433     -1.3847303      1.1186996      48705.594    
  19400000   278.18535      13466.5       -1268.3083      6156.2194      1968.3171      15603.461     -4174.9663     -11.915116      1.1217847      48571.644    
  19420000   277.59447      13474.004     -1240.3186      6141.9122      2035.8835      15551.921     -4201.7095     -7.3843432      1.1196906      48662.488    
  19440000   280.17388      13517.579     -1214.2183      6147.9062      1992.6435      15585.849     -4171.6487     -16.423368      1.1240419      48474.108    
  19460000   278.10948      13504.221     -1188.7008      6136.7733      1948.4672      15598.871     -4176.7423     -6.3058858      1.1194874      48671.319    
  19480000   273.34243      13386.466     -1258.7193      6132.5001      1981.2776      15524.683     -4176.4668     -10.068402      1.1329955      48091.036    
  19500000   280.30012      13451.832     -1289.997       6148.5443      2001.2217      15541.366     -4139.9137     -2.48351        1.1246896      48446.193    
  19520000   280.51326      13556.232     -1259.8617      6153.0751      2024.2186      15593.835     -4143.0916     -5.7689851      1.1218708      48567.916    
  19540000   282.11021      13505.41      -1260.4813      6165.6014      2017.2278      15513.149     -4127.0563      3.9350837      1.1291658      48254.143    
  19560000   283.65275      13477.425     -1258.5407      6150.2354      2040.9293      15536.828     -4166.4425     -21.319218      1.1200974      48644.815    
  19580000   279.88418      13404.684     -1203.6841      6142.5107      1955.782       15502.597     -4191.3619      5.3067014      1.1253422      48418.098    
  19600000   278.31677      13335.709     -1261.5406      6128.644       1957.7437      15527.511     -4203.4433     -6.5448267      1.1270447      48344.96     
  19620000   279.27501      13444.378     -1247.2383      6148.9994      1975.8755      15599.102     -4220.0287     -6.098209       1.1210987      48601.365    
  19640000   273.41454      13436.364     -1235.3634      6134.846       1970.1055      15527.722     -4148.6144     -6.2512215      1.1222035      48553.52     
  19660000   280.035        13430.15      -1223.496       6161.564       1920.4835      15565.02      -4183.4072     -3.4785208      1.1242449      48465.355    
  19680000   284.86611      13473.743     -1211.9752      6138.0579      1941.9958      15549.495     -4140.2437      2.6299613      1.1269017      48351.095    
  19700000   277.15642      13480.973     -1252.2503      6155.1146      1939.8658      15617.809     -4162.082      -11.628935      1.1221983      48553.745    
  19720000   275.32787      13476.763     -1239.741       6156.7472      1973.419       15602.626     -4197.5446     -11.908194      1.1171141      48774.721    
  19740000   276.58038      13495.566     -1256.8944      6139.5844      1995.4086      15548.906     -4117.5325     -6.9389215      1.1281458      48297.773    
  19760000   280.25589      13512.248     -1242.3826      6139.3495      1995.027       15542.329     -4117.5015      1.5590139      1.1224084      48544.656    
  19780000   281.27401      13405.969     -1271.1018      6170.108       1927.1318      15589.208     -4190.5789     -12.372854      1.1271506      48340.415    
  19800000   275.8831       13522.548     -1244.9707      6151.4349      2016.3743      15571.105     -4167.1836      1.0771323      1.1283237      48290.156    
  19820000   276.39419      13434.832     -1271.4652      6132.7086      1998.2342      15537.381     -4140.3219     -14.533398      1.1290015      48261.168    
  19840000   276.50458      13509.038     -1231.827       6128.7432      2027.1623      15538.417     -4149.9726      1.8016554      1.1305231      48196.21     
  19860000   274.10745      13466.319     -1288.5874      6162.4485      1986.298       15613.05      -4193.2742     -8.8320937      1.1212559      48594.552    
  19880000   285.66404      13484.006     -1247.435       6150.1882      1979.9398      15576.411     -4158.3571     -11.129905      1.1217627      48572.599    
  19900000   280.63507      13412.966     -1250.7136      6143.4738      1977.5415      15566.744     -4206.9952     -10.563122      1.1218117      48570.478    
  19920000   274.28028      13469.779     -1249.9545      6147.1383      2044.593       15532.004     -4186.2893     -11.933196      1.120498       48627.421    
  19940000   277.69224      13379.613     -1258.8208      6154.4051      1923.5173      15548.803     -4174.5712     -7.0912482      1.1194644      48672.321    
  19960000   275.44332      13471.645     -1282.2623      6130.2882      2063.6074      15540.446     -4169.6313     -3.768857       1.121237       48595.372    
  19980000   279.77895      13404.848     -1233.0712      6135.4334      1946.4919      15534.627     -4165.1452     -7.5919588      1.1218227      48570.002    
  20000000   283.50714      13441.445     -1242.9243      6146.6156      1975.8889      15531.814     -4162.4834     -1.6228939      1.1304057      48201.214    
  20020000   279.90197      13357.309     -1309.1474      6151.2125      1991.8793      15516.363     -4181.8703     -5.7196137      1.1285968      48278.474    
  20040000   281.6894       13379.177     -1276.1276      6161.415       1964.08        15518.694     -4179.5603     -3.7371815      1.1292907      48248.806    
  20060000   280.80471      13455.104     -1253.441       6140.8216      2008.7514      15529.918     -4154.1276     -10.383413      1.124071       48472.853    
  20080000   275.26023      13435.386     -1276.3641      6151.1567      1997.7592      15509.419     -4132.5987     -6.9785939      1.1149119      48871.063    
  20100000   278.89298      13417.318     -1249.7498      6141.8725      1959.4201      15578.367     -4205.6317     -0.51199316     1.1177995      48744.813    
  20120000   280.58692      13466.422     -1233.5067      6143.24        1979.3156      15533.621     -4148.8394     -1.4742896      1.1255421      48409.499    
  20140000   277.20677      13428.64      -1239.3049      6136.2221      2025.0912      15457.651     -4131.7524     -12.29515       1.1255327      48409.902    
  20160000   280.25429      13449.309     -1263.9365      6159.7396      1959.763       15581.085     -4168.225      -12.862918      1.1275721      48322.347    
  20180000   278.19216      13460.547     -1238.7925      6161.9796      2037.4262      15498.661     -4188.0933     -3.7998493      1.1278318      48311.221    
  20200000   281.78393      13464.807     -1289.4238      6147.0426      1978.5508      15586.574     -4148.5872     -3.3726807      1.1273188      48333.202    
  20220000   284.99241      13446.199     -1237.5309      6143.4253      1949.1806      15546.761     -4148.4828     -1.4120027      1.1287976      48269.885    
  20240000   276.68857      13431.293     -1271.1215      6152.3567      2021.793       15493.428     -4145.2237     -13.476439      1.1211983      48597.049    
  20260000   285.41658      13376.884     -1256.3939      6169.8134      1983.8314      15490.005     -4193.638      -10.647168      1.1174973      48757.996    
  20280000   281.59664      13456.339     -1273.9178      6166.4227      1998.6166      15541.445     -4170.0397     -1.5619844      1.1252363      48422.654    
  20300000   282.77979      13344.748     -1245.4902      6139.3579      1912.7181      15537.549     -4185.5927     -7.0932816      1.1187496      48703.417    
  20320000   275.32484      13415.462     -1236.8368      6132.7381      1962.8193      15492.772     -4120.4466     -9.2843593      1.1270506      48344.707    
  20340000   281.39803      13450.098     -1234.6384      6157.0527      1953.758       15545.009     -4155.4531     -9.2835892      1.1175372      48756.257    
  20360000   275.03202      13477.66      -1308.4592      6147.3591      2020.2326      15601.312     -4162.7913     -14.097192      1.1220186      48561.521    
  20380000   278.37229      13364.798     -1267.0873      6150.9566      1909.3007      15561.944     -4177.0612     -6.6920285      1.1249825      48433.581    
  20400000   282.88042      13509.239     -1248.9937      6144.4249      2018.822       15639.375     -4229.5646     -8.6667607      1.1282555      48293.078    
  20400102   284.25966      13436.126     -1205.5516      6156.2598      1970.0925      15566.064     -4233.8829     -10.139115      1.1245686      48451.404    
Loop time of 4124.98 on 24 procs for 1200000 steps with 4952 atoms

Performance: 6.284 ns/day, 3.819 hours/ns, 290.911 timesteps/s, 1.441 Matom-step/s
99.5% CPU use with 24 MPI tasks x no OpenMP threads

MPI task timing breakdown:
Section |  min time  |  avg time  |  max time  |%varavg| %total
---------------------------------------------------------------
Pair    | 2034.6     | 2289.7     | 2512.6     | 337.5 | 55.51
Bond    | 721.55     | 799.69     | 902.48     | 189.0 | 19.39
Kspace  | 532.73     | 836.11     | 1153.3     | 669.5 | 20.27
Neigh   | 21.405     | 21.428     | 21.461     |   0.3 |  0.52
Comm    | 125.33     | 127.52     | 129.4      |   9.0 |  3.09
Output  | 0.0050112  | 0.0059187  | 0.02619    |   5.5 |  0.00
Modify  | 32.086     | 36.734     | 39.453     |  36.1 |  0.89
Other   |            | 13.8       |            |       |  0.33

Nlocal:        206.333 ave         227 max         187 min
Histogram: 2 2 1 2 3 5 6 1 1 1
Nghost:        4975.42 ave        5027 max        4918 min
Histogram: 1 2 2 3 0 7 3 2 2 2
Neighs:          76273 ave       83736 max       66579 min
Histogram: 2 3 1 2 1 4 0 4 3 4

Total # of neighbors = 1830552
Ave neighs/atom = 369.65913
Ave special neighs/atom = 6.4321486
Neighbor list builds = 7332
Dangerous builds = 0
unfix           fNPT
unfix           fMOM
next            a
jump            SELF loop
variable        a loop 26
variable        b equal 600-20*($a-1)
variable        b equal 600-20*(18-1)
fix             fMOM all momentum 100 linear 1 1 1 angular
fix             fNPT all npt temp $b $b $(100.0*dt) iso 1 1 $(100.0*dt)
fix             fNPT all npt temp 260 $b $(100.0*dt) iso 1 1 $(100.0*dt)
fix             fNPT all npt temp 260 260 $(100.0*dt) iso 1 1 $(100.0*dt)
fix             fNPT all npt temp 260 260 25 iso 1 1 $(100.0*dt)
fix             fNPT all npt temp 260 260 25 iso 1 1 25
run             1200000
PPPM initialization ...
  using 12-bit tables for long-range coulomb (../kspace.cpp:342)
  G vector (1/distance) = 0.15681891
  grid = 6 6 6
  stencil order = 5
  estimated absolute RMS force accuracy = 0.26892186
  estimated relative force accuracy = 0.00080985019
  using double precision KISS FFT
  3d grid and FFT values/proc = 392 12
Generated 45 of 45 mixed pair_coeff terms from sixthpower/sixthpower mixing rule
WARNING: Inconsistent image flags (../domain.cpp:815)
Per MPI rank memory allocation (min/avg/max) = 16.13 | 16.14 | 16.14 Mbytes
   Step          Temp          PotEng         E_vdwl         E_coul         E_bond        E_angle        E_dihed        E_impro        Density         Volume    
  20400102   284.25966      13436.086     -1205.5516      6160.7111      1970.0925      15566.064     -4233.8829     -10.139115      1.1245686      48451.404    
  20420000   261.79045      13081.207     -1323.2073      6155.3063      1860.8895      15341.992     -4134.2561     -7.5680686      1.1322989      48120.623    
  20440000   261.10178      13091.702     -1263.3208      6141.5056      1864.0259      15387.985     -4209.8197     -17.455779      1.1308501      48182.276    
  20460000   263.68618      13172.036     -1266.9162      6145.4682      1858.7518      15437.4       -4178.041      -14.106401      1.1222232      48552.667    
  20480000   253.72719      13161.446     -1284.5278      6145.1524      1920.752       15365.619     -4171.7553     -3.7718741      1.1288279      48268.589    
  20500000   260.11254      13080.95      -1302.7596      6159.1341      1845.5848      15361.735     -4167.9302     -4.6873522      1.1314976      48154.702    
  20520000   259.05746      13117.556     -1296.1877      6152.4719      1903.3984      15339.257     -4166.9123     -3.7821198      1.1218573      48568.503    
  20540000   261.92245      13092.044     -1287.0427      6133.6834      1868.2274      15402.917     -4207.5841     -7.1649235      1.1277667      48314.009    
  20560000   257.98641      13162.832     -1321.1859      6128.7672      1916.8881      15398.731     -4135.4416     -14.149136      1.1274215      48328.802    
  20580000   258.69108      13151.596     -1264.3935      6159.4865      1880.639       15422.062     -4225.3244     -10.179602      1.1297355      48229.812    
  20600000   257.96181      13170.63      -1282.0036      6161.0869      1882.4688      15377.306     -4144.2114     -12.769883      1.1327419      48101.804    
  20620000   258.86051      13152.364     -1290.6981      6142.517       1914.3566      15367.1       -4172.325       1.6613011      1.1342406      48038.245    
  20640000   260.20175      13158.797     -1277.7717      6159.4588      1849.6273      15415.291     -4165.2819     -12.060888      1.1338947      48052.901    
  20660000   260.8178       13189.94      -1306.3562      6149.479       1895.4141      15438.172     -4176.0955     -0.99360478     1.1299086      48222.42     
  20680000   260.82896      13140.062     -1319.5753      6159.4164      1845.3459      15448.558     -4175.5041     -9.4656985      1.1327201      48102.729    
  20700000   260.81264      13071.101     -1239.9826      6150.2808      1823.5407      15359.87      -4197.7833     -14.665414      1.1353867      47989.754    
  20720000   262.57215      13065.491     -1343.5741      6155.3174      1849.3466      15425.654     -4206.3529     -5.5914198      1.1372544      47910.941    
  20740000   256.37669      13084.423     -1302.9168      6137.4143      1857.6307      15375.26      -4166.3959     -7.5623292      1.1283169      48290.449    
  20760000   260.70186      13217.036     -1312.7955      6168.9096      1840.2464      15506.679     -4170.914      -6.438163       1.1353031      47993.29     
  20780000   257.65611      13099.608     -1281.2285      6127.1645      1792.06        15443.171     -4160.7431     -10.967716      1.1266308      48362.72     
  20800000   259.86411      13125.733     -1271.851       6142.8188      1887.4357      15395.271     -4203.0364     -13.50144       1.1336088      48065.018    
  20820000   258.52288      13115.357     -1292.75        6157.4575      1828.6127      15454.129     -4207.1664     -14.465262      1.1300412      48216.762    
  20840000   257.28189      13116.226     -1296.5447      6151.3027      1818.5207      15458.026     -4190.5677     -12.576314      1.1228129      48527.165    
  20860000   260.17911      13185.59      -1311.3472      6149.7199      1905.7775      15457.422     -4194.8717     -10.220031      1.1313394      48161.435    
  20880000   263.76455      13174.244     -1311.2125      6152.4063      1892.0523      15408.672     -4149.2848     -8.3810929      1.1243471      48460.95     
  20900000   261.03426      13116.051     -1301.6925      6167.3236      1853.5804      15372.886     -4155.7374     -10.582391      1.1291895      48253.132    
  20920000   260.64822      13106.25      -1304.4803      6168.1082      1787.4533      15456.498     -4186.8855     -4.3060815      1.1266899      48360.183    
  20940000   255.27723      13185.471     -1263.044       6161.7277      1853.5617      15479.001     -4215.6242     -18.687682      1.1272924      48334.337    
  20960000   255.63204      13152.632     -1247.236       6162.7025      1861.7877      15384.533     -4189.7648     -8.806342       1.118996       48692.693    
  20980000   259.1661       13121.136     -1273.7634      6162.5166      1859.016       15367.321     -4166.9295     -16.192794      1.1341857      48040.57     
  21000000   257.76772      13171.028     -1275.5371      6159.6382      1848.516       15427.944     -4165.0023     -14.015427      1.1245746      48451.148    
  21020000   261.31328      13200.125     -1292.7452      6161.9188      1898.6873      15480.478     -4223.0116     -14.450922      1.1349569      48007.927    
  21040000   254.80965      13296.744     -1294.9061      6169.5836      1921.5895      15503.189     -4188.3343     -4.4797448      1.1324834      48112.785    
  21060000   260.52793      13185.658     -1268.0675      6156.1037      1831.962       15415.274     -4126.8765     -11.908896      1.1301547      48211.92     
  21080000   261.52508      13165.171     -1307.0302      6148.8781      1861.9206      15439.377     -4159.9544     -8.2606426      1.1301798      48210.852    
  21100000   258.1486       13134.688     -1265.118       6148.9828      1828.9563      15405.466     -4161.2045     -11.90864       1.1232739      48507.249    
  21120000   258.06354      13164.18      -1271.2757      6154.527       1810.8773      15474.615     -4182.1999     -13.618987      1.1383082      47866.588    
  21140000   261.84095      13135.119     -1309.9074      6141.1627      1896.9919      15437.097     -4206.0171     -15.131781      1.12218        48554.534    
  21160000   259.03038      13200.401     -1245.1745      6165.3586      1830.3428      15460.178     -4187.5975     -12.986093      1.1275336      48323.998    
  21180000   263.1105       13086.437     -1279.1283      6148.2914      1839.2296      15364.589     -4166.3668     -9.8545341      1.1293939      48244.397    
  21200000   265.08368      13101.917     -1310.0429      6169.218       1857.4898      15369.943     -4160.4822     -13.648487      1.1294599      48241.579    
  21220000   258.4909       13145.013     -1288.972       6169.1504      1838.4905      15402.938     -4151.9518     -14.415833      1.1358106      47971.844    
  21240000   261.79611      13161.213     -1277.3141      6161.8272      1891.2651      15427.709     -4215.9244     -16.54989       1.1351026      48001.764    
  21260000   262.13454      13202.906     -1281.0406      6143.81        1871.2506      15436.324     -4146.5246     -10.900409      1.125376       48416.645    
  21280000   258.91574      13093.46      -1307.974       6136.3425      1822.8436      15426.347     -4166.718      -7.5099894      1.1279015      48308.235    
  21300000   256.66784      13084.953     -1298.6033      6152.0622      1832.8444      15376.257     -4156.8702     -11.920603      1.1316783      48147.01     
  21320000   258.37565      13077.611     -1315.1465      6149.0056      1821.4657      15460.056     -4206.5206     -20.829072      1.1270581      48344.384    
  21340000   265.59932      13166.997     -1289.7113      6150.4555      1877.0727      15454.634     -4211.7518     -3.0921872      1.1306504      48190.783    
  21360000   269.73023      13159.406     -1308.3038      6144.9794      1897.6736      15384.945     -4148.7666     -1.3463891      1.1303746      48202.543    
  21380000   264.15709      13136.75      -1275.7428      6148.9542      1846.2619      15409.136     -4169.341      -13.325233      1.1335678      48066.759    
  21400000   264.64275      13074.322     -1250.4967      6148.042       1846.0208      15329.535     -4174.3762     -14.011564      1.1306243      48191.898    
  21420000   258.90946      13157.686     -1280.1005      6154.0913      1895.4914      15457.039     -4249.93       -8.9700628      1.1276351      48319.645    
  21440000   258.24192      13097.278     -1281.9562      6142.8477      1837.3049      15404.089     -4176.8294     -17.937129      1.1299345      48221.318    
  21460000   261.48111      13087.728     -1338.9086      6147.7664      1853.5279      15405.919     -4163.2096     -7.5922215      1.1313244      48162.073    
  21480000   261.87529      13135.783     -1293.16        6159.524       1856.4924      15412.627     -4181.6553     -8.549696       1.1314016      48158.789    
  21500000   260.48153      13115.158     -1260.2567      6149.1862      1809.9715      15404.815     -4173.8663     -4.2780918      1.1315061      48154.34     
  21520000   258.71456      13267.736     -1287.7381      6157.1617      1945.0006      15437.434     -4170.2879     -3.8286336      1.1304211      48200.561    
  21540000   259.54027      13154.989     -1281.1253      6138.0985      1864.3637      15405.469     -4145.0836     -16.206786      1.1240365      48474.34     
  21560000   259.60227      13129.261     -1272.4808      6153.2742      1807.403       15421.592     -4154.8809     -15.23162       1.132358       48118.11     
  21580000   259.50777      13113.117     -1308.3602      6163.6697      1809.3436      15435.914     -4168.0596     -9.7344558      1.1231971      48510.566    
  21600000   259.30251      13122.254     -1264.3824      6129.51        1779.8359      15441.324     -4133.8564     -19.595275      1.1318225      48140.878    
  21600102   254.7922       13104.422     -1312.2455      6154.236       1815.8613      15446.445     -4174.528      -14.71135       1.1300901      48214.675    
Loop time of 4129.17 on 24 procs for 1200000 steps with 4952 atoms

Performance: 6.277 ns/day, 3.823 hours/ns, 290.615 timesteps/s, 1.439 Matom-step/s
99.5% CPU use with 24 MPI tasks x no OpenMP threads

MPI task timing breakdown:
Section |  min time  |  avg time  |  max time  |%varavg| %total
---------------------------------------------------------------
Pair    | 2021.2     | 2304.7     | 2522       | 341.3 | 55.82
Bond    | 723.15     | 799.48     | 904.4      | 188.8 | 19.36
Kspace  | 558.56     | 827.3      | 1177.2     | 678.0 | 20.04
Neigh   | 19.917     | 19.942     | 19.967     |   0.3 |  0.48
Comm    | 125.33     | 127.28     | 128.95     |   8.3 |  3.08
Output  | 0.0038524  | 0.0041695  | 0.010794   |   2.1 |  0.00
Modify  | 31.814     | 36.511     | 39.136     |  36.4 |  0.88
Other   |            | 13.93      |            |       |  0.34

Nlocal:        206.333 ave         221 max         193 min
Histogram: 2 0 3 5 4 2 3 3 1 1
Nghost:        4989.58 ave        5015 max        4955 min
Histogram: 1 1 0 3 1 5 8 1 2 2
Neighs:        76766.3 ave       85505 max       66833 min
Histogram: 1 3 4 3 0 1 2 4 2 4

Total # of neighbors = 1842392
Ave neighs/atom = 372.05008
Ave special neighs/atom = 6.4321486
Neighbor list builds = 6849
Dangerous builds = 0
unfix           fNPT
unfix           fMOM
next            a
jump            SELF loop
variable        a loop 26
variable        b equal 600-20*($a-1)
variable        b equal 600-20*(19-1)
fix             fMOM all momentum 100 linear 1 1 1 angular
fix             fNPT all npt temp $b $b $(100.0*dt) iso 1 1 $(100.0*dt)
fix             fNPT all npt temp 240 $b $(100.0*dt) iso 1 1 $(100.0*dt)
fix             fNPT all npt temp 240 240 $(100.0*dt) iso 1 1 $(100.0*dt)
fix             fNPT all npt temp 240 240 25 iso 1 1 $(100.0*dt)
fix             fNPT all npt temp 240 240 25 iso 1 1 25
run             1200000
PPPM initialization ...
  using 12-bit tables for long-range coulomb (../kspace.cpp:342)
  G vector (1/distance) = 0.15697365
  grid = 6 6 6
  stencil order = 5
  estimated absolute RMS force accuracy = 0.26827542
  estimated relative force accuracy = 0.00080790345
  using double precision KISS FFT
  3d grid and FFT values/proc = 392 12
Generated 45 of 45 mixed pair_coeff terms from sixthpower/sixthpower mixing rule
WARNING: Inconsistent image flags (../domain.cpp:815)
Per MPI rank memory allocation (min/avg/max) = 16.13 | 16.14 | 16.14 Mbytes
   Step          Temp          PotEng         E_vdwl         E_coul         E_bond        E_angle        E_dihed        E_impro        Density         Volume    
  21600102   254.7922       13104.434     -1312.2455      6158.9785      1815.8613      15446.445     -4174.528      -14.71135       1.1300901      48214.675    
  21620000   239.92347      12845.422     -1351.1381      6144.0058      1772.4825      15289.085     -4182.0612     -11.322982      1.1311893      48167.824    
  21640000   243.93623      12864.837     -1321.469       6149.6392      1810.2277      15257.04      -4206.8998     -8.7437793      1.1348763      48011.338    
  21660000   240.45439      12896.174     -1279.9543      6158.0175      1724.1697      15313.594     -4198.5062     -6.6929471      1.1303772      48202.431    
  21680000   242.60929      12905.333     -1284.987       6162.0832      1779.3504      15283.133     -4203.9096     -15.499852      1.1272513      48336.1      
  21700000   242.23319      12872.463     -1278.1667      6156.2455      1694.0541      15305.078     -4176.7051     -13.377669      1.1298014      48226.999    
  21720000   238.57896      12876.189     -1310.6225      6144.9412      1711.6674      15301.48      -4149.0764     -5.3595107      1.1381079      47875.01     
  21740000   240.57041      12850.595     -1293.0281      6166.4877      1768.4053      15200.61      -4165.2407     -10.890132      1.1355717      47981.935    
  21760000   238.56511      12884.729     -1292.107       6168.182       1727.0083      15311.598     -4194.5729     -19.114869      1.1309851      48176.524    
  21780000   241.13579      12875.023     -1273.4334      6149.9262      1710.8266      15268.806     -4154.1519     -11.080174      1.139824       47802.931    
  21800000   236.90456      12866.497     -1315.3762      6142.2517      1770.3567      15279.988     -4183.4083     -11.729467      1.1353115      47992.935    
  21820000   238.85398      12779.159     -1355.4331      6158.2386      1740.3252      15206.984     -4139.297      -16.99338       1.1351379      48000.275    
  21840000   242.96627      12915.918     -1316.7993      6162.8276      1742.4922      15348.22      -4200.8256     -4.5868541      1.1353193      47992.605    
  21860000   240.55709      12833.77      -1328.948       6149.0373      1760.3369      15285.963     -4199.5462     -17.930688      1.1358315      47970.962    
  21880000   238.77231      12858.155     -1302.794       6149.049       1764.0092      15262.819     -4188.5076     -10.192367      1.1338515      48054.733    
  21900000   232.94863      12820.076     -1361.9132      6151.2227      1797.0167      15274.071     -4209.7126     -14.875574      1.1322274      48123.664    
  21920000   238.90436      12816.661     -1305.552       6149.4365      1706.185       15313.996     -4213.2566     -18.66894       1.134446       48029.548    
  21940000   241.83511      12773.93      -1347.3939      6149.1165      1752.5205      15226.709     -4183.1159     -9.4068434      1.1338424      48055.115    
  21960000   240.12094      12803.909     -1328.5491      6175.2059      1754.1689      15218.364     -4184.2774     -16.640193      1.1351973      47997.76     
  21980000   238.92835      12797.667     -1358.0081      6162.8634      1757.0593      15242.308     -4177.2628     -15.126145      1.1358959      47968.244    
  22000000   233.6263       12762.022     -1298.3929      6161.7901      1683.7996      15234.634     -4183.8369     -20.826682      1.1372606      47910.68     
  22020000   241.77149      12850.318     -1318.4782      6161.4376      1791.4645      15277.671     -4238.9663     -7.302928       1.1317681      48143.192    
  22040000   244.6044       12877.9       -1312.9213      6156.0668      1790.5966      15267.886     -4193.7741     -14.591066      1.1340475      48046.428    
  22060000   234.38874      12831.166     -1348.7902      6151.8108      1800.8594      15261.058     -4212.1669     -6.6107951      1.1329677      48092.216    
  22080000   240.61237      12802.422     -1369.3904      6171.8937      1762.9735      15246.079     -4185.6807     -8.1300038      1.1302692      48207.038    
  22100000   238.44324      12879.236     -1333.4971      6157.0075      1743.048       15332.584     -4187.8811     -16.919984      1.1336351      48063.905    
  22120000   243.27507      12824.214     -1297.3057      6132.3866      1752.4157      15262.3       -4206.1034     -3.6406447      1.1275471      48323.418    
  22140000   240.14141      12869.112     -1342.3745      6140.3934      1760.5205      15287.931     -4156.4567     -3.9489345      1.1287572      48271.61     
  22160000   241.51311      12708.514     -1344.2665      6163.3595      1685.9559      15223.624     -4190.0632     -15.03313       1.1363512      47949.024    
  22180000   238.65025      12812.95      -1340.9771      6152.2911      1755.8682      15269.192     -4197.9608     -9.8533489      1.1399322      47798.393    
  22200000   240.08964      12827.629     -1331.1873      6152.1382      1754.7926      15268.308     -4195.0598     -5.7997767      1.1340504      48046.302    
  22220000   240.56369      12804.985     -1361.6352      6147.3767      1768.7311      15286.025     -4204.9341     -15.380558      1.132026       48132.225    
  22240000   237.33094      12827.264     -1338.7566      6143.2099      1740.989       15326.759     -4220.2764     -9.1281377      1.1331014      48086.542    
  22260000   237.69967      12785.534     -1293.8858      6165.0072      1686.4954      15230.413     -4177.8171     -8.9546379      1.1316863      48146.672    
  22280000   243.56499      12754.148     -1333.0003      6155.5929      1694.9212      15293.223     -4234.3946     -7.1407655      1.1352446      47995.764    
  22300000   238.03686      12891.495     -1328.826       6131.5643      1788.8375      15332.261     -4200.1208     -17.548022      1.1324306      48115.026    
  22320000   237.03792      12822.893     -1305.1825      6144.4646      1724.1347      15325.342     -4238.2482     -11.833502      1.1346247      48021.982    
  22340000   236.66654      12861.162     -1322.9471      6130.2703      1779.0509      15294.272     -4197.3614     -7.3547941      1.1361438      47957.776    
  22360000   239.97031      12729.708     -1326.2695      6143.5958      1722.6034      15202.026     -4187.1117     -9.0524342      1.1331924      48082.684    
  22380000   242.90288      12810.186     -1335.4192      6154.2798      1724.6481      15323.981     -4228.1134     -13.724819      1.1288723      48266.691    
  22400000   239.71224      12829.822     -1294.6285      6151.6611      1765.9472      15257.33      -4224.0879     -9.7323285      1.1315411      48152.85     
  22420000   240.8983       12833.509     -1336.9714      6158.0749      1776.0648      15291.132     -4229.6777     -9.8652366      1.1299265      48221.659    
  22440000   238.44052      12842.392     -1301.6316      6151.0794      1763.9884      15288.424     -4230.6074     -13.397613      1.1293723      48245.322    
  22460000   242.3419       12855.643     -1349.478       6150.7182      1778.7596      15303.206     -4199.9288     -11.25331       1.1312891      48163.578    
  22480000   235.29809      12805.454     -1303.9002      6148.85        1697.5816      15266.447     -4169.3342     -17.747024      1.1300593      48215.993    
  22500000   238.55796      12815.065     -1315.8288      6129.4112      1722.7707      15291.191     -4185.4543     -12.444881      1.1312903      48163.527    
  22520000   246.33043      12888.746     -1343.5861      6154.2141      1741.0154      15326.9       -4155.5455     -19.273795      1.1383073      47866.625    
  22540000   239.23987      12824.912     -1318.3065      6126.3678      1727.1183      15333.369     -4212.4377     -15.115198      1.1396526      47810.121    
  22560000   236.61543      12906.832     -1292.9059      6158.8733      1770.7373      15339.263     -4236.4431     -17.435197      1.1288722      48266.692    
  22580000   236.22714      12828.216     -1328.2165      6155.1649      1753.345       15297.554     -4224.7942     -8.802314       1.1327898      48099.772    
  22600000   236.96349      12832.774     -1289.0633      6127.0203      1776.0804      15224.703     -4180.3103     -10.467861      1.1287968      48269.917    
  22620000   237.71904      12771.328     -1321.0795      6155.1111      1772.9813      15210.925     -4216.3927     -15.431434      1.1327401      48101.881    
  22640000   241.52555      12814.706     -1380.1045      6171.5084      1762.8985      15268.567     -4179.3188     -13.73556       1.1343269      48034.59     
  22660000   240.38021      12822.947     -1326.0583      6138.7527      1739.1992      15298.73      -4198.1431     -15.048055      1.1313671      48160.256    
  22680000   236.94662      12804.106     -1320.2239      6155.6317      1725.9756      15245.943     -4171.053      -16.696423      1.1384204      47861.87     
  22700000   239.51522      12774.365     -1295.5944      6148.6718      1702.5782      15241.612     -4189.0781     -17.744441      1.131564       48151.875    
  22720000   235.67659      12917.76      -1341.7449      6169.7484      1735.5326      15394.729     -4206.9847     -17.375739      1.1324649      48113.572    
  22740000   237.62207      12794.868     -1309.0336      6170.7792      1723.354       15219.296     -4181.323      -13.009366      1.1390271      47836.378    
  22760000   238.09035      12828.425     -1334.3112      6159.575       1763.4173      15262.277     -4195.0947     -12.569018      1.1332649      48079.604    
  22780000   240.61153      12779.675     -1292.987       6148.1875      1746.7597      15206.954     -4187.3753     -25.892455      1.1330604      48088.281    
  22800000   242.14959      12861.444     -1321.9918      6153.1428      1730.9827      15352.456     -4221.5105     -15.746994      1.1327457      48101.644    
  22800102   239.40355      12892.811     -1331.9278      6152.5253      1738.1322      15366.671     -4213.6295     -3.2231203      1.1349179      48009.576    
Loop time of 4127.49 on 24 procs for 1200000 steps with 4952 atoms

Performance: 6.280 ns/day, 3.822 hours/ns, 290.734 timesteps/s, 1.440 Matom-step/s
99.5% CPU use with 24 MPI tasks x no OpenMP threads

MPI task timing breakdown:
Section |  min time  |  avg time  |  max time  |%varavg| %total
---------------------------------------------------------------
Pair    | 2033.8     | 2314.3     | 2544.2     | 334.3 | 56.07
Bond    | 717.33     | 798.95     | 903.48     | 189.3 | 19.36
Kspace  | 548.8      | 818.19     | 1179.8     | 673.2 | 19.82
Neigh   | 18.412     | 18.43      | 18.448     |   0.3 |  0.45
Comm    | 125.31     | 127.35     | 128.96     |   8.5 |  3.09
Output  | 0.0045876  | 0.0049784  | 0.013321   |   2.5 |  0.00
Modify  | 31.786     | 36.393     | 39.308     |  36.6 |  0.88
Other   |            | 13.83      |            |       |  0.34

Nlocal:        206.333 ave         228 max         188 min
Histogram: 1 2 3 4 5 2 1 4 1 1
Nghost:        5011.58 ave        5047 max        4965 min
Histogram: 1 0 0 5 2 5 5 3 1 2
Neighs:        77109.8 ave       85471 max       65943 min
Histogram: 2 0 3 2 3 2 3 3 2 4

Total # of neighbors = 1850634
Ave neighs/atom = 373.71446
Ave special neighs/atom = 6.4321486
Neighbor list builds = 6281
Dangerous builds = 0
unfix           fNPT
unfix           fMOM
next            a
jump            SELF loop
variable        a loop 26
variable        b equal 600-20*($a-1)
variable        b equal 600-20*(20-1)
fix             fMOM all momentum 100 linear 1 1 1 angular
fix             fNPT all npt temp $b $b $(100.0*dt) iso 1 1 $(100.0*dt)
fix             fNPT all npt temp 220 $b $(100.0*dt) iso 1 1 $(100.0*dt)
fix             fNPT all npt temp 220 220 $(100.0*dt) iso 1 1 $(100.0*dt)
fix             fNPT all npt temp 220 220 25 iso 1 1 $(100.0*dt)
fix             fNPT all npt temp 220 220 25 iso 1 1 25
run             1200000
PPPM initialization ...
  using 12-bit tables for long-range coulomb (../kspace.cpp:342)
  G vector (1/distance) = 0.15710836
  grid = 6 6 6
  stencil order = 5
  estimated absolute RMS force accuracy = 0.26771275
  estimated relative force accuracy = 0.000806209
  using double precision KISS FFT
  3d grid and FFT values/proc = 392 12
Generated 45 of 45 mixed pair_coeff terms from sixthpower/sixthpower mixing rule
WARNING: Inconsistent image flags (../domain.cpp:815)
Per MPI rank memory allocation (min/avg/max) = 16.13 | 16.14 | 16.14 Mbytes
   Step          Temp          PotEng         E_vdwl         E_coul         E_bond        E_angle        E_dihed        E_impro        Density         Volume    
  22800102   239.40355      12892.838     -1331.9278      6156.6711      1738.1322      15366.671     -4213.6295     -3.2231203      1.1349179      48009.576    
  22820000   220.17055      12567.373     -1347.9575      6158.0229      1613.6196      15222.074     -4244.7085     -14.68248       1.1340751      48045.259    
  22840000   219.88344      12569.305     -1368.5007      6160.1751      1616.1852      15251.535     -4248.3166     -22.667333      1.1370768      47918.425    
  22860000   214.11471      12526.171     -1343.7671      6172.4249      1639.491       15090.822     -4201.1917     -11.790505      1.1380108      47879.096    
  22880000   218.53904      12546.394     -1358.369       6145.6366      1669.6349      15137.716     -4214.3591     -13.932623      1.1357673      47973.674    
  22900000   217.87733      12485.092     -1351.2781      6156.4191      1616.1091      15134.156     -4235.4967     -14.640633      1.1436123      47644.583    
  22920000   221.49744      12490.987     -1322.2364      6154.0312      1600.28        15130.381     -4233.0968     -18.181438      1.1393675      47822.087    
  22940000   220.61404      12477.043     -1361.0666      6144.1538      1625.2222      15170.134     -4268.4264     -13.089597      1.138465       47859.993    
  22960000   218.08849      12497.991     -1357.6213      6154.6501      1623.5579      15100.38      -4195.2208     -8.8719192      1.1370053      47921.437    
  22980000   219.34758      12541.212     -1386.483       6153.2624      1680.7128      15156.328     -4227.1668     -15.714674      1.1384226      47861.779    
  23000000   221.88013      12548.363     -1347.976       6169.4086      1654.07        15126.866     -4219.8197     -14.135029      1.1295692      48236.913    
  23020000   221.21704      12524.633     -1332.9264      6153.0407      1657.5221      15137.774     -4255.8376     -14.534095      1.1395535      47814.28     
  23040000   221.78547      12558.173     -1385.2017      6160.4048      1679.9076      15157.677     -4214.5245     -19.550977      1.1421042      47707.493    
  23060000   220.37411      12564.344     -1364.9697      6151.5015      1622.3287      15224.169     -4236.5353     -13.133561      1.1353348      47991.95     
  23080000   222.62147      12537.282     -1362.4674      6170.8         1629.6895      15132.474     -4196.8285     -17.557688      1.1372482      47911.204    
  23100000   218.89193      12542.099     -1347.6499      6162.6788      1605.5076      15166.9       -4210.7214     -14.728269      1.1400992      47791.394    
  23120000   221.811        12472.315     -1323.3075      6159.2522      1551.7887      15151.671     -4236.6531     -10.107357      1.1365766      47939.512    
  23140000   222.82035      12535.728     -1383.1973      6163.0746      1615.0717      15223.634     -4251.233      -11.730787      1.1342982      48035.808    
  23160000   223.98357      12551.629     -1328.0924      6139.8928      1574.5309      15197.711     -4198.1767     -15.241101      1.1364741      47943.838    
  23180000   220.21277      12535.656     -1315.883       6152.5598      1642.7898      15094.867     -4208.002      -12.316546      1.135602       47980.656    
  23200000   219.63245      12516.436     -1306.6869      6150.0744      1629.2767      15118.568     -4239.0644     -15.771038      1.1432379      47660.186    
  23220000   221.02094      12523.3       -1337.1169      6148.357       1665.6231      15106.005     -4219.7902     -19.675958      1.1374942      47900.841    
  23240000   220.94704      12524.329     -1327.3693      6145.2346      1632.5833      15150.413     -4235.6884     -20.128823      1.1353981      47989.274    
  23260000   218.34145      12593.281     -1300.8041      6152.2491      1610.3798      15189.357     -4226.4094     -12.544995      1.1345112      48026.789    
  23280000   220.61529      12485.517     -1336.8621      6153.7297      1586.8633      15143.306     -4222.0799     -20.190235      1.135526       47983.867    
  23300000   218.12609      12449.552     -1351.7         6157.3072      1570.1168      15125.371     -4218.9092     -14.008769      1.1411965      47745.439    
  23320000   220.96155      12533.699     -1369.2063      6177.4879      1679.7735      15135.455     -4254.7826     -15.813174      1.1352885      47993.906    
  23340000   220.90406      12534.88      -1319.3324      6164.723       1604.0099      15108.438     -4195.9458     -7.5215513      1.1376917      47892.525    
  23360000   220.44328      12553.254     -1344.8446      6149.4405      1645.7551      15158.856     -4222.536      -14.5668        1.1384565      47860.353    
  23380000   217.7602       12536.355     -1364.4378      6155.6355      1646.527       15107.965     -4174.0318     -15.617864      1.1375863      47896.965    
  23400000   214.63618      12539.423     -1353.021       6160.6431      1624.1393      15181.33      -4244.1829     -9.9788408      1.1369201      47925.032    
  23420000   221.95162      12544.318     -1333.0827      6140.2983      1623.5813      15138.595     -4201.2631     -3.6012168      1.1387653      47847.375    
  23440000   222.00405      12570.333     -1366.6302      6159.6609      1647.2688      15180.858     -4215.4429     -16.287238      1.1360339      47962.416    
  23460000   224.58635      12460.699     -1345.7792      6147.6234      1634.554       15086.278     -4232.4782     -9.1770155      1.1394763      47817.519    
  23480000   220.49336      12497.016     -1363.554       6152.4865      1590.5987      15167.83      -4223.4894     -7.3191749      1.1307077      48188.341    
  23500000   219.18334      12526.035     -1363.3844      6146.086       1596.2286      15188.597     -4208.2491     -13.576969      1.1427368      47681.083    
  23520000   215.9284       12462.63      -1341.3305      6155.9228      1595.101       15118.81      -4230.6538     -15.326197      1.1420065      47711.577    
  23540000   220.01364      12521.153     -1401.6761      6158.2698      1612.3734      15184.026     -4199.5991     -11.572827      1.1396045      47812.139    
  23560000   219.1303       12468.442     -1357.6373      6145.2342      1605.2098      15166.549     -4256.0036     -14.544715      1.1359894      47964.292    
  23580000   218.82973      12490.01      -1377.8449      6154.7543      1620.0297      15127.653     -4208.6527     -6.9617097      1.139812       47803.435    
  23600000   218.01892      12513.909     -1347.4094      6162.4787      1580.3662      15165.004     -4213.8271     -13.510102      1.1357349      47975.042    
  23620000   220.3357       12575.436     -1340.675       6154.0838      1656.7309      15177.143     -4236.3952     -15.261606      1.134842       48012.79     
  23640000   219.87974      12551.409     -1356.5558      6167.9726      1650.4171      15134.994     -4208.8333     -17.950026      1.136367       47948.358    
  23660000   213.65272      12525.311     -1331.8558      6158.5915      1633.1366      15124.337     -4219.9962     -19.508216      1.1398624      47801.323    
  23680000   215.53354      12538.135     -1337.7781      6156.5387      1587.6474      15176.077     -4204.1478     -20.267934      1.1294851      48240.503    
  23700000   215.02101      12496.239     -1366.9442      6151.3416      1620.7518      15128.632     -4205.2357     -12.959112      1.1380348      47878.086    
  23720000   218.00939      12482.203     -1371.2022      6143.4442      1636.7643      15180.353     -4270.7116     -16.933879      1.1410094      47753.269    
  23740000   217.78059      12465.39      -1422.2988      6148.9989      1639.7176      15170.843     -4237.4479     -15.488326      1.1337701      48058.18     
  23760000   215.44626      12498.735     -1348.4857      6149.2938      1657.3677      15106.573     -4234.3468     -11.313227      1.1374899      47901.023    
  23780000   215.97768      12543.245     -1336.9225      6146.3685      1613.3293      15174.193     -4220.9454     -13.075234      1.1317412      48144.336    
  23800000   217.19686      12577.564     -1317.6311      6174.5254      1663.2146      15120.03      -4224.7164     -18.594534      1.1326634      48105.137    
  23820000   219.96055      12529.851     -1348.0524      6152.5561      1623.8311      15138.541     -4203.7521     -12.743878      1.1332121      48081.847    
  23840000   219.01142      12524.189     -1392.5403      6168.7242      1600.1029      15170.235     -4190.3757     -11.828499      1.1343085      48035.372    
  23860000   219.17979      12544.092     -1333.6317      6161.253       1641.9155      15137.653     -4220.3173     -22.290115      1.1365929      47938.827    
  23880000   220.77593      12547.106     -1336.3747      6162.876       1598.0827      15179.621     -4220.3119     -17.292538      1.1307092      48188.278    
  23900000   223.19503      12558.709     -1372.4609      6146.442       1597.2764      15222.615     -4196.0701     -18.741351      1.1343163      48035.042    
  23920000   218.86585      12506.507     -1346.405       6166.6418      1601.7237      15167.755     -4244.1909     -18.484154      1.1352383      47996.03     
  23940000   216.39087      12525.857     -1394.1476      6143.5985      1654.052       15171.968     -4214.0473     -15.990724      1.1390451      47835.621    
  23960000   218.58666      12551.823     -1387.8186      6163.8975      1631.6372      15182.168     -4200.6441     -17.60477       1.1394675      47817.886    
  23980000   222.73688      12586.099     -1386.3113      6168.8712      1636.0753      15203.644     -4203.6601     -13.628858      1.1357986      47972.351    
  24000000   223.54959      12549.51      -1401.3269      6161.4446      1656.6526      15190.581     -4230.1388     -8.387816       1.1416385      47726.954    
  24000102   219.89811      12566.509     -1383.7845      6155.2343      1627.8647      15174.396     -4171.2306     -15.984386      1.138767       47847.302    
Loop time of 4127.28 on 24 procs for 1200000 steps with 4952 atoms

Performance: 6.280 ns/day, 3.822 hours/ns, 290.749 timesteps/s, 1.440 Matom-step/s
99.5% CPU use with 24 MPI tasks x no OpenMP threads

MPI task timing breakdown:
Section |  min time  |  avg time  |  max time  |%varavg| %total
---------------------------------------------------------------
Pair    | 2034.6     | 2312.5     | 2525.2     | 336.0 | 56.03
Bond    | 719.43     | 798.48     | 899.05     | 185.2 | 19.35
Kspace  | 529.51     | 821.51     | 1178.3     | 673.4 | 19.90
Neigh   | 17.011     | 17.026     | 17.051     |   0.3 |  0.41
Comm    | 125.32     | 127.4      | 129.06     |   8.7 |  3.09
Output  | 0.0028881  | 0.0034216  | 0.015057   |   4.1 |  0.00
Modify  | 31.628     | 36.351     | 39.168     |  36.3 |  0.88
Other   |            | 13.97      |            |       |  0.34

Nlocal:        206.333 ave         227 max         192 min
Histogram: 4 3 3 2 3 2 4 1 1 1
Nghost:        5011.83 ave        5066 max        4941 min
Histogram: 1 0 3 3 5 1 3 2 4 2
Neighs:        77430.8 ave       85590 max       68013 min
Histogram: 2 3 1 3 2 3 1 3 1 5

Total # of neighbors = 1858339
Ave neighs/atom = 375.2704
Ave special neighs/atom = 6.4321486
Neighbor list builds = 5789
Dangerous builds = 0
