LAMMPS (22 Dec 2022)
WARNING: Using I/O redirection is unreliable with parallel runs. Better to use the -in switch to read input files. (../lammps.cpp:531)
# PREREQUISITES:
#
#     You must use moltemplate.sh to create 3 files:
#        system.data  system.in.init  system.in.settings
#     (Follow the instructions in README_setup.sh,
#      or run the file as a script using ./README_setup.sh)

# ------------------------------- Initialization Section --------------------

units real
atom_style full
pair_style lj/class2/coul/cut 10.0
bond_style class2
angle_style class2
dihedral_style class2
improper_style class2


# ------------------------------- Atom Definition Section -------------------

read_data       "pack_mol.data" extra/bond/per/atom 1 extra/angle/per/atom 12 extra/dihedral/per/atom 12 extra/improper/per/atom 12 extra/special/per/atom 12
Reading data file ...
  orthogonal box = (0 0 0) to (48.466429 48.466429 48.466429)
  1 by 2 by 3 MPI processor grid
  reading atoms ...
  5010 atoms
  scanning bonds ...
  5 = max bonds/atom
  scanning angles ...
  18 = max angles/atom
  scanning dihedrals ...
  31 = max dihedrals/atom
  scanning impropers ...
  16 = max impropers/atom
  reading bonds ...
  5405 bonds
  reading angles ...
  11200 angles
  reading dihedrals ...
  18015 dihedrals
  reading impropers ...
  7200 impropers
Finding 1-2 1-3 1-4 neighbors ...
  special bond factors lj:    0        0        0       
  special bond factors coul:  0        0        0       
     4 = max # of 1-2 neighbors
     9 = max # of 1-3 neighbors
    24 = max # of 1-4 neighbors
    36 = max # of special neighbors
  special bonds CPU = 0.001 seconds
  read_data CPU = 0.095 seconds

include calc.pram

# Masses

mass	1	12.01115	#	c
mass	2	12.01115	#	c1
mass	3	12.01115	#	c3h
mass	4	1.00797	#	h
mass	5	1.00797	#	hc
mass	6	15.99940	#	o3e
mass	7	15.99940	#	oc
mass	8	15.99940	#	oh

# Potentials

pair_coeff	1	1	0.05400	4.01000	#	c,c
pair_coeff	2	2	0.05400	4.01000	#	c1,c1
pair_coeff	3	3	0.05400	4.01000	#	c3h,c3h
pair_coeff	4	4	0.02000	2.99500	#	h,h
pair_coeff	5	5	0.02000	2.99500	#	hc,hc
pair_coeff	6	6	0.24000	3.53500	#	o3e,o3e
pair_coeff	7	7	0.24000	3.53500	#	oc,oc
pair_coeff	8	8	0.24000	3.53500	#	oh,oh

# Bond Coeffs

bond_coeff	1	1.53000	299.67000	-501.77000	679.81000	#	c,c
bond_coeff	2	1.53000	299.67000	-501.77000	679.81000	#	c,c1
bond_coeff	3	1.53000	299.67000	-501.77000	679.81000	#	c,c3h
bond_coeff	4	1.10100	345.00000	-691.89000	844.60000	#	c,hc
bond_coeff	5	1.42000	400.39540	-835.19510	1313.01420	#	c,o3e
bond_coeff	6	1.42000	400.39540	-835.19510	1313.01420	#	c,oc
bond_coeff	7	1.42000	400.39540	-835.19510	1313.01420	#	c,oh
bond_coeff	8	1.53000	299.67000	-501.77000	679.81000	#	c1,c1
bond_coeff	9	1.10100	345.00000	-691.89000	844.60000	#	c1,hc
bond_coeff	10	1.42000	400.39540	-835.19510	1313.01420	#	c1,oc
bond_coeff	11	1.10100	345.00000	-691.89000	844.60000	#	c3h,hc
bond_coeff	12	1.42000	400.39540	-835.19510	1313.01420	#	c3h,o3e
bond_coeff	13	0.96000	493.84800	0.00000	0.00000	#	h,oh

# Angle Coeffs

angle_coeff	1	112.67000	39.51600	-7.44300	-9.55830	#	c,c,c
angle_coeff	2	110.77000	41.45300	-10.60400	5.12900	#	c,c,hc
angle_coeff	3	111.27000	54.53810	-8.36420	-13.08380	#	c,c,oc
angle_coeff	4	112.67000	39.51600	-7.44300	-9.55830	#	c,c1,c
angle_coeff	5	112.67000	39.51600	-7.44300	-9.55830	#	c,c1,c1
angle_coeff	6	110.77000	41.45300	-10.60400	5.12900	#	c,c1,hc
angle_coeff	7	111.27000	54.53810	-8.36420	-13.08380	#	c,c1,oc
angle_coeff	8	112.67000	39.51600	-7.44300	-9.55830	#	c,c3h,c
angle_coeff	9	110.77000	41.45300	-10.60400	5.12900	#	c,c3h,hc
angle_coeff	10	111.27000	54.53810	-8.36420	-13.08380	#	c,c3h,o3e
angle_coeff	11	104.50000	35.74540	-10.00670	-6.27290	#	c,o3e,c3h
angle_coeff	12	104.50000	35.74540	-10.00670	-6.27290	#	c,oc,c
angle_coeff	13	104.50000	35.74540	-10.00670	-6.27290	#	c,oc,c1
angle_coeff	14	109.00000	58.50000	0.00000	0.00000	#	c,oh,h
angle_coeff	15	112.67000	39.51600	-7.44300	-9.55830	#	c1,c,c1
angle_coeff	16	110.77000	41.45300	-10.60400	5.12900	#	c1,c,hc
angle_coeff	17	111.27000	54.53810	-8.36420	-13.08380	#	c1,c,oc
angle_coeff	18	111.27000	54.53810	-8.36420	-13.08380	#	c1,c,oh
angle_coeff	19	112.67000	39.51600	-7.44300	-9.55830	#	c1,c1,c1
angle_coeff	20	110.77000	41.45300	-10.60400	5.12900	#	c1,c1,hc
angle_coeff	21	110.77000	41.45300	-10.60400	5.12900	#	c3h,c,hc
angle_coeff	22	111.27000	54.53810	-8.36420	-13.08380	#	c3h,c,o3e
angle_coeff	23	111.27000	54.53810	-8.36420	-13.08380	#	c3h,c,oc
angle_coeff	24	107.66000	39.64100	-12.92100	-2.43180	#	hc,c,hc
angle_coeff	25	108.72800	58.54460	-10.80880	-12.40060	#	hc,c,o3e
angle_coeff	26	108.72800	58.54460	-10.80880	-12.40060	#	hc,c,oc
angle_coeff	27	108.72800	58.54460	-10.80880	-12.40060	#	hc,c,oh
angle_coeff	28	108.72800	58.54460	-10.80880	-12.40060	#	hc,c1,oc
angle_coeff	29	108.72800	58.54460	-10.80880	-12.40060	#	hc,c3h,o3e

# BondBond Coeffs

angle_coeff	1	bb	0.00000	1.53000	1.53000	#	c,c,c
angle_coeff	2	bb	3.38720	1.53000	1.10100	#	c,c,hc
angle_coeff	3	bb	11.43180	1.53000	1.42000	#	c,c,oc
angle_coeff	4	bb	0.00000	1.53000	1.53000	#	c,c1,c
angle_coeff	5	bb	0.00000	1.53000	1.53000	#	c,c1,c1
angle_coeff	6	bb	3.38720	1.53000	1.10100	#	c,c1,hc
angle_coeff	7	bb	11.43180	1.53000	1.42000	#	c,c1,oc
angle_coeff	8	bb	0.00000	1.53000	1.53000	#	c,c3h,c
angle_coeff	9	bb	3.38720	1.53000	1.10100	#	c,c3h,hc
angle_coeff	10	bb	11.43180	1.53000	1.42000	#	c,c3h,o3e
angle_coeff	11	bb	-7.11310	1.42000	1.42000	#	c,o3e,c3h
angle_coeff	12	bb	-7.11310	1.42000	1.42000	#	c,oc,c
angle_coeff	13	bb	-7.11310	1.42000	1.42000	#	c,oc,c1
angle_coeff	14	bb	0.00000	1.42000	0.96000	#	c,oh,h
angle_coeff	15	bb	0.00000	1.53000	1.53000	#	c1,c,c1
angle_coeff	16	bb	3.38720	1.53000	1.10100	#	c1,c,hc
angle_coeff	17	bb	11.43180	1.53000	1.42000	#	c1,c,oc
angle_coeff	18	bb	11.43180	1.53000	1.42000	#	c1,c,oh
angle_coeff	19	bb	0.00000	1.53000	1.53000	#	c1,c1,c1
angle_coeff	20	bb	3.38720	1.53000	1.10100	#	c1,c1,hc
angle_coeff	21	bb	3.38720	1.53000	1.10100	#	c3h,c,hc
angle_coeff	22	bb	11.43180	1.53000	1.42000	#	c3h,c,o3e
angle_coeff	23	bb	11.43180	1.53000	1.42000	#	c3h,c,oc
angle_coeff	24	bb	5.33160	1.10100	1.10100	#	hc,c,hc
angle_coeff	25	bb	23.19790	1.10100	1.42000	#	hc,c,o3e
angle_coeff	26	bb	23.19790	1.10100	1.42000	#	hc,c,oc
angle_coeff	27	bb	23.19790	1.10100	1.42000	#	hc,c,oh
angle_coeff	28	bb	23.19790	1.10100	1.42000	#	hc,c1,oc
angle_coeff	29	bb	23.19790	1.10100	1.42000	#	hc,c3h,o3e

# BondAngle Coeffs

angle_coeff	1	ba	8.01600	8.01600	1.53000	1.53000	#	c,c,c
angle_coeff	2	ba	11.42100	20.75400	1.53000	1.10100	#	c,c,hc
angle_coeff	3	ba	2.68680	20.40330	1.53000	1.42000	#	c,c,oc
angle_coeff	4	ba	8.01600	8.01600	1.53000	1.53000	#	c,c1,c
angle_coeff	5	ba	8.01600	8.01600	1.53000	1.53000	#	c,c1,c1
angle_coeff	6	ba	11.42100	20.75400	1.53000	1.10100	#	c,c1,hc
angle_coeff	7	ba	2.68680	20.40330	1.53000	1.42000	#	c,c1,oc
angle_coeff	8	ba	8.01600	8.01600	1.53000	1.53000	#	c,c3h,c
angle_coeff	9	ba	11.42100	20.75400	1.53000	1.10100	#	c,c3h,hc
angle_coeff	10	ba	2.68680	20.40330	1.53000	1.42000	#	c,c3h,o3e
angle_coeff	11	ba	-2.81120	-2.81120	1.42000	1.42000	#	c,o3e,c3h
angle_coeff	12	ba	-2.81120	-2.81120	1.42000	1.42000	#	c,oc,c
angle_coeff	13	ba	-2.81120	-2.81120	1.42000	1.42000	#	c,oc,c1
angle_coeff	14	ba	0.00000	0.00000	1.42000	0.96000	#	c,oh,h
angle_coeff	15	ba	8.01600	8.01600	1.53000	1.53000	#	c1,c,c1
angle_coeff	16	ba	20.75400	11.42100	1.53000	1.10100	#	c1,c,hc
angle_coeff	17	ba	2.68680	20.40330	1.53000	1.42000	#	c1,c,oc
angle_coeff	18	ba	2.68680	20.40330	1.53000	1.42000	#	c1,c,oh
angle_coeff	19	ba	8.01600	8.01600	1.53000	1.53000	#	c1,c1,c1
angle_coeff	20	ba	20.75400	11.42100	1.53000	1.10100	#	c1,c1,hc
angle_coeff	21	ba	11.42100	20.75400	1.53000	1.10100	#	c3h,c,hc
angle_coeff	22	ba	2.68680	20.40330	1.53000	1.42000	#	c3h,c,o3e
angle_coeff	23	ba	20.40330	2.68680	1.53000	1.42000	#	c3h,c,oc
angle_coeff	24	ba	18.10300	18.10300	1.10100	1.10100	#	hc,c,hc
angle_coeff	25	ba	4.61890	55.32700	1.10100	1.42000	#	hc,c,o3e
angle_coeff	26	ba	4.61890	55.32700	1.10100	1.42000	#	hc,c,oc
angle_coeff	27	ba	4.61890	55.32700	1.10100	1.42000	#	hc,c,oh
angle_coeff	28	ba	4.61890	55.32700	1.10100	1.42000	#	hc,c1,oc
angle_coeff	29	ba	4.61890	55.32700	1.10100	1.42000	#	hc,c3h,o3e

# Dihedral Coeffs

dihedral_coeff	1	0.00000	0.00000	0.03160	0.00000	-0.16810	0.00000	#	c,c,c,hc
dihedral_coeff	2	0.71370	0.00000	0.26600	0.00000	-0.25450	0.00000	#	c,c,c,oc
dihedral_coeff	3	-0.52030	0.00000	-0.30280	0.00000	-0.34500	0.00000	#	c,c,oc,c
dihedral_coeff	4	-0.52030	0.00000	-0.30280	0.00000	-0.34500	0.00000	#	c,c,oc,c1
dihedral_coeff	5	0.00000	0.00000	0.05140	0.00000	-0.14300	0.00000	#	c,c1,c,c1
dihedral_coeff	6	0.00000	0.00000	0.03160	0.00000	-0.16810	0.00000	#	c,c1,c,hc
dihedral_coeff	7	0.71370	0.00000	0.26600	0.00000	-0.25450	0.00000	#	c,c1,c,oc
dihedral_coeff	8	0.71370	0.00000	0.26600	0.00000	-0.25450	0.00000	#	c,c1,c,oh
dihedral_coeff	9	0.00000	0.00000	0.05140	0.00000	-0.14300	0.00000	#	c,c1,c1,c
dihedral_coeff	10	0.00000	0.00000	0.05140	0.00000	-0.14300	0.00000	#	c,c1,c1,c1
dihedral_coeff	11	0.00000	0.00000	0.03160	0.00000	-0.16810	0.00000	#	c,c1,c1,hc
dihedral_coeff	12	-0.52030	0.00000	-0.30280	0.00000	-0.34500	0.00000	#	c,c1,oc,c
dihedral_coeff	13	0.00000	0.00000	0.03160	0.00000	-0.16810	0.00000	#	c,c3h,c,hc
dihedral_coeff	14	0.71370	0.00000	0.26600	0.00000	-0.25450	0.00000	#	c,c3h,c,o3e
dihedral_coeff	15	0.71370	0.00000	0.26600	0.00000	-0.25450	0.00000	#	c,c3h,c,oc
dihedral_coeff	16	-0.52030	0.00000	-0.30280	0.00000	-0.34500	0.00000	#	c,c3h,o3e,c
dihedral_coeff	17	0.53020	0.00000	0.00000	0.00000	-0.39660	0.00000	#	c,o3e,c3h,hc
dihedral_coeff	18	-0.52030	0.00000	-0.30280	0.00000	-0.34500	0.00000	#	c,oc,c,c1
dihedral_coeff	19	-0.52030	0.00000	-0.30280	0.00000	-0.34500	0.00000	#	c,oc,c,c3h
dihedral_coeff	20	0.53020	0.00000	0.00000	0.00000	-0.39660	0.00000	#	c,oc,c,hc
dihedral_coeff	21	0.53020	0.00000	0.00000	0.00000	-0.39660	0.00000	#	c,oc,c1,hc
dihedral_coeff	22	0.00000	0.00000	0.05140	0.00000	-0.14300	0.00000	#	c1,c,c1,c1
dihedral_coeff	23	0.00000	0.00000	0.03160	0.00000	-0.16810	0.00000	#	c1,c,c1,hc
dihedral_coeff	24	0.00000	0.00000	0.00000	0.00000	0.13000	180.00000	#	c1,c,oh,h
dihedral_coeff	25	0.00000	0.00000	0.03160	0.00000	-0.16810	0.00000	#	c1,c1,c,hc
dihedral_coeff	26	0.71370	0.00000	0.26600	0.00000	-0.25450	0.00000	#	c1,c1,c,oc
dihedral_coeff	27	0.00000	0.00000	0.05140	0.00000	-0.14300	0.00000	#	c1,c1,c1,c1
dihedral_coeff	28	0.00000	0.00000	0.03160	0.00000	-0.16810	0.00000	#	c1,c1,c1,hc
dihedral_coeff	29	0.53020	0.00000	0.00000	0.00000	-0.39660	0.00000	#	c1,oc,c,hc
dihedral_coeff	30	0.53020	0.00000	0.00000	0.00000	-0.39660	0.00000	#	c3h,o3e,c,hc
dihedral_coeff	31	0.00000	0.00000	0.00000	0.00000	0.13000	180.00000	#	h,oh,c,hc
dihedral_coeff	32	-0.14320	0.00000	0.06170	0.00000	-0.10830	0.00000	#	hc,c,c,hc
dihedral_coeff	33	-0.14350	0.00000	0.25300	0.00000	-0.09050	0.00000	#	hc,c,c,oc
dihedral_coeff	34	-0.14320	0.00000	0.06170	0.00000	-0.10830	0.00000	#	hc,c,c1,hc
dihedral_coeff	35	-0.14350	0.00000	0.25300	0.00000	-0.09050	0.00000	#	hc,c,c1,oc
dihedral_coeff	36	-0.14320	0.00000	0.06170	0.00000	-0.10830	0.00000	#	hc,c,c3h,hc
dihedral_coeff	37	-0.14350	0.00000	0.25300	0.00000	-0.09050	0.00000	#	hc,c,c3h,o3e
dihedral_coeff	38	-0.14350	0.00000	0.25300	0.00000	-0.09050	0.00000	#	hc,c1,c,oc
dihedral_coeff	39	-0.14350	0.00000	0.25300	0.00000	-0.09050	0.00000	#	hc,c1,c,oh
dihedral_coeff	40	-0.14320	0.00000	0.06170	0.00000	-0.10830	0.00000	#	hc,c1,c1,hc
dihedral_coeff	41	-0.14350	0.00000	0.25300	0.00000	-0.09050	0.00000	#	hc,c3h,c,o3e
dihedral_coeff	42	-0.14350	0.00000	0.25300	0.00000	-0.09050	0.00000	#	hc,c3h,c,oc
dihedral_coeff	43	-0.18200	0.00000	-0.10840	0.00000	-0.70470	0.00000	#	o3e,c3h,c,oc
dihedral_coeff	44	-0.18200	0.00000	-0.10840	0.00000	-0.70470	0.00000	#	oc,c,c1,oc
dihedral_coeff	45	-0.18200	0.00000	-0.10840	0.00000	-0.70470	0.00000	#	oc,c1,c,oh
dihedral_coeff	46	-0.52030	0.00000	-0.30280	0.00000	-0.34500	0.00000	#	c1,c,oc,c1

# MiddleBondTorsion Coeffs

dihedral_coeff	1	mbt	-14.87900	-3.65810	-0.31380	1.53000	#	c,c,c,hc
dihedral_coeff	2	mbt	-21.88420	-7.67640	-0.68680	1.53000	#	c,c,c,oc
dihedral_coeff	3	mbt	-5.92880	-2.70070	-0.31750	1.42000	#	c,c,oc,c
dihedral_coeff	4	mbt	-5.92880	-2.70070	-0.31750	1.42000	#	c,c,oc,c1
dihedral_coeff	5	mbt	-17.78700	-7.18770	0.00000	1.53000	#	c,c1,c,c1
dihedral_coeff	6	mbt	-14.87900	-3.65810	-0.31380	1.53000	#	c,c1,c,hc
dihedral_coeff	7	mbt	-21.88420	-7.67640	-0.68680	1.53000	#	c,c1,c,oc
dihedral_coeff	8	mbt	-21.88420	-7.67640	-0.68680	1.53000	#	c,c1,c,oh
dihedral_coeff	9	mbt	-17.78700	-7.18770	0.00000	1.53000	#	c,c1,c1,c
dihedral_coeff	10	mbt	-17.78700	-7.18770	0.00000	1.53000	#	c,c1,c1,c1
dihedral_coeff	11	mbt	-14.87900	-3.65810	-0.31380	1.53000	#	c,c1,c1,hc
dihedral_coeff	12	mbt	-5.92880	-2.70070	-0.31750	1.42000	#	c,c1,oc,c
dihedral_coeff	13	mbt	-14.87900	-3.65810	-0.31380	1.53000	#	c,c3h,c,hc
dihedral_coeff	14	mbt	-21.88420	-7.67640	-0.68680	1.53000	#	c,c3h,c,o3e
dihedral_coeff	15	mbt	-21.88420	-7.67640	-0.68680	1.53000	#	c,c3h,c,oc
dihedral_coeff	16	mbt	-5.92880	-2.70070	-0.31750	1.42000	#	c,c3h,o3e,c
dihedral_coeff	17	mbt	-6.80070	-4.65460	-1.41010	1.42000	#	c,o3e,c3h,hc
dihedral_coeff	18	mbt	-5.92880	-2.70070	-0.31750	1.42000	#	c,oc,c,c1
dihedral_coeff	19	mbt	-5.92880	-2.70070	-0.31750	1.42000	#	c,oc,c,c3h
dihedral_coeff	20	mbt	-6.80070	-4.65460	-1.41010	1.42000	#	c,oc,c,hc
dihedral_coeff	21	mbt	-6.80070	-4.65460	-1.41010	1.42000	#	c,oc,c1,hc
dihedral_coeff	22	mbt	-17.78700	-7.18770	0.00000	1.53000	#	c1,c,c1,c1
dihedral_coeff	23	mbt	-14.87900	-3.65810	-0.31380	1.53000	#	c1,c,c1,hc
dihedral_coeff	24	mbt	0.00000	0.00000	0.00000	1.42000	#	c1,c,oh,h
dihedral_coeff	25	mbt	-14.87900	-3.65810	-0.31380	1.53000	#	c1,c1,c,hc
dihedral_coeff	26	mbt	-21.88420	-7.67640	-0.68680	1.53000	#	c1,c1,c,oc
dihedral_coeff	27	mbt	-17.78700	-7.18770	0.00000	1.53000	#	c1,c1,c1,c1
dihedral_coeff	28	mbt	-14.87900	-3.65810	-0.31380	1.53000	#	c1,c1,c1,hc
dihedral_coeff	29	mbt	-6.80070	-4.65460	-1.41010	1.42000	#	c1,oc,c,hc
dihedral_coeff	30	mbt	-6.80070	-4.65460	-1.41010	1.42000	#	c3h,o3e,c,hc
dihedral_coeff	31	mbt	0.00000	0.00000	0.00000	1.42000	#	h,oh,c,hc
dihedral_coeff	32	mbt	-14.26100	-0.53220	-0.48640	1.53000	#	hc,c,c,hc
dihedral_coeff	33	mbt	-16.79750	-1.22960	-0.27500	1.53000	#	hc,c,c,oc
dihedral_coeff	34	mbt	-14.26100	-0.53220	-0.48640	1.53000	#	hc,c,c1,hc
dihedral_coeff	35	mbt	-16.79750	-1.22960	-0.27500	1.53000	#	hc,c,c1,oc
dihedral_coeff	36	mbt	-14.26100	-0.53220	-0.48640	1.53000	#	hc,c,c3h,hc
dihedral_coeff	37	mbt	-16.79750	-1.22960	-0.27500	1.53000	#	hc,c,c3h,o3e
dihedral_coeff	38	mbt	-16.79750	-1.22960	-0.27500	1.53000	#	hc,c1,c,oc
dihedral_coeff	39	mbt	-16.79750	-1.22960	-0.27500	1.53000	#	hc,c1,c,oh
dihedral_coeff	40	mbt	-14.26100	-0.53220	-0.48640	1.53000	#	hc,c1,c1,hc
dihedral_coeff	41	mbt	-16.79750	-1.22960	-0.27500	1.53000	#	hc,c3h,c,o3e
dihedral_coeff	42	mbt	-16.79750	-1.22960	-0.27500	1.53000	#	hc,c3h,c,oc
dihedral_coeff	43	mbt	-17.25850	-3.61570	-0.83640	1.53000	#	o3e,c3h,c,oc
dihedral_coeff	44	mbt	-17.25850	-3.61570	-0.83640	1.53000	#	oc,c,c1,oc
dihedral_coeff	45	mbt	-17.25850	-3.61570	-0.83640	1.53000	#	oc,c1,c,oh
dihedral_coeff	46	mbt	-5.92880	-2.70070	-0.31750	1.42000	#	c1,c,oc,c1

# EndBondTorsion Coeffs

dihedral_coeff	1	ebt	0.08140	0.05910	0.22190	0.24860	0.24220	-0.09250	1.53000	1.10100	#	c,c,c,hc
dihedral_coeff	2	ebt	-0.31900	0.44110	-0.71740	1.15380	0.84090	-0.91380	1.53000	1.42000	#	c,c,c,oc
dihedral_coeff	3	ebt	-0.24560	1.05170	-0.77950	0.47410	1.26350	0.55760	1.53000	1.42000	#	c,c,oc,c
dihedral_coeff	4	ebt	0.47410	1.26350	0.55760	-0.24560	1.05170	-0.77950	1.53000	1.42000	#	c,c,oc,c1
dihedral_coeff	5	ebt	-0.07320	0.00000	0.00000	-0.07320	0.00000	0.00000	1.53000	1.53000	#	c,c1,c,c1
dihedral_coeff	6	ebt	0.08140	0.05910	0.22190	0.24860	0.24220	-0.09250	1.53000	1.10100	#	c,c1,c,hc
dihedral_coeff	7	ebt	-0.31900	0.44110	-0.71740	1.15380	0.84090	-0.91380	1.53000	1.42000	#	c,c1,c,oc
dihedral_coeff	8	ebt	-0.31900	0.44110	-0.71740	1.15380	0.84090	-0.91380	1.53000	1.42000	#	c,c1,c,oh
dihedral_coeff	9	ebt	-0.07320	0.00000	0.00000	-0.07320	0.00000	0.00000	1.53000	1.53000	#	c,c1,c1,c
dihedral_coeff	10	ebt	-0.07320	0.00000	0.00000	-0.07320	0.00000	0.00000	1.53000	1.53000	#	c,c1,c1,c1
dihedral_coeff	11	ebt	0.08140	0.05910	0.22190	0.24860	0.24220	-0.09250	1.53000	1.10100	#	c,c1,c1,hc
dihedral_coeff	12	ebt	-0.24560	1.05170	-0.77950	0.47410	1.26350	0.55760	1.53000	1.42000	#	c,c1,oc,c
dihedral_coeff	13	ebt	0.08140	0.05910	0.22190	0.24860	0.24220	-0.09250	1.53000	1.10100	#	c,c3h,c,hc
dihedral_coeff	14	ebt	-0.31900	0.44110	-0.71740	1.15380	0.84090	-0.91380	1.53000	1.42000	#	c,c3h,c,o3e
dihedral_coeff	15	ebt	-0.31900	0.44110	-0.71740	1.15380	0.84090	-0.91380	1.53000	1.42000	#	c,c3h,c,oc
dihedral_coeff	16	ebt	-0.24560	1.05170	-0.77950	0.47410	1.26350	0.55760	1.53000	1.42000	#	c,c3h,o3e,c
dihedral_coeff	17	ebt	-0.60540	1.33390	0.96480	-0.16200	0.15640	-1.14080	1.42000	1.10100	#	c,o3e,c3h,hc
dihedral_coeff	18	ebt	-0.24560	1.05170	-0.77950	0.47410	1.26350	0.55760	1.42000	1.53000	#	c,oc,c,c1
dihedral_coeff	19	ebt	0.47410	1.26350	0.55760	-0.24560	1.05170	-0.77950	1.42000	1.53000	#	c,oc,c,c3h
dihedral_coeff	20	ebt	-0.60540	1.33390	0.96480	-0.16200	0.15640	-1.14080	1.42000	1.10100	#	c,oc,c,hc
dihedral_coeff	21	ebt	-0.60540	1.33390	0.96480	-0.16200	0.15640	-1.14080	1.42000	1.10100	#	c,oc,c1,hc
dihedral_coeff	22	ebt	-0.07320	0.00000	0.00000	-0.07320	0.00000	0.00000	1.53000	1.53000	#	c1,c,c1,c1
dihedral_coeff	23	ebt	0.24860	0.24220	-0.09250	0.08140	0.05910	0.22190	1.53000	1.10100	#	c1,c,c1,hc
dihedral_coeff	24	ebt	0.00000	0.00000	0.00000	0.00000	0.00000	0.00000	1.53000	0.96000	#	c1,c,oh,h
dihedral_coeff	25	ebt	0.24860	0.24220	-0.09250	0.08140	0.05910	0.22190	1.53000	1.10100	#	c1,c1,c,hc
dihedral_coeff	26	ebt	-0.31900	0.44110	-0.71740	1.15380	0.84090	-0.91380	1.53000	1.42000	#	c1,c1,c,oc
dihedral_coeff	27	ebt	-0.07320	0.00000	0.00000	-0.07320	0.00000	0.00000	1.53000	1.53000	#	c1,c1,c1,c1
dihedral_coeff	28	ebt	0.24860	0.24220	-0.09250	0.08140	0.05910	0.22190	1.53000	1.10100	#	c1,c1,c1,hc
dihedral_coeff	29	ebt	-0.16200	0.15640	-1.14080	-0.60540	1.33390	0.96480	1.42000	1.10100	#	c1,oc,c,hc
dihedral_coeff	30	ebt	-0.60540	1.33390	0.96480	-0.16200	0.15640	-1.14080	1.42000	1.10100	#	c3h,o3e,c,hc
dihedral_coeff	31	ebt	0.00000	0.00000	0.00000	0.00000	0.00000	0.00000	0.96000	1.10100	#	h,oh,c,hc
dihedral_coeff	32	ebt	0.21300	0.31200	0.07770	0.21300	0.31200	0.07770	1.10100	1.10100	#	hc,c,c,hc
dihedral_coeff	33	ebt	0.96810	0.95510	0.04360	0.59030	0.66690	0.85840	1.10100	1.42000	#	hc,c,c,oc
dihedral_coeff	34	ebt	0.21300	0.31200	0.07770	0.21300	0.31200	0.07770	1.10100	1.10100	#	hc,c,c1,hc
dihedral_coeff	35	ebt	0.96810	0.95510	0.04360	0.59030	0.66690	0.85840	1.10100	1.42000	#	hc,c,c1,oc
dihedral_coeff	36	ebt	0.21300	0.31200	0.07770	0.21300	0.31200	0.07770	1.10100	1.10100	#	hc,c,c3h,hc
dihedral_coeff	37	ebt	0.96810	0.95510	0.04360	0.59030	0.66690	0.85840	1.10100	1.42000	#	hc,c,c3h,o3e
dihedral_coeff	38	ebt	0.96810	0.95510	0.04360	0.59030	0.66690	0.85840	1.10100	1.42000	#	hc,c1,c,oc
dihedral_coeff	39	ebt	0.96810	0.95510	0.04360	0.59030	0.66690	0.85840	1.10100	1.42000	#	hc,c1,c,oh
dihedral_coeff	40	ebt	0.21300	0.31200	0.07770	0.21300	0.31200	0.07770	1.10100	1.10100	#	hc,c1,c1,hc
dihedral_coeff	41	ebt	0.96810	0.95510	0.04360	0.59030	0.66690	0.85840	1.10100	1.42000	#	hc,c3h,c,o3e
dihedral_coeff	42	ebt	0.96810	0.95510	0.04360	0.59030	0.66690	0.85840	1.10100	1.42000	#	hc,c3h,c,oc
dihedral_coeff	43	ebt	1.01650	0.75530	-0.46090	1.01650	0.75530	-0.46090	1.42000	1.42000	#	o3e,c3h,c,oc
dihedral_coeff	44	ebt	1.01650	0.75530	-0.46090	1.01650	0.75530	-0.46090	1.42000	1.42000	#	oc,c,c1,oc
dihedral_coeff	45	ebt	1.01650	0.75530	-0.46090	1.01650	0.75530	-0.46090	1.42000	1.42000	#	oc,c1,c,oh
dihedral_coeff	46	ebt	-0.24560	1.05170	-0.77950	0.47410	1.26350	0.55760	1.53000	1.42000	#	c1,c,oc,c1

# AngleTorsion Coeffs

dihedral_coeff	1	at	0.31130	0.45160	-0.19880	-0.24540	0.00000	-0.11360	112.67000	110.77000	#	c,c,c,hc
dihedral_coeff	2	at	0.56230	-0.30410	-0.40150	0.96720	-0.75660	-1.23310	112.67000	111.27000	#	c,c,c,oc
dihedral_coeff	3	at	-2.74660	1.48770	-0.89550	0.56760	0.94500	0.07030	111.27000	104.50000	#	c,c,oc,c
dihedral_coeff	4	at	0.56760	0.94500	0.07030	-2.74660	1.48770	-0.89550	111.27000	104.50000	#	c,c,oc,c1
dihedral_coeff	5	at	0.38860	-0.31390	0.13890	0.38860	-0.31390	0.13890	112.67000	112.67000	#	c,c1,c,c1
dihedral_coeff	6	at	0.31130	0.45160	-0.19880	-0.24540	0.00000	-0.11360	112.67000	110.77000	#	c,c1,c,hc
dihedral_coeff	7	at	0.56230	-0.30410	-0.40150	0.96720	-0.75660	-1.23310	112.67000	111.27000	#	c,c1,c,oc
dihedral_coeff	8	at	0.56230	-0.30410	-0.40150	0.96720	-0.75660	-1.23310	112.67000	111.27000	#	c,c1,c,oh
dihedral_coeff	9	at	0.38860	-0.31390	0.13890	0.38860	-0.31390	0.13890	112.67000	112.67000	#	c,c1,c1,c
dihedral_coeff	10	at	0.38860	-0.31390	0.13890	0.38860	-0.31390	0.13890	112.67000	112.67000	#	c,c1,c1,c1
dihedral_coeff	11	at	0.31130	0.45160	-0.19880	-0.24540	0.00000	-0.11360	112.67000	110.77000	#	c,c1,c1,hc
dihedral_coeff	12	at	-2.74660	1.48770	-0.89550	0.56760	0.94500	0.07030	111.27000	104.50000	#	c,c1,oc,c
dihedral_coeff	13	at	0.31130	0.45160	-0.19880	-0.24540	0.00000	-0.11360	112.67000	110.77000	#	c,c3h,c,hc
dihedral_coeff	14	at	0.56230	-0.30410	-0.40150	0.96720	-0.75660	-1.23310	112.67000	111.27000	#	c,c3h,c,o3e
dihedral_coeff	15	at	0.56230	-0.30410	-0.40150	0.96720	-0.75660	-1.23310	112.67000	111.27000	#	c,c3h,c,oc
dihedral_coeff	16	at	-2.74660	1.48770	-0.89550	0.56760	0.94500	0.07030	111.27000	104.50000	#	c,c3h,o3e,c
dihedral_coeff	17	at	-1.82340	1.63930	0.51440	-0.77770	0.43400	-0.66530	104.50000	108.72800	#	c,o3e,c3h,hc
dihedral_coeff	18	at	-2.74660	1.48770	-0.89550	0.56760	0.94500	0.07030	104.50000	111.27000	#	c,oc,c,c1
dihedral_coeff	19	at	0.56760	0.94500	0.07030	-2.74660	1.48770	-0.89550	104.50000	111.27000	#	c,oc,c,c3h
dihedral_coeff	20	at	-1.82340	1.63930	0.51440	-0.77770	0.43400	-0.66530	104.50000	108.72800	#	c,oc,c,hc
dihedral_coeff	21	at	-1.82340	1.63930	0.51440	-0.77770	0.43400	-0.66530	104.50000	108.72800	#	c,oc,c1,hc
dihedral_coeff	22	at	0.38860	-0.31390	0.13890	0.38860	-0.31390	0.13890	112.67000	112.67000	#	c1,c,c1,c1
dihedral_coeff	23	at	-0.24540	0.00000	-0.11360	0.31130	0.45160	-0.19880	112.67000	110.77000	#	c1,c,c1,hc
dihedral_coeff	24	at	0.00000	0.00000	0.00000	0.00000	0.00000	0.00000	111.27000	109.00000	#	c1,c,oh,h
dihedral_coeff	25	at	-0.24540	0.00000	-0.11360	0.31130	0.45160	-0.19880	112.67000	110.77000	#	c1,c1,c,hc
dihedral_coeff	26	at	0.56230	-0.30410	-0.40150	0.96720	-0.75660	-1.23310	112.67000	111.27000	#	c1,c1,c,oc
dihedral_coeff	27	at	0.38860	-0.31390	0.13890	0.38860	-0.31390	0.13890	112.67000	112.67000	#	c1,c1,c1,c1
dihedral_coeff	28	at	-0.24540	0.00000	-0.11360	0.31130	0.45160	-0.19880	112.67000	110.77000	#	c1,c1,c1,hc
dihedral_coeff	29	at	-0.77770	0.43400	-0.66530	-1.82340	1.63930	0.51440	104.50000	108.72800	#	c1,oc,c,hc
dihedral_coeff	30	at	-1.82340	1.63930	0.51440	-0.77770	0.43400	-0.66530	104.50000	108.72800	#	c3h,o3e,c,hc
dihedral_coeff	31	at	0.00000	0.00000	0.00000	0.00000	0.00000	0.00000	109.00000	108.72800	#	h,oh,c,hc
dihedral_coeff	32	at	-0.80850	0.55690	-0.24660	-0.80850	0.55690	-0.24660	110.77000	110.77000	#	hc,c,c,hc
dihedral_coeff	33	at	2.36680	2.49200	-1.01220	-0.18920	0.49180	0.72730	110.77000	111.27000	#	hc,c,c,oc
dihedral_coeff	34	at	-0.80850	0.55690	-0.24660	-0.80850	0.55690	-0.24660	110.77000	110.77000	#	hc,c,c1,hc
dihedral_coeff	35	at	2.36680	2.49200	-1.01220	-0.18920	0.49180	0.72730	110.77000	111.27000	#	hc,c,c1,oc
dihedral_coeff	36	at	-0.80850	0.55690	-0.24660	-0.80850	0.55690	-0.24660	110.77000	110.77000	#	hc,c,c3h,hc
dihedral_coeff	37	at	2.36680	2.49200	-1.01220	-0.18920	0.49180	0.72730	110.77000	111.27000	#	hc,c,c3h,o3e
dihedral_coeff	38	at	2.36680	2.49200	-1.01220	-0.18920	0.49180	0.72730	110.77000	111.27000	#	hc,c1,c,oc
dihedral_coeff	39	at	2.36680	2.49200	-1.01220	-0.18920	0.49180	0.72730	110.77000	111.27000	#	hc,c1,c,oh
dihedral_coeff	40	at	-0.80850	0.55690	-0.24660	-0.80850	0.55690	-0.24660	110.77000	110.77000	#	hc,c1,c1,hc
dihedral_coeff	41	at	2.36680	2.49200	-1.01220	-0.18920	0.49180	0.72730	110.77000	111.27000	#	hc,c3h,c,o3e
dihedral_coeff	42	at	2.36680	2.49200	-1.01220	-0.18920	0.49180	0.72730	110.77000	111.27000	#	hc,c3h,c,oc
dihedral_coeff	43	at	0.55110	0.97370	-0.66730	0.55110	0.97370	-0.66730	111.27000	111.27000	#	o3e,c3h,c,oc
dihedral_coeff	44	at	0.55110	0.97370	-0.66730	0.55110	0.97370	-0.66730	111.27000	111.27000	#	oc,c,c1,oc
dihedral_coeff	45	at	0.55110	0.97370	-0.66730	0.55110	0.97370	-0.66730	111.27000	111.27000	#	oc,c1,c,oh
dihedral_coeff	46	at	-2.74660	1.48770	-0.89550	0.56760	0.94500	0.07030	111.27000	104.50000	#	c1,c,oc,c1

# AngleAngleTorsion Coeffs

dihedral_coeff	1	aat	-16.16400	112.67000	110.77000	#	c,c,c,hc
dihedral_coeff	2	aat	-29.04200	112.67000	111.27000	#	c,c,c,oc
dihedral_coeff	3	aat	-19.00590	111.27000	104.50000	#	c,c,oc,c
dihedral_coeff	4	aat	-19.00590	111.27000	104.50000	#	c,c,oc,c1
dihedral_coeff	5	aat	-22.04500	112.67000	112.67000	#	c,c1,c,c1
dihedral_coeff	6	aat	-16.16400	112.67000	110.77000	#	c,c1,c,hc
dihedral_coeff	7	aat	-29.04200	112.67000	111.27000	#	c,c1,c,oc
dihedral_coeff	8	aat	-29.04200	112.67000	111.27000	#	c,c1,c,oh
dihedral_coeff	9	aat	-22.04500	112.67000	112.67000	#	c,c1,c1,c
dihedral_coeff	10	aat	-22.04500	112.67000	112.67000	#	c,c1,c1,c1
dihedral_coeff	11	aat	-16.16400	112.67000	110.77000	#	c,c1,c1,hc
dihedral_coeff	12	aat	-19.00590	111.27000	104.50000	#	c,c1,oc,c
dihedral_coeff	13	aat	-16.16400	112.67000	110.77000	#	c,c3h,c,hc
dihedral_coeff	14	aat	-29.04200	112.67000	111.27000	#	c,c3h,c,o3e
dihedral_coeff	15	aat	-29.04200	112.67000	111.27000	#	c,c3h,c,oc
dihedral_coeff	16	aat	-19.00590	111.27000	104.50000	#	c,c3h,o3e,c
dihedral_coeff	17	aat	-16.44380	104.50000	108.72800	#	c,o3e,c3h,hc
dihedral_coeff	18	aat	-19.00590	104.50000	111.27000	#	c,oc,c,c1
dihedral_coeff	19	aat	-19.00590	104.50000	111.27000	#	c,oc,c,c3h
dihedral_coeff	20	aat	-16.44380	104.50000	108.72800	#	c,oc,c,hc
dihedral_coeff	21	aat	-16.44380	104.50000	108.72800	#	c,oc,c1,hc
dihedral_coeff	22	aat	-22.04500	112.67000	112.67000	#	c1,c,c1,c1
dihedral_coeff	23	aat	-16.16400	112.67000	110.77000	#	c1,c,c1,hc
dihedral_coeff	24	aat	0.00000	111.27000	109.00000	#	c1,c,oh,h
dihedral_coeff	25	aat	-16.16400	112.67000	110.77000	#	c1,c1,c,hc
dihedral_coeff	26	aat	-29.04200	112.67000	111.27000	#	c1,c1,c,oc
dihedral_coeff	27	aat	-22.04500	112.67000	112.67000	#	c1,c1,c1,c1
dihedral_coeff	28	aat	-16.16400	112.67000	110.77000	#	c1,c1,c1,hc
dihedral_coeff	29	aat	-16.44380	104.50000	108.72800	#	c1,oc,c,hc
dihedral_coeff	30	aat	-16.44380	104.50000	108.72800	#	c3h,o3e,c,hc
dihedral_coeff	31	aat	0.00000	109.00000	108.72800	#	h,oh,c,hc
dihedral_coeff	32	aat	-12.56400	110.77000	110.77000	#	hc,c,c,hc
dihedral_coeff	33	aat	-20.20060	110.77000	111.27000	#	hc,c,c,oc
dihedral_coeff	34	aat	-12.56400	110.77000	110.77000	#	hc,c,c1,hc
dihedral_coeff	35	aat	-20.20060	110.77000	111.27000	#	hc,c,c1,oc
dihedral_coeff	36	aat	-12.56400	110.77000	110.77000	#	hc,c,c3h,hc
dihedral_coeff	37	aat	-20.20060	110.77000	111.27000	#	hc,c,c3h,o3e
dihedral_coeff	38	aat	-20.20060	110.77000	111.27000	#	hc,c1,c,oc
dihedral_coeff	39	aat	-20.20060	110.77000	111.27000	#	hc,c1,c,oh
dihedral_coeff	40	aat	-12.56400	110.77000	110.77000	#	hc,c1,c1,hc
dihedral_coeff	41	aat	-20.20060	110.77000	111.27000	#	hc,c3h,c,o3e
dihedral_coeff	42	aat	-20.20060	110.77000	111.27000	#	hc,c3h,c,oc
dihedral_coeff	43	aat	-14.04840	111.27000	111.27000	#	o3e,c3h,c,oc
dihedral_coeff	44	aat	-14.04840	111.27000	111.27000	#	oc,c,c1,oc
dihedral_coeff	45	aat	-14.04840	111.27000	111.27000	#	oc,c1,c,oh
dihedral_coeff	46	aat	-19.00590	111.27000	104.50000	#	c1,c,oc,c1

# BondBond13 Coeffs

dihedral_coeff	1	bb13	0.00000	1.53000	1.10100	#	c,c,c,hc
dihedral_coeff	2	bb13	0.00000	1.53000	1.42000	#	c,c,c,oc
dihedral_coeff	3	bb13	0.00000	1.53000	1.42000	#	c,c,oc,c
dihedral_coeff	4	bb13	0.00000	1.53000	1.42000	#	c,c,oc,c1
dihedral_coeff	5	bb13	0.00000	1.53000	1.53000	#	c,c1,c,c1
dihedral_coeff	6	bb13	0.00000	1.53000	1.10100	#	c,c1,c,hc
dihedral_coeff	7	bb13	0.00000	1.53000	1.42000	#	c,c1,c,oc
dihedral_coeff	8	bb13	0.00000	1.53000	1.42000	#	c,c1,c,oh
dihedral_coeff	9	bb13	0.00000	1.53000	1.53000	#	c,c1,c1,c
dihedral_coeff	10	bb13	0.00000	1.53000	1.53000	#	c,c1,c1,c1
dihedral_coeff	11	bb13	0.00000	1.53000	1.10100	#	c,c1,c1,hc
dihedral_coeff	12	bb13	0.00000	1.53000	1.42000	#	c,c1,oc,c
dihedral_coeff	13	bb13	0.00000	1.53000	1.10100	#	c,c3h,c,hc
dihedral_coeff	14	bb13	0.00000	1.53000	1.42000	#	c,c3h,c,o3e
dihedral_coeff	15	bb13	0.00000	1.53000	1.42000	#	c,c3h,c,oc
dihedral_coeff	16	bb13	0.00000	1.53000	1.42000	#	c,c3h,o3e,c
dihedral_coeff	17	bb13	0.00000	1.42000	1.10100	#	c,o3e,c3h,hc
dihedral_coeff	18	bb13	0.00000	1.42000	1.53000	#	c,oc,c,c1
dihedral_coeff	19	bb13	0.00000	1.42000	1.53000	#	c,oc,c,c3h
dihedral_coeff	20	bb13	0.00000	1.42000	1.10100	#	c,oc,c,hc
dihedral_coeff	21	bb13	0.00000	1.42000	1.10100	#	c,oc,c1,hc
dihedral_coeff	22	bb13	0.00000	1.53000	1.53000	#	c1,c,c1,c1
dihedral_coeff	23	bb13	0.00000	1.53000	1.10100	#	c1,c,c1,hc
dihedral_coeff	24	bb13	0.00000	1.53000	0.96000	#	c1,c,oh,h
dihedral_coeff	25	bb13	0.00000	1.53000	1.10100	#	c1,c1,c,hc
dihedral_coeff	26	bb13	0.00000	1.53000	1.42000	#	c1,c1,c,oc
dihedral_coeff	27	bb13	0.00000	1.53000	1.53000	#	c1,c1,c1,c1
dihedral_coeff	28	bb13	0.00000	1.53000	1.10100	#	c1,c1,c1,hc
dihedral_coeff	29	bb13	0.00000	1.42000	1.10100	#	c1,oc,c,hc
dihedral_coeff	30	bb13	0.00000	1.42000	1.10100	#	c3h,o3e,c,hc
dihedral_coeff	31	bb13	0.00000	0.96000	1.10100	#	h,oh,c,hc
dihedral_coeff	32	bb13	0.00000	1.10100	1.10100	#	hc,c,c,hc
dihedral_coeff	33	bb13	0.00000	1.10100	1.42000	#	hc,c,c,oc
dihedral_coeff	34	bb13	0.00000	1.10100	1.10100	#	hc,c,c1,hc
dihedral_coeff	35	bb13	0.00000	1.10100	1.42000	#	hc,c,c1,oc
dihedral_coeff	36	bb13	0.00000	1.10100	1.10100	#	hc,c,c3h,hc
dihedral_coeff	37	bb13	0.00000	1.10100	1.42000	#	hc,c,c3h,o3e
dihedral_coeff	38	bb13	0.00000	1.10100	1.42000	#	hc,c1,c,oc
dihedral_coeff	39	bb13	0.00000	1.10100	1.42000	#	hc,c1,c,oh
dihedral_coeff	40	bb13	0.00000	1.10100	1.10100	#	hc,c1,c1,hc
dihedral_coeff	41	bb13	0.00000	1.10100	1.42000	#	hc,c3h,c,o3e
dihedral_coeff	42	bb13	0.00000	1.10100	1.42000	#	hc,c3h,c,oc
dihedral_coeff	43	bb13	0.00000	1.42000	1.42000	#	o3e,c3h,c,oc
dihedral_coeff	44	bb13	0.00000	1.42000	1.42000	#	oc,c,c1,oc
dihedral_coeff	45	bb13	0.00000	1.42000	1.42000	#	oc,c1,c,oh
dihedral_coeff	46	bb13	0.00000	1.53000	1.42000	#	c1,c,oc,c1

# Improper Coeffs

improper_coeff	1	0.00000	0.00000	#	c,c,c,hc
improper_coeff	2	0.00000	0.00000	#	c,c,hc,hc
improper_coeff	3	0.00000	0.00000	#	c,c,hc,oc
improper_coeff	4	0.00000	0.00000	#	c,c,oc,hc
improper_coeff	5	0.00000	0.00000	#	c,c1,c1,hc
improper_coeff	6	0.00000	0.00000	#	c,c1,hc,hc
improper_coeff	7	0.00000	0.00000	#	c,c1,hc,oc
improper_coeff	8	0.00000	0.00000	#	c,c1,oc,hc
improper_coeff	9	0.00000	0.00000	#	c,c1,oh,hc
improper_coeff	10	0.00000	0.00000	#	c,c3h,hc,hc
improper_coeff	11	0.00000	0.00000	#	c,c3h,hc,o3e
improper_coeff	12	0.00000	0.00000	#	c,c3h,hc,oc
improper_coeff	13	0.00000	0.00000	#	c,c3h,o3e,hc
improper_coeff	14	0.00000	0.00000	#	c,hc,hc,o3e
improper_coeff	15	0.00000	0.00000	#	c,hc,hc,oc
improper_coeff	16	0.00000	0.00000	#	c,hc,hc,oh
improper_coeff	17	0.00000	0.00000	#	c1,c,c,c
improper_coeff	18	0.00000	0.00000	#	c1,c,c,c1
improper_coeff	19	0.00000	0.00000	#	c1,c,c,hc
improper_coeff	20	0.00000	0.00000	#	c1,c,c,oc
improper_coeff	21	0.00000	0.00000	#	c1,c,c1,c1
improper_coeff	22	0.00000	0.00000	#	c1,c,c1,hc
improper_coeff	23	0.00000	0.00000	#	c1,c,hc,c1
improper_coeff	24	0.00000	0.00000	#	c1,c,hc,oc
improper_coeff	25	0.00000	0.00000	#	c1,c,oc,hc
improper_coeff	26	0.00000	0.00000	#	c1,c1,c1,hc
improper_coeff	27	0.00000	0.00000	#	c3h,c,c,hc
improper_coeff	28	0.00000	0.00000	#	c3h,c,c,o3e
improper_coeff	29	0.00000	0.00000	#	c3h,c,hc,o3e
improper_coeff	30	0.00000	0.00000	#	c3h,c,o3e,hc

# AngleAngle Coeffs

improper_coeff	1	aa	0.00000	0.00000	0.11840	112.67000	110.77000	110.77000	#	c,c,c,hc
improper_coeff	2	aa	0.00000	-0.48250	0.00000	110.77000	110.77000	107.66000	#	c,c,hc,hc
improper_coeff	3	aa	3.91770	2.59260	0.00000	110.77000	111.27000	108.72800	#	c,c,hc,oc
improper_coeff	4	aa	0.00000	2.59260	3.91770	111.27000	110.77000	108.72800	#	c,c,oc,hc
improper_coeff	5	aa	-1.31990	-1.31990	0.11840	112.67000	110.77000	110.77000	#	c,c1,c1,hc
improper_coeff	6	aa	0.27380	-0.48250	0.27380	110.77000	110.77000	107.66000	#	c,c1,hc,hc
improper_coeff	7	aa	3.91770	2.59260	0.16890	110.77000	111.27000	108.72800	#	c,c1,hc,oc
improper_coeff	8	aa	0.16890	2.59260	3.91770	111.27000	110.77000	108.72800	#	c,c1,oc,hc
improper_coeff	9	aa	0.16890	2.59260	3.91770	111.27000	110.77000	108.72800	#	c,c1,oh,hc
improper_coeff	10	aa	0.00000	-0.48250	0.00000	110.77000	110.77000	107.66000	#	c,c3h,hc,hc
improper_coeff	11	aa	3.91770	2.59260	0.00000	110.77000	111.27000	108.72800	#	c,c3h,hc,o3e
improper_coeff	12	aa	0.00000	2.59260	0.00000	110.77000	111.27000	108.72800	#	c,c3h,hc,oc
improper_coeff	13	aa	0.00000	2.59260	3.91770	111.27000	110.77000	108.72800	#	c,c3h,o3e,hc
improper_coeff	14	aa	2.42590	2.42590	2.12830	107.66000	108.72800	108.72800	#	c,hc,hc,o3e
improper_coeff	15	aa	2.42590	2.42590	2.12830	107.66000	108.72800	108.72800	#	c,hc,hc,oc
improper_coeff	16	aa	2.42590	2.42590	2.12830	107.66000	108.72800	108.72800	#	c,hc,hc,oh
improper_coeff	17	aa	-0.17290	-0.17290	-0.17290	112.67000	112.67000	112.67000	#	c1,c,c,c
improper_coeff	18	aa	0.00000	0.00000	-0.17290	112.67000	112.67000	112.67000	#	c1,c,c,c1
improper_coeff	19	aa	0.00000	0.00000	0.11840	112.67000	110.77000	110.77000	#	c1,c,c,hc
improper_coeff	20	aa	-0.83300	-0.83300	-3.57440	112.67000	111.27000	111.27000	#	c1,c,c,oc
improper_coeff	21	aa	0.00000	-0.17290	0.00000	112.67000	112.67000	112.67000	#	c1,c,c1,c1
improper_coeff	22	aa	0.00000	-1.31990	0.00000	112.67000	110.77000	110.77000	#	c1,c,c1,hc
improper_coeff	23	aa	0.00000	-1.31990	0.00000	110.77000	112.67000	110.77000	#	c1,c,hc,c1
improper_coeff	24	aa	3.91770	2.59260	0.00000	110.77000	111.27000	108.72800	#	c1,c,hc,oc
improper_coeff	25	aa	0.00000	2.59260	3.91770	111.27000	110.77000	108.72800	#	c1,c,oc,hc
improper_coeff	26	aa	-1.31990	-1.31990	0.11840	112.67000	110.77000	110.77000	#	c1,c1,c1,hc
improper_coeff	27	aa	0.00000	0.00000	0.11840	112.67000	110.77000	110.77000	#	c3h,c,c,hc
improper_coeff	28	aa	-0.83300	-0.83300	-3.57440	112.67000	111.27000	111.27000	#	c3h,c,c,o3e
improper_coeff	29	aa	3.91770	2.59260	0.00000	110.77000	111.27000	108.72800	#	c3h,c,hc,o3e
improper_coeff	30	aa	0.00000	2.59260	3.91770	111.27000	110.77000	108.72800	#	c3h,c,o3e,hc

# ------------------------------- OPT Section -------------------------------
minimize 1.0e-5 1.0e-7 100000 400000
Generated 28 of 28 mixed pair_coeff terms from sixthpower/geometric mixing rule
Neighbor list info ...
  update: every = 1 steps, delay = 0 steps, check = yes
  max neighbors/atom: 2000, page size: 100000
  master list distance cutoff = 12
  ghost atom cutoff = 12
  binsize = 6, bins = 9 9 9
  1 neighbor lists, perpetual/occasional/extra = 1 0 0
  (1) pair lj/class2/coul/cut, perpetual
      attributes: half, newton on
      pair build: half/bin/newton
      stencil: half/bin/3d
      bin: standard
Per MPI rank memory allocation (min/avg/max) = 29.71 | 30.11 | 30.52 Mbytes
   Step          Temp          E_pair         E_mol          TotEng         Press     
         0   0             -73.480486      27650.656      27577.175     -869.24757    
         4   0             -73.491642      27646.495      27573.003     -870.23536    
Loop time of 0.59812 on 6 procs for 4 steps with 5010 atoms

99.8% CPU use with 6 MPI tasks x no OpenMP threads

Minimization stats:
  Stopping criterion = energy tolerance
  Energy initial, next-to-last, final = 
      27577.1752829911   27573.2133906605   27573.0031514115
  Force two-norm initial, final = 12687.291 3898.282
  Force max component initial, final = 5392.2565 1113.6094
  Final line search alpha, max atom move = 8.431427e-08 9.3893165e-05
  Iterations, force evaluations = 4 68

MPI task timing breakdown:
Section |  min time  |  avg time  |  max time  |%varavg| %total
---------------------------------------------------------------
Pair    | 0.06188    | 0.155      | 0.22861    |  14.3 | 25.91
Bond    | 0.13855    | 0.23909    | 0.33201    |  14.2 | 39.97
Neigh   | 0          | 0          | 0          |   0.0 |  0.00
Comm    | 0.045078   | 0.20043    | 0.39414    |  26.2 | 33.51
Output  | 0          | 0          | 0          |   0.0 |  0.00
Modify  | 0          | 0          | 0          |   0.0 |  0.00
Other   |            | 0.003601   |            |       |  0.60

Nlocal:            835 ave        1027 max         513 min
Histogram: 1 0 0 0 1 1 0 0 0 3
Nghost:        5301.83 ave        5492 max        5049 min
Histogram: 1 0 1 0 1 0 0 0 2 1
Neighs:         145503 ave      211901 max       59010 min
Histogram: 1 0 0 1 1 0 0 0 2 1

Total # of neighbors = 873017
Ave neighs/atom = 174.25489
Ave special neighs/atom = 12.307385
Neighbor list builds = 0
Dangerous builds = 0
# ------------------------------- Run Section -------------------------------
#

thermo_style custom step temp pe evdwl ecoul ebond eangle edihed eimp density vol
thermo          100

fix Langevin  all langevin 300 300 100.0 482432
fix moveLimit all nve/limit 0.1
run 20000
Generated 28 of 28 mixed pair_coeff terms from sixthpower/geometric mixing rule
Per MPI rank memory allocation (min/avg/max) = 28.58 | 28.99 | 29.4 Mbytes
   Step          Temp          PotEng         E_vdwl         E_coul         E_bond        E_angle        E_dihed        E_impro        Density         Volume    
         4   0              27573.003      101.1159      -174.60754      2846.8417      31778.602     -6922.6975     -56.25194       0.44999999     113847.38    
       100   397.60181      24677.906     -712.17425     -198.52669      2259.99        29849.628     -6386.8196     -134.19131      0.44999999     113847.38    
       200   358.097        23219.357     -1109.4781     -267.31022      2213.1686      28912.576     -6394.0686     -135.53064      0.44999999     113847.38    
       300   324.23315      22700.605     -1174.4019     -252.37896      2092.1488      28570.306     -6396.4644     -138.60466      0.44999999     113847.38    
       400   308.87902      22506.016     -1196.5725     -210.78485      2118.2908      28508.362     -6572.1521     -141.12724      0.44999999     113847.38    
       500   309.25582      22292.409     -1226.1558     -279.85613      2126.27        28492.957     -6694.2872     -126.5193       0.44999999     113847.38    
       600   304.58755      22372.38      -1218.6237     -234.94958      2133.8068      28567.751     -6742.3659     -133.23826      0.44999999     113847.38    
       700   299.36586      22290.144     -1237.3727     -185.05811      2080.6502      28561.481     -6796.6643     -132.8916       0.44999999     113847.38    
       800   303.32169      22283.553     -1233.2148     -209.66115      2083.5145      28478.576     -6697.903      -137.75869      0.44999999     113847.38    
       900   314.08552      22259.033     -1217.1003     -219.15851      2134.4535      28434.5       -6747.6534     -126.00859      0.44999999     113847.38    
      1000   307.18236      22135.932     -1238.5943     -307.96995      2166.9075      28487.725     -6834.6771     -137.45892      0.44999999     113847.38    
      1100   303.67338      22120.784     -1225.3761     -298.04088      2091.8951      28505.43      -6816.6294     -136.49482      0.44999999     113847.38    
      1200   302.74622      22184.556     -1232.2535     -268.28082      2120.7852      28521.873     -6824.6197     -132.94878      0.44999999     113847.38    
      1300   310.13551      22239.592     -1234.7776     -255.62335      2206.7715      28483.4       -6823.6926     -136.48674      0.44999999     113847.38    
      1400   302.17737      22121.102     -1263.3549     -264.72267      2180.7886      28414.914     -6813.912      -132.61143      0.44999999     113847.38    
      1500   306.05067      22070.128     -1260.6131     -302.61216      2191.0205      28443.183     -6876.2062     -124.64375      0.44999999     113847.38    
      1600   304.53116      21956.766     -1251.2241     -285.6554       2086.7652      28410.1       -6862.2332     -140.98675      0.44999999     113847.38    
      1700   300.85541      21865.111     -1276.5124     -308.56469      2079.5863      28451.704     -6949.3563     -131.74595      0.44999999     113847.38    
      1800   304.97501      21872.128     -1254.0145     -405.99863      2100.6867      28545.557     -6985.8945     -128.20879      0.44999999     113847.38    
      1900   302.30468      21877.903     -1280.2449     -286.72946      2110.7925      28511.96      -7039.3297     -138.54532      0.44999999     113847.38    
      2000   295.95819      21791.558     -1266.9391     -429.00674      2046.9655      28547.438     -6961.12       -145.77877      0.44999999     113847.38    
      2100   305.71237      21828.66      -1291.5319     -372.91529      2075.1663      28647.212     -7099.4506     -129.82036      0.44999999     113847.38    
      2200   307.02235      21824.909     -1262.408      -319.34297      2081.4316      28444.812     -6991.6705     -127.91342      0.44999999     113847.38    
      2300   303.4609       21951.352     -1256.6728     -325.30883      2184.814       28396.324     -6903.1956     -144.60829      0.44999999     113847.38    
      2400   303.35398      22038.605     -1278.7201     -172.27508      2144.0606      28510.265     -7040.8181     -123.90736      0.44999999     113847.38    
      2500   306.66804      21832.83      -1284.0996     -271.5313       2113.9774      28469.303     -7061.1974     -133.62227      0.44999999     113847.38    
      2600   306.45636      21716.473     -1290.398      -320.67976      2077.9284      28404.642     -7023.0508     -131.96856      0.44999999     113847.38    
      2700   308.35641      21894.668     -1275.9929     -299.65617      2126.8867      28464.45      -6989.2433     -131.77716      0.44999999     113847.38    
      2800   307.04179      21748.337     -1296.6483     -355.72339      2096.7176      28421.787     -6972.7853     -145.01051      0.44999999     113847.38    
      2900   300.78669      21676.135     -1283.1434     -423.50718      2135.9385      28396.222     -7023.6973     -125.67765      0.44999999     113847.38    
      3000   306.50016      21822.595     -1289.0792     -357.92847      2136.3812      28508.214     -7028.6051     -146.38802      0.44999999     113847.38    
      3100   298.64101      21890.398     -1301.4709     -290.43436      2144.0002      28463.765     -6978.4078     -147.05347      0.44999999     113847.38    
      3200   303.81689      21860.124     -1273.4748     -249.77762      2135.1366      28385.902     -7003.3089     -134.35408      0.44999999     113847.38    
      3300   301.6975       21869.107     -1289.4259     -354.07744      2131.2305      28576.09      -7057.0518     -137.65834      0.44999999     113847.38    
      3400   305.1127       21743.235     -1279.2205     -374.42692      2132.5433      28453.111     -7055.1148     -133.65727      0.44999999     113847.38    
      3500   313.49856      21600.825     -1261.002      -473.04544      2044.9221      28492.48      -7069.88       -132.64886      0.44999999     113847.38    
      3600   303.68174      21754.681     -1284.5334     -491.93242      2188.7364      28456.72      -6979.2798     -135.02967      0.44999999     113847.38    
      3700   301.05016      21583.265     -1302.1391     -512.21848      2118.8896      28409.857     -7000.7216     -130.4023       0.44999999     113847.38    
      3800   302.29339      21626.271     -1298.5194     -492.297        2113.335       28471.199     -7039.3603     -128.08605      0.44999999     113847.38    
      3900   307.28047      21610.686     -1292.4664     -400.96866      2099.0933      28394.299     -7056.6219     -132.64945      0.44999999     113847.38    
      4000   300.18355      21660.931     -1305.7496     -408.19313      2111.073       28450.727     -7054.6592     -132.26633      0.44999999     113847.38    
      4100   303.27278      21693.204     -1312.5208     -376.78101      2107.779       28425.606     -7012.5711     -138.30823      0.44999999     113847.38    
      4200   307.60139      21709.515     -1294.6716     -453.58256      2091.7886      28485.878     -6987.3669     -132.53128      0.44999999     113847.38    
      4300   311.59227      21733.939     -1318.9569     -408.73847      2161.2577      28491.114     -7051.2739     -139.46316      0.44999999     113847.38    
      4400   311.99308      21465.197     -1341.6925     -563.38665      2106.7461      28434.834     -7035.7788     -135.52559      0.44999999     113847.38    
      4500   303.72752      21635.42      -1319.1227     -514.69732      2110.5618      28530.835     -7044.2183     -127.93829      0.44999999     113847.38    
      4600   312.33627      21851.263     -1323.6583     -434.88494      2199.9827      28592.238     -7035.2201     -147.19398      0.44999999     113847.38    
      4700   310.04158      21774.767     -1317.6139     -405.49782      2188.0787      28501.52      -7053.4068     -138.31357      0.44999999     113847.38    
      4800   313.96492      21716.265     -1329.7498     -455.05842      2125.5661      28551.063     -7047.4196     -128.13651      0.44999999     113847.38    
      4900   316.75309      21691.711     -1329.1977     -478.51176      2106.9194      28565.352     -7029.7629     -143.08784      0.44999999     113847.38    
      5000   309.74316      21693.907     -1335.1802     -469.37301      2140.7165      28524.584     -7030.5812     -136.26005      0.44999999     113847.38    
      5100   311.06966      21629.825     -1313.1517     -433.95067      2168.5171      28421.536     -7070.1985     -142.92724      0.44999999     113847.38    
      5200   308.13525      21727.538     -1323.7891     -433.65507      2162.8638      28489.958     -7032.1499     -135.68975      0.44999999     113847.38    
      5300   309.38568      21600.941     -1333.3198     -445.08849      2117.0276      28377.497     -6976.8007     -138.37426      0.44999999     113847.38    
      5400   302.58533      21480.188     -1348.8338     -490.91723      2079.6352      28447.141     -7072.5415     -134.29561      0.44999999     113847.38    
      5500   304.00436      21605.776     -1329.3587     -438.7669       2155.812       28407.371     -7056.7385     -132.54252      0.44999999     113847.38    
      5600   303.49418      21499.797     -1364.7788     -474.46034      2136.7526      28353.994     -7025.7754     -125.93469      0.44999999     113847.38    
      5700   311.39545      21590.485     -1366.0226     -526.5726       2190.7547      28364.991     -6929.9696     -142.69635      0.44999999     113847.38    
      5800   304.2155       21636.71      -1351.8185     -422.85425      2162.8938      28354.608     -6968.3924     -137.72663      0.44999999     113847.38    
      5900   306.05528      21504.304     -1305.7046     -469.4268       2107.4977      28381.689     -7076.2598     -133.49164      0.44999999     113847.38    
      6000   302.63009      21494.925     -1308.3461     -447.24343      2031.9773      28360.57      -7014.0568     -127.97598      0.44999999     113847.38    
      6100   301.82836      21592.844     -1314.3051     -385.98746      2105.4291      28384.873     -7059.1467     -138.01899      0.44999999     113847.38    
      6200   308.23846      21637.275     -1324.7262     -368.67742      2094.5158      28498.741     -7116.1233     -146.45527      0.44999999     113847.38    
      6300   306.32423      21687.815     -1325.3624     -427.44569      2120.4482      28484.408     -7029.5612     -134.67165      0.44999999     113847.38    
      6400   305.07674      21564.435     -1322.6244     -467.94382      2101.3404      28515.241     -7120.2169     -141.36082      0.44999999     113847.38    
      6500   307.18138      21542.127     -1314.0801     -472.57237      2131.9548      28448.836     -7116.0948     -135.91741      0.44999999     113847.38    
      6600   307.45966      21712.506     -1352.0224     -413.38957      2158.6209      28514.165     -7053.299      -141.56871      0.44999999     113847.38    
      6700   303.93538      21570.374     -1329.0538     -402.06644      2117.2685      28442.266     -7128.5456     -129.49447      0.44999999     113847.38    
      6800   297.50192      21696.967     -1366.4719     -375.29397      2134.9104      28467.216     -7027.6114     -135.78272      0.44999999     113847.38    
      6900   304.44052      21728.427     -1345.9017     -350.78852      2173.3538      28458.603     -7080.0743     -126.76502      0.44999999     113847.38    
      7000   314.79044      21756.398     -1319.1042     -435.44127      2160.7878      28511.825     -7021.0191     -140.64977      0.44999999     113847.38    
      7100   307.73603      21753.218     -1331.4431     -346.86398      2200.268       28543.871     -7181.5719     -131.04247      0.44999999     113847.38    
      7200   300.26358      21670.734     -1338.3055     -366.84244      2050.4344      28500.196     -7021.3588     -153.38957      0.44999999     113847.38    
      7300   311.59107      21957.793     -1347.5729     -330.25902      2235.9587      28544.524     -6993.4212     -151.43695      0.44999999     113847.38    
      7400   314.14891      21690.154     -1327.5172     -339.62087      2099.3236      28426.938     -7016.561      -152.40838      0.44999999     113847.38    
      7500   309.95565      21722.016     -1328.4869     -354.31184      2066.8774      28527.198     -7053.3245     -135.9361       0.44999999     113847.38    
      7600   306.5381       21700.18      -1354.4795     -301.08906      2137.7028      28419.692     -7059.6685     -141.97759      0.44999999     113847.38    
      7700   313.26521      21763.849     -1366.4921     -350.11295      2162.9456      28568.883     -7116.3873     -134.98799      0.44999999     113847.38    
      7800   311.8953       21798.269     -1335.9324     -300.76163      2151.0178      28402.37      -6974.0221     -144.40263      0.44999999     113847.38    
      7900   312.91125      21752.718     -1346.555      -383.44647      2137.9311      28469.016     -6982.988      -141.2395       0.44999999     113847.38    
      8000   310.22407      21613.603     -1361.4235     -447.96498      2123.5755      28519.534     -7077.4784     -142.63941      0.44999999     113847.38    
      8100   303.78537      21496.113     -1383.9179     -404.63995      2084.6156      28348.788     -7012.0513     -136.68126      0.44999999     113847.38    
      8200   308.46847      21570.038     -1372.9222     -383.79707      2103.6924      28476.666     -7109.0813     -144.51996      0.44999999     113847.38    
      8300   314.03438      21571.385     -1370.6297     -368.58937      2178.6119      28401.294     -7127.9622     -141.33968      0.44999999     113847.38    
      8400   305.46445      21580.94      -1391.6755     -370.12857      2099.9192      28480.173     -7094.1479     -143.19979      0.44999999     113847.38    
      8500   302.56942      21567.646     -1394.4955     -338.10266      2054.9193      28411.947     -7027.6187     -139.00305      0.44999999     113847.38    
      8600   295.91783      21543.335     -1368.5912     -339.93551      2088.1224      28412.606     -7093.9707     -154.89569      0.44999999     113847.38    
      8700   306.42255      21560.107     -1372.0047     -366.46906      2054.3962      28473.453     -7085.7991     -143.46948      0.44999999     113847.38    
      8800   301.06199      21517.825     -1389.1076     -391.89855      2115.5576      28327.529     -7013.3485     -130.90674      0.44999999     113847.38    
      8900   305.42264      21532.842     -1361.8879     -392.84958      2116.1191      28418.131     -7104.0276     -142.64325      0.44999999     113847.38    
      9000   300.1356       21545.409     -1370.3469     -356.50957      2133.155       28379.153     -7104.2933     -135.74916      0.44999999     113847.38    
      9100   312.84716      21495.813     -1387.5439     -419.15605      2103.4437      28375.918     -7036.8379     -140.01053      0.44999999     113847.38    
      9200   307.59361      21654.818     -1400.5413     -347.39328      2134.073       28461.586     -7058.673      -134.23297      0.44999999     113847.38    
      9300   301.41069      21607.722     -1366.6555     -317.94136      2113.8364      28317.941     -6996.2043     -143.25444      0.44999999     113847.38    
      9400   299.38917      21656.374     -1396.8855     -357.37722      2149.903       28479.838     -7087.8465     -131.25718      0.44999999     113847.38    
      9500   304.88879      21604.657     -1365.1522     -402.69115      2098.0729      28357.482     -6939.1314     -143.9231       0.44999999     113847.38    
      9600   309.4124       21676.691     -1385.0931     -307.98362      2161.3584      28396.309     -7055.5791     -132.32077      0.44999999     113847.38    
      9700   310.55609      21470.499     -1383.7302     -457.73987      2122.4442      28296.927     -6951.0155     -156.38694      0.44999999     113847.38    
      9800   304.86968      21629.122     -1395.0952     -347.49741      2103.64        28521.652     -7114.1723     -139.4052       0.44999999     113847.38    
      9900   302.05925      21614.122     -1372.1831     -338.6246       2070.0702      28471.946     -7079.4689     -137.6174       0.44999999     113847.38    
     10000   300.687        21621.231     -1400.952      -322.16306      2117.3581      28462.355     -7087.9631     -147.40379      0.44999999     113847.38    
     10100   302.23599      21514.749     -1386.2468     -415.66036      2114.3927      28509.293     -7158.7025     -148.32706      0.44999999     113847.38    
     10200   307.15299      21525.388     -1379.6867     -466.12369      2160.0167      28390.188     -7032.5052     -146.50088      0.44999999     113847.38    
     10300   304.75847      21414.314     -1401.0758     -442.46588      2087.051       28389.804     -7076.8283     -142.17047      0.44999999     113847.38    
     10400   312.04127      21579.835     -1412.4933     -450.90978      2198.9269      28395.842     -7009.4678     -142.06298      0.44999999     113847.38    
     10500   302.2099       21623.055     -1402.6578     -387.20246      2132.4818      28451.837     -7011.1852     -160.21853      0.44999999     113847.38    
     10600   302.88         21709.711     -1417.6398     -277.3354       2176.8027      28476.645     -7102.8435     -145.91758      0.44999999     113847.38    
     10700   303.97494      21634.248     -1402.3817     -364.74847      2174.9307      28377.307     -7013.3155     -137.54359      0.44999999     113847.38    
     10800   300.95633      21489.284     -1431.8972     -341.37978      2057.9256      28440.384     -7099.7254     -136.02349      0.44999999     113847.38    
     10900   308.95128      21412.888     -1442.2799     -421.85476      2052.6168      28287.286     -6932.3535     -130.52629      0.44999999     113847.38    
     11000   303.70471      21406.03      -1409.7628     -429.17799      2129.085       28309.952     -7051.0996     -142.966        0.44999999     113847.38    
     11100   303.8065       21518.097     -1420.2108     -385.22451      2186.8527      28393.552     -7097.6132     -159.25976      0.44999999     113847.38    
     11200   314.90302      21571.828     -1420.581      -372.99025      2124.3877      28498.871     -7122.7144     -135.14473      0.44999999     113847.38    
     11300   305.07926      21516.176     -1394.5072     -436.80299      2130.0782      28441.829     -7088.0136     -136.40764      0.44999999     113847.38    
     11400   305.85322      21524.423     -1428.2476     -430.48855      2116.2524      28463.284     -7056.0276     -140.34967      0.44999999     113847.38    
     11500   306.33952      21313.847     -1398.6979     -546.25117      2090.9706      28408.925     -7104.0423     -137.05703      0.44999999     113847.38    
     11600   310.3329       21375.137     -1412.6087     -552.79063      2156.2337      28403.781     -7072.7649     -146.71297      0.44999999     113847.38    
     11700   313.82326      21429.577     -1363.8237     -517.57523      2069.9299      28442.563     -7052.0513     -149.46502      0.44999999     113847.38    
     11800   304.90627      21448.449     -1431.8099     -388.45768      2076.6783      28422.244     -7091.1111     -139.09439      0.44999999     113847.38    
     11900   310.94481      21480.012     -1447.3593     -385.90595      2160.7634      28430.319     -7139.7513     -138.05391      0.44999999     113847.38    
     12000   307.08441      21422.999     -1383.5003     -467.49968      2142.1468      28402.844     -7121.0466     -149.94494      0.44999999     113847.38    
     12100   306.65655      21379.43      -1406.1206     -495.3749       2058.75        28413.176     -7039.2192     -151.78145      0.44999999     113847.38    
     12200   306.00503      21425.148     -1403.1067     -422.39558      2126.9391      28385.95      -7110.5723     -151.66716      0.44999999     113847.38    
     12300   302.74049      21488.655     -1433.1061     -399.96425      2129.9771      28395.553     -7056.0176     -147.78654      0.44999999     113847.38    
     12400   300.97461      21475.637     -1430.8641     -318.94642      2070.4621      28329.047     -7038.9911     -135.07087      0.44999999     113847.38    
     12500   304.90115      21589.806     -1404.3109     -320.40702      2116.9052      28397.254     -7054.4874     -145.14744      0.44999999     113847.38    
     12600   304.60524      21568.728     -1424.4491     -355.94823      2170.1843      28459.321     -7139.4331     -140.9472       0.44999999     113847.38    
     12700   305.53008      21495.087     -1430.4507     -388.0091       2081.9637      28422.508     -7041.9589     -148.96639      0.44999999     113847.38    
     12800   299.89239      21437.553     -1411.1939     -432.58034      2069.742       28442.642     -7086.9317     -144.12484      0.44999999     113847.38    
     12900   297.02966      21470.529     -1413.5128     -406.70249      2108.6962      28493.541     -7189.7621     -121.73087      0.44999999     113847.38    
     13000   308.48439      21431.555     -1411.4447     -478.12306      2095.3685      28374.745     -7003.2994     -145.6916       0.44999999     113847.38    
     13100   306.2583       21347.868     -1400.1716     -519.6542       2017.8147      28490.033     -7087.1844     -152.96868      0.44999999     113847.38    
     13200   306.04717      21279.035     -1452.401      -500.88794      2122.9465      28409.408     -7154.1528     -145.87711      0.44999999     113847.38    
     13300   307.50494      21419.08      -1435.5622     -472.43053      2137.6113      28521.552     -7177.8135     -154.27687      0.44999999     113847.38    
     13400   306.29343      21439.424     -1431.6363     -417.11889      2114.9904      28390.303     -7071.1238     -145.99068      0.44999999     113847.38    
     13500   300.40852      21212.987     -1442.1902     -512.51213      1985.8886      28333.568     -7019.1941     -132.57298      0.44999999     113847.38    
     13600   312.36254      21436.343     -1465.3255     -490.95622      2108.8365      28478.465     -7059.5063     -135.17009      0.44999999     113847.38    
     13700   307.45886      21506.549     -1427.8121     -511.72785      2127.3895      28534.54      -7073.0416     -142.79951      0.44999999     113847.38    
     13800   322.49129      21589.566     -1381.8668     -575.57948      2300.1912      28525.079     -7128.4735     -149.78492      0.44999999     113847.38    
     13900   304.15336      21459.299     -1417.9569     -542.99184      2183.4048      28483.611     -7094.4503     -152.31852      0.44999999     113847.38    
     14000   301.50397      21218.923     -1421.2009     -631.57931      2084.0944      28476.465     -7147.6189     -141.23712      0.44999999     113847.38    
     14100   307.90916      21540.61      -1429.8362     -494.39968      2197.1658      28565.592     -7147.6735     -150.23928      0.44999999     113847.38    
     14200   306.20856      21311.76      -1448.7985     -498.31212      2173.9605      28341.388     -7114.9199     -141.55789      0.44999999     113847.38    
     14300   306.57208      21426.031     -1444.6064     -379.28051      2024.6358      28511.066     -7150.5364     -135.24669      0.44999999     113847.38    
     14400   308.08552      21346.522     -1409.8061     -474.98127      2110.8966      28366.997     -7098.8398     -147.74421      0.44999999     113847.38    
     14500   302.65396      21316.209     -1420.5705     -516.0816       2118.7307      28412.281     -7125.9059     -152.24446      0.44999999     113847.38    
     14600   304.47455      21355.336     -1424.5428     -448.094        2130.381       28279.923     -7042.0729     -140.25848      0.44999999     113847.38    
     14700   308.698        21504.408     -1425.3216     -423.35417      2174.7849      28322.763     -6995.467      -148.9977       0.44999999     113847.38    
     14800   304.47999      21413.39      -1426.2932     -440.6401       2100.0726      28421.381     -7096.6377     -144.49258      0.44999999     113847.38    
     14900   300.52128      21377.235     -1426.6549     -433.42219      2059.8337      28373.168     -7048.04       -147.64993      0.44999999     113847.38    
     15000   300.47487      21376.968     -1432.7408     -463.58041      2109.5727      28329.722     -7020.6442     -145.36151      0.44999999     113847.38    
     15100   296.40805      21461.032     -1445.1843     -447.28238      2134.6321      28459.261     -7093.1085     -147.28565      0.44999999     113847.38    
     15200   300.51668      21270.299     -1444.9644     -554.98068      2092.7199      28488.279     -7162.4417     -148.31343      0.44999999     113847.38    
     15300   300.81472      21365.769     -1447.1254     -491.86741      2133.9755      28397.838     -7093.0554     -133.99633      0.44999999     113847.38    
     15400   305.06421      21410.759     -1426.8091     -429.32543      2174.6596      28293.388     -7055.0863     -146.06845      0.44999999     113847.38    
     15500   305.69023      21236.716     -1455.5199     -490.7198       2165.3222      28349.63      -7191.6139     -140.38212      0.44999999     113847.38    
     15600   305.80058      21521.482     -1426.1407     -448.56659      2083.5763      28584.436     -7108.5262     -163.29645      0.44999999     113847.38    
     15700   306.31597      21580.724     -1465.423      -425.40195      2212.3163      28545.046     -7139.5229     -146.29037      0.44999999     113847.38    
     15800   309.80764      21368.588     -1458.6699     -517.03521      2096.7911      28404.229     -7007.8749     -148.85278      0.44999999     113847.38    
     15900   301.8518       21371.926     -1444.5459     -479.27107      2110.6145      28323.45      -7006.5034     -131.8175       0.44999999     113847.38    
     16000   300.96336      21286.071     -1479.6805     -507.26782      2099.3797      28344.184     -7032.1939     -138.35009      0.44999999     113847.38    
     16100   296.93743      21417.145     -1433.4372     -468.45701      2114.5899      28386.138     -7042.1471     -139.54231      0.44999999     113847.38    
     16200   308.74548      21210.581     -1479.0944     -509.1474       2071.0474      28440.328     -7166.9511     -145.60112      0.44999999     113847.38    
     16300   303.99196      21356.963     -1489.703      -461.49774      2139.8359      28408.058     -7098.9324     -140.79758      0.44999999     113847.38    
     16400   305.4464       21469.363     -1478.7478     -376.57405      2135.9949      28477.481     -7139.0936     -149.69753      0.44999999     113847.38    
     16500   306.9432       21360.95      -1469.6565     -402.26404      2167.7379      28414.021     -7211.6772     -137.21131      0.44999999     113847.38    
     16600   307.97206      21415.391     -1501.129      -411.22564      2103.0534      28357.559     -6995.3278     -137.53834      0.44999999     113847.38    
     16700   298.14739      21330.485     -1479.8831     -400.44761      2083.144       28270.741     -7000.5421     -142.52694      0.44999999     113847.38    
     16800   314.95833      21481.988     -1467.684      -376.5708       2034.736       28457.558     -7014.8569     -151.19449      0.44999999     113847.38    
     16900   312.48671      21605.152     -1471.2682     -392.71617      2170.4357      28439.713     -7005.4934     -135.51941      0.44999999     113847.38    
     17000   309.35178      21445.547     -1476.9952     -422.62599      2105.3775      28439.803     -7056.6555     -143.3571       0.44999999     113847.38    
     17100   301.38383      21252.693     -1466.2688     -590.30621      2091.4542      28424.565     -7063.9443     -142.80658      0.44999999     113847.38    
     17200   299.06651      21352.939     -1446.8337     -535.85717      2138.0437      28338.091     -6988.8097     -151.69474      0.44999999     113847.38    
     17300   303.97275      21325.829     -1454.528      -551.28377      2110.3608      28402.951     -7042.6459     -139.02476      0.44999999     113847.38    
     17400   308.38503      21170.873     -1488.6277     -554.06489      2026.9187      28382.256     -7056.8884     -138.72076      0.44999999     113847.38    
     17500   303.98847      21211.15      -1475.8829     -489.48255      2128.2413      28246.686     -7059.8556     -138.55613      0.44999999     113847.38    
     17600   300.56762      21294.676     -1466.3054     -464.67099      2064.7257      28354.699     -7052.0784     -141.69406      0.44999999     113847.38    
     17700   302.59337      21372.131     -1458.8929     -411.41105      2131.5747      28294.969     -7030.4428     -153.66572      0.44999999     113847.38    
     17800   298.54378      21402.141     -1457.895      -444.93265      2156.7296      28355.802     -7061.0684     -146.49449      0.44999999     113847.38    
     17900   314.19368      21352.106     -1483.0211     -426.27398      2059.8223      28393.627     -7056.4642     -135.58389      0.44999999     113847.38    
     18000   311.32244      21342.265     -1472.8262     -484.21332      2144.2687      28307.707     -7008.1011     -144.56963      0.44999999     113847.38    
     18100   312.33493      21413.574     -1474.5983     -401.83906      2089.3092      28405.534     -7074.1437     -130.68887      0.44999999     113847.38    
     18200   301.49562      21273.71      -1474.3372     -477.98608      2078.9188      28412.311     -7135.9841     -129.21181      0.44999999     113847.38    
     18300   302.97168      21432.681     -1479.9294     -398.39846      2162.9775      28520.868     -7220.0824     -152.75374      0.44999999     113847.38    
     18400   307.2364       21241.799     -1477.9018     -541.76928      2065.5146      28471.523     -7136.6812     -138.8866       0.44999999     113847.38    
     18500   305.74709      21310.337     -1480.3234     -500.9229       2093.7538      28442.771     -7108.0297     -136.91177      0.44999999     113847.38    
     18600   300.37985      21258.823     -1475.805      -543.84505      2102.7414      28465.47      -7136.6395     -153.09897      0.44999999     113847.38    
     18700   298.41619      21312.128     -1467.3347     -449.6499       2064.4838      28281.491     -6968.5354     -148.32645      0.44999999     113847.38    
     18800   300.39079      21334.239     -1500.322      -451.00702      2067.1621      28434.661     -7077.0619     -139.19268      0.44999999     113847.38    
     18900   315.44947      21421.491     -1482.7716     -436.69468      2129.2035      28440.468     -7085.195      -143.51876      0.44999999     113847.38    
     19000   300.27514      21235.925     -1480.2072     -455.19718      2011.8342      28335.546     -7044.8705     -131.18129      0.44999999     113847.38    
     19100   305.1321       21385.526     -1481.4611     -334.91353      2102.3959      28340.825     -7107.9908     -133.32967      0.44999999     113847.38    
     19200   300.12458      21403.361     -1467.3304     -378.59441      2169.8291      28361.67      -7148.1859     -134.02801      0.44999999     113847.38    
     19300   310.15836      21331.597     -1499.5852     -426.29999      2128.5916      28362.469     -7094.1332     -139.44467      0.44999999     113847.38    
     19400   300.08677      21280.818     -1486.0218     -423.52349      2073.4633      28318.051     -7051.4319     -149.71839      0.44999999     113847.38    
     19500   299.66452      21334.078     -1504.0578     -414.63614      2118.2099      28294.439     -7023.0747     -136.80236      0.44999999     113847.38    
     19600   303.87578      21227.995     -1487.3587     -480.32099      2150.175       28349.85      -7149.7278     -154.62271      0.44999999     113847.38    
     19700   303.64842      21183.509     -1487.6686     -526.49646      2071.175       28372.637     -7098.561      -147.57704      0.44999999     113847.38    
     19800   307.70655      21201.544     -1517.7249     -520.3859       2064.5949      28424.537     -7098.2419     -151.23448      0.44999999     113847.38    
     19900   302.61457      21197.197     -1500.5074     -502.02358      2131.4134      28415.182     -7202.1574     -144.7102       0.44999999     113847.38    
     20000   295.84837      21159.21      -1545.7208     -532.91262      2048.0506      28435.19      -7094.6521     -150.74552      0.44999999     113847.38    
     20004   294.12882      21201.032     -1551.0657     -524.45315      2061.7835      28485.388     -7114.4071     -156.21357      0.44999999     113847.38    
Loop time of 160.763 on 6 procs for 20000 steps with 5010 atoms

Performance: 10.749 ns/day, 2.233 hours/ns, 124.407 timesteps/s, 623.277 katom-step/s
97.2% CPU use with 6 MPI tasks x no OpenMP threads

MPI task timing breakdown:
Section |  min time  |  avg time  |  max time  |%varavg| %total
---------------------------------------------------------------
Pair    | 12.833     | 35.28      | 53.017     | 239.9 | 21.95
Bond    | 29.533     | 55.108     | 74.028     | 230.6 | 34.28
Neigh   | 3.3722     | 3.4101     | 3.4348     |   1.3 |  2.12
Comm    | 26.155     | 62.055     | 109.4      | 391.8 | 38.60
Output  | 0.2579     | 0.30802    | 0.36593    |   6.4 |  0.19
Modify  | 0.5455     | 0.87785    | 1.1111     |  21.9 |  0.55
Other   |            | 3.724      |            |       |  2.32

Nlocal:            835 ave        1123 max         430 min
Histogram: 1 0 0 1 1 0 0 1 0 2
Nghost:           5324 ave        5592 max        4904 min
Histogram: 1 0 1 0 0 0 1 0 1 2
Neighs:         158415 ave      241736 max       50518 min
Histogram: 1 0 1 0 1 0 0 1 0 2

Total # of neighbors = 950488
Ave neighs/atom = 189.71816
Ave special neighs/atom = 12.307385
Neighbor list builds = 559
Dangerous builds = 0
unfix Langevin
unfix moveLimit



fix 		relax all npt temp 300.0 300.0 100 iso 1.0 1.0 1000
run 1000
Generated 28 of 28 mixed pair_coeff terms from sixthpower/geometric mixing rule
Per MPI rank memory allocation (min/avg/max) = 28.59 | 29.05 | 29.4 Mbytes
   Step          Temp          PotEng         E_vdwl         E_coul         E_bond        E_angle        E_dihed        E_impro        Density         Volume    
     20004   294.12882      21201.032     -1551.0657     -524.45315      2061.7835      28485.388     -7114.4071     -156.21357      0.44999999     113847.38    
     20100   312.10405      21386.936     -1496.9066     -566.66808      2131.669       28433.599     -6981.088      -133.6691       0.45197615     113349.61    
     20200   306.28486      21484.275     -1520.4015     -436.36627      2118.5311      28470.833     -7003.4961     -144.82474      0.45619433     112301.53    
     20300   306.36388      21365.626     -1590.5702     -407.35699      2090.6534      28446.306     -7019.2493     -154.156        0.46125775     111068.75    
     20400   301.38696      21297.689     -1559.9232     -468.32952      2089.4326      28399.894     -7026.5006     -136.88415      0.46621887     109886.85    
     20500   302.87686      21287.781     -1605.5962     -425.78667      2082.5074      28383.396     -6984.8174     -161.92185      0.47029889     108933.54    
     20600   299.81373      21195.115     -1619.3433     -434.85685      2053.5517      28399.624     -7062.9408     -140.92001      0.47407967     108064.79    
     20700   299.27031      21159.395     -1563.1761     -407.84         2070.2064      28322.662     -7124.9892     -137.4678       0.47854486     107056.47    
     20800   301.41433      21183.198     -1610.0199     -407.66071      2074.5428      28281.791     -7019.6243     -135.83063      0.4824406      106191.98    
     20900   309.71517      21200.958     -1618.5737     -510.59464      2020.8455      28499.978     -7045.1193     -145.57856      0.48659376     105285.61    
     21000   301.96912      21208.769     -1614.0341     -517.63422      2110.8345      28457.147     -7081.509      -146.03552      0.49073571     104396.97    
     21004   308.82334      21111.571     -1628.597      -504.436        2071.9956      28453.916     -7132.0631     -149.24384      0.49086948     104368.52    
Loop time of 7.76264 on 6 procs for 1000 steps with 5010 atoms

Performance: 11.130 ns/day, 2.156 hours/ns, 128.822 timesteps/s, 645.399 katom-step/s
99.4% CPU use with 6 MPI tasks x no OpenMP threads

MPI task timing breakdown:
Section |  min time  |  avg time  |  max time  |%varavg| %total
---------------------------------------------------------------
Pair    | 0.64649    | 1.9325     | 3.0537     |  60.9 | 24.89
Bond    | 1.3613     | 2.7437     | 3.9387     |  52.9 | 35.34
Neigh   | 0.44073    | 0.44141    | 0.44224    |   0.1 |  5.69
Comm    | 0.55904    | 2.5381     | 5.2034     | 102.1 | 32.70
Output  | 0.00039917 | 0.00050938 | 0.0010417  |   0.0 |  0.01
Modify  | 0.069073   | 0.072931   | 0.076958   |   0.9 |  0.94
Other   |            | 0.0336     |            |       |  0.43

Nlocal:            835 ave        1147 max         465 min
Histogram: 1 0 0 2 0 0 0 1 1 1
Nghost:        5585.33 ave        5994 max        5116 min
Histogram: 1 1 0 0 0 0 1 2 0 1
Neighs:         171466 ave      273444 max       59256 min
Histogram: 1 0 1 1 0 0 0 1 1 1

Total # of neighbors = 1028797
Ave neighs/atom = 205.3487
Ave special neighs/atom = 12.307385
Neighbor list builds = 68
Dangerous builds = 0
unfix relax


molecule 	pre cleaned_pre-mol
Read molecule template pre:
  1 molecules
  0 fragments
  24 atoms with max type 7
  23 bonds with max type 12
  40 angles with max type 29
  48 dihedrals with max type 43
  24 impropers with max type 29
molecule	post cleaned_post-mol
Read molecule template post:
  1 molecules
  0 fragments
  24 atoms with max type 7
  23 bonds with max type 10
  40 angles with max type 28
  51 dihedrals with max type 46
  24 impropers with max type 25

fix		fxrct all bond/react stabilization yes statted_grp .03 		 react rxn1 all 100 0.0 10.0 pre post semi.map stabilize_steps 2000 molecule inter
dynamic group bond_react_MASTER_group defined
dynamic group statted_grp_REACT defined
fix 		npt statted_grp_REACT npt temp 300.0 300.0 100 iso 1.0 1.0 1000
fix 		reacted bond_react_MASTER_group temp/rescale 1 300.0 300.0 1 1


thermo_style custom step temp pe evdwl ecoul ebond eangle edihed eimp density vol f_fxrct[1]
thermo          100


compute 1 all property/local btype batom1 batom2

compute 2 all stress/atom NULL
fix 5 all ave/atom 1 500 1000 c_2[*]

dump DumpPos all custom 1000 dump.pos id type x y z mol  f_5[*]
dump DumpBond all local 1000 bonds.dump index c_1[*]

run 10000

CITE-CITE-CITE-CITE-CITE-CITE-CITE-CITE-CITE-CITE-CITE-CITE-CITE

Your simulation uses code contributions which should be cited:

- fix bond/react: reacter.org doi:10.1016/j.polymer.2017.09.038, doi:10.1021/acs.macromol.0c02012

@Article{Gissinger17,
 author = {J. R. Gissinger and B. D. Jensen and K. E. Wise},
 title = {Modeling Chemical Reactions in Classical Molecular Dynamics Simulations},
 journal = {Polymer},
 year =    2017,
 volume =  128,
 pages =   {211--217}
}

@Article{Gissinger20,
 author = {J. R. Gissinger, B. D. Jensen, K. E. Wise},
 title = {{REACTER}: A Heuristic Method for Reactive Molecular Dynamics},
 journal = {Macromolecules},
 year =    2020,
 volume =  53,
 number =  22,
 pages =   {9953--9961}
}

CITE-CITE-CITE-CITE-CITE-CITE-CITE-CITE-CITE-CITE-CITE-CITE-CITE

Generated 28 of 28 mixed pair_coeff terms from sixthpower/geometric mixing rule
Neighbor list info ...
  update: every = 1 steps, delay = 0 steps, check = yes
  max neighbors/atom: 2000, page size: 100000
  master list distance cutoff = 12
  ghost atom cutoff = 12
  binsize = 6, bins = 8 8 8
  2 neighbor lists, perpetual/occasional/extra = 1 1 0
  (1) pair lj/class2/coul/cut, perpetual
      attributes: half, newton on
      pair build: half/bin/newton
      stencil: half/bin/3d
      bin: standard
  (2) fix bond/react, occasional, copy from (1)
      attributes: half, newton on
      pair build: copy
      stencil: none
      bin: none
Per MPI rank memory allocation (min/avg/max) = 35.14 | 35.77 | 36.08 Mbytes
   Step          Temp          PotEng         E_vdwl         E_coul         E_bond        E_angle        E_dihed        E_impro        Density         Volume       f_fxrct[1]  
     21004   308.82334      21111.571     -1628.597      -504.436        2071.9956      28453.916     -7132.0631     -149.24384      0.49086948     104368.52      0            
     21100   306.73409      104818.45      343.28043     -444.08224      83789.274      28175.347     -6903.2575     -142.11577      0.49175211     104181.19      1            
     21200   299.76752      21149.231     -1712.4608     -367.96305      2055.9537      28324.685     -7008.6611     -142.32278      0.51855814     98795.714      1            
     21300   310.90047      20915.222     -1748.0275     -345.4382       1948.5719      28264.736     -7057.5411     -147.07966      0.52315546     97927.529      1            
     21400   300.85528      20840.372     -1702.8389     -484.57564      1945.0499      28243.244     -7005.61       -154.89729      0.52406989     97756.66       1            
     21500   295.33663      20857.185     -1715.2103     -521.79643      2062.2536      28263.798     -7082.0422     -149.81769      0.52417724     97736.638      1            
     21600   299.22308      20801.076     -1719.8153     -569.08546      1976.5651      28381.861     -7119.0145     -149.43476      0.52502193     97579.394      1            
     21700   315.31479      21103.604     -1689.6636     -609.58512      2121.3836      28462.882     -7034.6699     -146.74302      0.5267456      97260.084      1            
     21800   315.26183      21067.131     -1679.4904     -485.94915      2065.9246      28247.705     -6915.3503     -165.70934      0.52870569     96899.508      1            
     21900   307.35974      20924.157     -1675.475      -533.9709       2034.6128      28239.933     -6995.6209     -145.32212      0.53066394     96541.932      1            
     22000   302.64245      20801.586     -1687.7877     -592.01868      1967.0533      28330.885     -7058.9792     -157.56677      0.53270383     96172.241      1            
     22100   306.42893      20933.332     -1727.0217     -535.26898      1985.7748      28264.268     -6909.0172     -145.40372      0.53482342     95791.097      1            
     22200   304.37805      20791.921     -1706.9808     -543.89051      2031.4252      28276.933     -7115.3693     -150.19654      0.53893726     95059.899      1            
     22300   299.12336      20851.66      -1741.8142     -466.61041      2076.3687      28218.002     -7083.1183     -151.16692      0.54185475     94548.071      1            
     22400   299.53901      20598.675     -1731.7905     -602.43671      1954.7481      28056.974     -6929.5973     -149.22248      0.54447163     94093.648      1            
     22500   304.8448       20694.823     -1741.0756     -471.0206       1928.491       28119.277     -6999.4461     -141.40264      0.54699474     93659.624      1            
     22600   302.87687      20742.879     -1741.0993     -455.92328      2066.3681      28013.723     -6983.8056     -156.38353      0.54946811     93238.025      1            
     22700   300.91815      20765.06      -1757.9671     -434.86588      2084.2087      28009.65      -6993.5159     -142.44953      0.55090236     92995.284      1            
     22800   303.24835      20789.336     -1785.0816     -487.78005      1980.1916      28177.713     -6944.9788     -150.72749      0.55236737     92748.638      1            
     22900   300.21823      51912.686      1469.1728     -489.54813      29959.096      28169.925     -7049.3555     -146.6038       0.55323951     92602.427      2            
     23000   297.99844      20710.389     -1772.8512     -424.35187      1974.1593      28100.346     -7028.234      -138.67953      0.56720894     90321.781      2            
     23100   298.24132      20487.547     -1798.13       -578.27512      1942.0821      27985.566     -6914.0725     -149.62387      0.57078024     89756.648      2            
     23200   295.75963      20465.005     -1792.1806     -552.13362      1976.4698      28028.39      -7047.2587     -148.28135      0.57216999     89538.638      2            
     23300   296.66405      20460.078     -1801.8896     -586.92481      1992.3572      27989.256     -6984.0372     -148.68395      0.5734147      89344.276      2            
     23400   296.95908      20465.456     -1826.0944     -639.11555      1986.0977      28026.849     -6929.775      -152.50538      0.57421678     89219.478      2            
     23500   296.29668      20425.528     -1789.2597     -668.66614      1974.3437      27995.507     -6935.1953     -151.20204      0.57556502     89010.486      2            
     23600   302.35946      20480.063     -1825.7577     -551.82996      1935.1275      28124.2       -7047.8324     -153.84352      0.57620183     88912.112      2            
     23700   306.10323      20457.719     -1775.2425     -576.03606      1984.7112      27919.729     -6950.2673     -145.17568      0.57754631     88705.132      2            
     23800   293.83057      269719.93      512.75647     -564.31168      249047.09      27753.053     -6881.1865     -147.46729      0.57918284     88454.488      3            
     23900   308.54043      20482.589     -1914.3431     -498.64676      1914.6764      28129.423     -7012.9416     -135.57862      0.62781231     81602.927      3            
     24000   312.84332      20453.049     -1910.777      -499.30386      2076.4085      27977.88      -7028.0072     -163.15195      0.62711655     81693.461      3            
     24100   311.52235      20285.213     -1890.4908     -547.37295      1891.0256      27916.208     -6928.6081     -155.54902      0.62659513     81761.442      3            
     24200   296.7518       20391.796     -1882.0898     -540.77279      1933.0228      27980.798     -6958.9881     -140.17454      0.62627903     81802.709      3            
     24300   300.36837      20158.907     -1865.1456     -566.35374      2012.0412      27706.349     -6984.0888     -143.89597      0.62741328     81654.825      3            
     24400   297.97191      20263.593     -1846.3905     -515.4477       1884.7888      27939.946     -7056.2558     -143.04704      0.62929227     81411.013      3            
     24500   298.69755      20404.324     -1854.4421     -519.73888      2031.3742      27888.987     -6984.2033     -157.65284      0.63153325     81122.129      3            
     24600   306.90482      20285.181     -1854.9641     -572.70611      1950.333       27890.011     -6991.05       -136.44227      0.63331988     80893.279      3            
     24700   297.47089      20411.808     -1858.6199     -541.50216      1992.5958      28052.761     -7093.2138     -140.21307      0.63485065     80698.227      3            
     24800   300.59768      20255.689     -1855.6187     -565.39428      1948.8562      27881.412     -7013.1633     -140.40241      0.63599972     80552.428      3            
     24900   303.53617      20061.995     -1846.8538     -682.23872      1872.9456      27884.309     -7032.3334     -133.83376      0.63730931     80386.903      3            
     25000   302.27787      20005.445     -1838.6386     -724.38144      1943.6752      27732.645     -6946.2389     -161.61637      0.63916383     80153.662      3            
     25100   302.05557      20522.329     -1864.8987     -435.94876      1970.3643      28032.337     -7033.943      -145.58259      0.64085293     79942.4        3            
     25200   303.14339      20438.184     -1873.7921     -553.29244      1996.3441      27966.132     -6945.6964     -151.51077      0.64290651     79687.048      3            
     25300   299.58781      20428.535     -1882.6488     -644.61459      2045.5843      28003.371     -6949.1853     -143.97233      0.64414944     79533.286      3            
     25400   319.58124      20460.758     -1819.5942     -710.4891       2055.4679      27979.944     -6892.2034     -152.36733      0.64512749     79412.709      3            
     25500   306.46059      20476.318     -1852.6456     -675.78355      2059.7887      28034.979     -6931.1991     -158.82168      0.64648188     79246.338      3            
     25600   312.18607      20424.939     -1892.0997     -595.68491      2028.7562      27974.26      -6964.2235     -126.06918      0.64923975     78909.712      3            
     25700   301.31458      20347.141     -1867.541      -661.44952      2074.5526      27892.33      -6944.9695     -145.78083      0.6528539      78472.874      3            
     25800   296.5947       20309.054     -1899.2709     -581.20383      1936.7016      27914.387     -6918.6224     -142.93759      0.65648632     78038.673      3            
     25900   302.68147      20257.156     -1906.6213     -517.86799      2037.5319      27753.412     -6961.3075     -147.99163      0.65982379     77643.945      3            
     26000   295.10821      20318.892     -1926.1138     -438.08908      1985.4667      27742.776     -6898.3001     -146.84726      0.66267441     77309.944      3            
     26100   290.16441      20352.249     -1931.2479     -413.35813      1986.7205      27762.311     -6904.6075     -147.56959      0.66496447     77043.697      3            
     26200   292.46222      20566.324     -1956.8175     -303.00945      2020.3864      27885.837     -6935.8639     -144.20813      0.66598692     76925.417      3            
     26300   302.61772      20532.626     -1933.7819     -326.66739      2040.859       27763.157     -6860.5055     -150.43496      0.66729984     76774.065      3            
     26400   303.58087      20377.575     -1926.5316     -375.18039      2046.9576      27701.597     -6918.7303     -150.53733      0.6681096      76681.014      3            
     26500   293.24895      20388.539     -1938.3053     -403.56634      2091.2598      27602.137     -6815.5235     -147.46296      0.66887174     76593.641      3            
     26600   298.58429      20271.886     -1952.09       -423.8595       2008.35        27746.943     -6958.8514     -148.60579      0.66974851     76493.372      3            
     26700   306.87754      20188.875     -1894.2723     -485.95678      1943.0773      27769.756     -6986.1715     -157.5576       0.67071172     76383.519      3            
     26800   308.8404       182085.5       370.35934     -460.27224      161586.81      27673.113     -6938.7057     -145.80161      0.67142055     76302.88       4            
     26900   313.60802      20107.377     -2066.5977     -500.65694      1873.7146      27838.851     -6900.2048     -137.72986      0.70943653     72214.101      4            
     27000   303.32848      20119.681     -2050.2661     -457.54098      1901.7588      27785.138     -6910.2384     -149.17028      0.70874955     72284.098      4            
     27100   300.39548      19968.831     -2009.17       -545.16468      1909.3933      27610.211     -6854.5592     -141.87923      0.70752763     72408.934      4            
     27200   293.16569      19998.212     -1986.8786     -537.00731      2072.031       27354.872     -6755.9324     -148.87278      0.70627138     72537.728      4            
     27300   298.4992       19917.125     -2042.5448     -558.75865      1931.8031      27539.145     -6802.798      -149.72184      0.70558488     72608.305      4            
     27400   303.66066      19926.172     -2017.1511     -580.07063      1850.3227      27719.758     -6908.4764     -138.21096      0.70659099     72504.917      4            
     27500   307.37342      19928.1       -1999.3008     -570.34138      2026.0156      27469.608     -6860.7        -137.18064      0.70709927     72452.799      4            
     27600   299.35773      930703.42      101.91962     -490.31212      910622.33      27513.015     -6903.184      -140.34312      0.70729329     72432.925      5            
     27700   326.54858      20775.682     -2071.7016     -327.02951      1968.4232      28171.105     -6841.3417     -123.77281      0.81395284     62941.388      5            
     27800   319.71001      20086.078     -2103.576      -486.68057      1876.8091      27804.48      -6847.2884     -157.66522      0.80838256     63375.095      5            
     27900   311.99564      19813.456     -2104.7222     -552.47421      1850.4268      27705.45      -6930.93       -154.29437      0.80443909     63685.769      5            
     28000   298.05702      19775.595     -2119.7257     -513.93126      1868.8955      27558.392     -6862.9942     -155.04151      0.8003088      64014.442      5            
     28100   300.71184      214171.1       366.10386     -567.00817      194052.7       27347.45      -6886.407      -141.73619      0.79801781     64198.219      6            
     28200   299.0939       19820.547     -2174.0213     -446.89399      1805.9864      27681.832     -6908.3992     -137.95638      0.84000745     60989.127      6            
     28300   291.03191      19590.903     -2150.0574     -581.31087      1693.7462      27625.823     -6844.9779     -152.31978      0.83689092     61216.247      6            
     28400   292.13584      19558.161     -2063.101      -517.65571      1711.9978      27392.557     -6816.306      -149.33139      0.83474521     61373.603      6            
     28500   298.22627      19776.767     -2072.5206     -433.94676      1878.366       27458.951     -6919.435      -134.64791      0.83157623     61607.487      6            
     28600   306.01875      19699.649     -2048.7393     -531.22798      1766.6842      27564.853     -6904.8469     -147.07368      0.82908161     61792.857      6            
     28700   304.19995      19864.243     -2061.6705     -355.73124      1755.7242      27542.028     -6857.4104     -158.6964       0.82635488     61996.756      6            
     28800   297.7899       19818.715     -2061.9111     -380.05702      1824.2514      27467.364     -6900.737      -130.19484      0.8239171      62180.19       6            
     28900   298.4843       19538.069     -2032.6571     -544.85299      1793.2618      27400.986     -6933.151      -145.51817      0.82213523     62314.957      6            
     29000   300.49445      19498.704     -2064.3062     -554.16117      1741.4798      27421.094     -6905.7275     -139.67485      0.82109749     62393.713      6            
     29100   297.15233      19591.242     -2023.9413     -643.99484      1824.947       27426.798     -6858.268      -134.29894      0.82047969     62440.694      6            
     29200   301.28978      19686.361     -1992.2847     -627.47129      1842.0381      27491.367     -6876.5604     -150.72761      0.81936556     62525.598      6            
     29300   306.77805      19645.261     -1989.9813     -596.61946      1834.9297      27489.288     -6944.3054     -148.04956      0.81876479     62571.476      6            
     29400   303.71714      19843.018     -1984.7578     -352.16498      1746.4459      27356.914     -6791.8823     -131.53763      0.81698128     62708.073      6            
     29500   298.33739      19685.32      -1995.7407     -548.41256      1880.9606      27324.322     -6823.5318     -152.27734      0.81566054     62809.611      6            
     29600   297.58658      19681.373     -1959.4408     -497.76865      1794.6605      27325.256     -6838.2861     -143.04744      0.81420943     62921.552      6            
     29700   295.92631      19641.042     -1965.8363     -586.47658      1880.4894      27368.282     -6911.6808     -143.73554      0.81393175     62943.019      6            
     29800   301.24241      19848.797     -1959.7767     -432.80133      1858.1274      27476.066     -6951.9924     -140.82522      0.81433807     62911.613      6            
     29900   301.6229       19695.019     -2003.6984     -598.17158      1876.2676      27487.819     -6926.7405     -140.45676      0.81438586     62907.921      6            
     30000   295.00358      338730.64      406.70618     -583.79757      318620.92      27312.698     -6882.8962     -142.99575      0.81536368     62832.479      7            
     30100   313.35521      19803.634     -2137.0531     -422.49238      1810.566       27574.156     -6893.475      -128.06751      0.87467544     58571.808      7            
     30200   306.68667      19612.436     -2124.4847     -473.04371      1811.2393      27475.537     -6931.3691     -145.44335      0.87243208     58722.418      7            
     30300   301.3282       19625.333     -2080.67       -490.05381      1844.9224      27263.538     -6763.3519     -149.05156      0.8714018      58791.848      7            
     30400   302.2091       19380.35      -2110.0568     -591.88578      1834.2648      27319.472     -6930.5183     -140.92662      0.86988803     58894.156      7            
     30500   299.58588      19333.075     -2130.3974     -543.88969      1829.4445      27164.029     -6842.3704     -143.74042      0.86927631     58935.601      7            
     30600   298.0858       19306.924     -2108.3557     -576.72266      1740.9475      27240.91      -6847.3919     -142.4629       0.86912865     58945.614      7            
     30700   296.17852      19404.525     -2041.6201     -595.18176      1848.7757      27174.755     -6839.9677     -142.23598      0.868778       58969.405      7            
     30800   305.7962       19565.18      -2097.7178     -512.07514      1842.2081      27296.392     -6819.3277     -144.29922      0.86774787     59039.409      7            
     30900   305.13248      19451.923     -2061.9298     -560.16137      1800.9831      27294.997     -6875.1271     -146.83875      0.86674122     59107.979      7            
     31000   305.30064      19384.364     -2089.1391     -609.13125      1864.727       27253.366     -6883.1154     -152.34304      0.86613735     59149.188      7            
     31004   306.34611      19397.023     -2077.0993     -579.86787      1874.2937      27241.497     -6906.4006     -155.39999      0.86617888     59146.353      7            
Loop time of 101.606 on 6 procs for 10000 steps with 5010 atoms

Performance: 8.503 ns/day, 2.822 hours/ns, 98.419 timesteps/s, 493.079 katom-step/s
98.6% CPU use with 6 MPI tasks x no OpenMP threads

MPI task timing breakdown:
Section |  min time  |  avg time  |  max time  |%varavg| %total
---------------------------------------------------------------
Pair    | 18.372     | 34.024     | 45.015     | 160.2 | 33.49
Bond    | 20.532     | 29.228     | 36.888     | 110.0 | 28.77
Neigh   | 7.4347     | 7.443      | 7.4514     |   0.2 |  7.33
Comm    | 8.7457     | 23.884     | 48.238     | 287.1 | 23.51
Output  | 0.045353   | 0.046988   | 0.053105   |   1.3 |  0.05
Modify  | 6.5755     | 6.5925     | 6.6178     |   0.5 |  6.49
Other   |            | 0.3888     |            |       |  0.38

Nlocal:            835 ave         896 max         782 min
Histogram: 1 1 0 1 0 1 0 1 0 1
Nghost:           7614 ave        7798 max        7420 min
Histogram: 1 2 0 0 0 0 0 0 1 2
Neighs:         253010 ave      282861 max      223796 min
Histogram: 1 0 1 1 0 0 1 1 0 1

Total # of neighbors = 1518063
Ave neighs/atom = 303.00659
Ave special neighs/atom = 12.346507
Neighbor list builds = 997
Dangerous builds = 0

unfix reacted
unfix npt
unfix fxrct


fix		fxrct all bond/react stabilization yes statted_grp .03 		 react rxn1 all 100 0.0 5.0 pre post semi.map stabilize_steps 2000
dynamic group bond_react_MASTER_group defined
dynamic group statted_grp_REACT defined
fix 		npt statted_grp_REACT npt temp 300.0 300.0 100 iso 1.0 1.0 1000
fix 		reacted bond_react_MASTER_group temp/rescale 1 300.0 300.0 1 1

run 20000
Generated 28 of 28 mixed pair_coeff terms from sixthpower/geometric mixing rule
Neighbor list info ...
  update: every = 1 steps, delay = 0 steps, check = yes
  max neighbors/atom: 2000, page size: 100000
  master list distance cutoff = 12
  ghost atom cutoff = 12
  binsize = 6, bins = 7 7 7
  2 neighbor lists, perpetual/occasional/extra = 1 1 0
  (1) pair lj/class2/coul/cut, perpetual
      attributes: half, newton on
      pair build: half/bin/newton
      stencil: half/bin/3d
      bin: standard
  (2) fix bond/react, occasional, copy from (1)
      attributes: half, newton on
      pair build: copy
      stencil: none
      bin: none
WARNING: Inconsistent image flags (../domain.cpp:815)
Per MPI rank memory allocation (min/avg/max) = 39.06 | 39.26 | 39.48 Mbytes
   Step          Temp          PotEng         E_vdwl         E_coul         E_bond        E_angle        E_dihed        E_impro        Density         Volume       f_fxrct[1]  
     31004   306.34611      19397.023     -2077.0993     -579.86787      1874.2937      27241.497     -6906.4006     -155.39999      0.86617888     59146.353      0            
     31100   295.21695      19461.533     -2098.1643     -642.39761      1912.9591      27245.134     -6822.429      -133.56849      0.86459181     59254.923      0            
     31200   299.44986      19345.999     -2093.6886     -607.04426      1779.609       27274.946     -6864.1233     -143.69911      0.86490696     59233.333      0            
     31300   294.76694      19350.78      -2087.7078     -587.39597      1813.2752      27309.027     -6959.0001     -137.41831      0.86693979     59094.44       0            
     31400   297.47522      66184.817      586.69343     -543.80212      45959.912      27170.414     -6845.532      -142.86834      0.87032882     58864.329      1            
     31500   296.3713       356381.95      164.20458     -517.76972      336676.98      27064.689     -6861.0914     -145.05377      0.9060146      56545.801      2            
     31600   312.55396      19413.15      -2233.7333     -439.53901      1782.4637      27284.77      -6843.9946     -136.81703      0.99482046     51498.058      2            
     31700   313.69553      19182.716     -2274.1507     -393.18347      1689.0959      27163.26      -6846.0332     -156.27284      0.98677887     51917.733      2            
     31800   298.0584       19268.467     -2248.2234     -404.6891       1773.0195      27173.821     -6871.0912     -154.36992      0.97836415     52364.267      2            
     31900   295.49047      19030.688     -2259.9702     -513.87786      1769.479       26958.619     -6777.5911     -145.97116      0.96948675     52843.756      2            
     32000   300.14082      19074.254     -2297.6183     -448.34526      1776.6442      27019.257     -6836.4837     -139.20077      0.96289381     53205.578      2            
     32100   300.30037      19087.969     -2246.7882     -446.56094      1707.494       27046.142     -6830.7482     -141.56942      0.95673901     53547.855      2            
     32200   304.79173      19061.669     -2276.9175     -434.91891      1776.4907      26960.188     -6810.8366     -152.33615      0.94971366     53943.966      2            
     32300   300.03988      19030.545     -2251.5408     -601.9457       1818.2171      27022.308     -6813.454      -143.03925      0.94357966     54294.644      2            
     32400   303.8898       134315.33      427.73277     -472.99087      114425.02      26930.674     -6860.7557     -134.34821      0.93855555     54585.284      3            
     32500   302.91495      19159.109     -2328.9779     -443.07694      1764.7671      27233.428     -6936.9966     -130.03449      0.98160856     52191.193      3            
     32600   300.98814      18928.338     -2293.2817     -551.38046      1804.4862      26957.246     -6852.6641     -136.06825      0.97772887     52398.291      3            
     32700   299.89469      19016.407     -2265.7138     -445.96819      1739.893       27134.924     -6995.3396     -151.38806      0.9719918      52707.565      3            
     32800   321.08737      19187.297     -2316.9006     -364.04756      1866.5489      27028.516     -6873.3515     -153.46867      0.96561881     53055.43       3            
     32900   308.97838      19112.597     -2286.1804     -447.19755      1873.2386      26877.857     -6763.168      -141.95207      0.96166793     53273.401      3            
     33000   305.29053      18919.449     -2303.2736     -534.60944      1811.0188      26881.122     -6792.1423     -142.66568      0.95768752     53494.82       3            
     33100   298.21373      19051.774     -2284.0811     -414.25281      1745.6011      26999.383     -6854.4523     -140.42457      0.9535676      53725.946      3            
     33200   305.3007       19008.955     -2277.6065     -345.01441      1735.3391      26824.313     -6793.5088     -134.5676       0.94882883     53994.272      3            
     33300   300.69663      19027.749     -2292.2462     -453.72567      1864.91        26852.963     -6805.5905     -138.56126      0.94563315     54176.74       3            
     33400   301.35842      19027.396     -2264.24       -536.56411      1879.9831      26939.998     -6854.8545     -136.92655      0.94306282     54324.4        3            
     33500   299.14673      19111.015     -2277.4902     -485.66561      1819.7027      26996.953     -6801.7638     -140.72099      0.94053065     54470.656      3            
     33600   295.71438      18957.015     -2260.8827     -574.9773       1845.9568      26824.692     -6736.2911     -141.48316      0.93874984     54573.987      3            
     33700   291.2467       18975.713     -2222.2569     -585.54748      1797.7533      26907.681     -6775.8891     -146.02732      0.9371641      54666.33       3            
     33800   301.06239      18987.606     -2224.707      -504.75199      1821.0874      26886.148     -6833.4826     -156.68765      0.93528112     54776.388      3            
     33900   301.81166      19028.947     -2256.9371     -512.5105       1843.6834      26907.126     -6809.2554     -143.16016      0.93345178     54883.737      3            
     34000   309.68038      18980.833     -2234.9094     -424.57426      1796.1108      26748.243     -6750.4049     -153.632        0.93216997     54959.206      3            
     34100   299.3564       19003.443     -2245.9279     -507.30282      1870.7814      26931.991     -6898.333      -147.7656       0.92987826     55094.655      3            
     34200   302.17661      19019.739     -2281.7384     -421.02286      1797.4448      26878.2       -6810.1969     -142.94819      0.92863389     55168.482      3            
     34300   296.57205      19039.573     -2260.0162     -479.34097      1952.5185      26809.605     -6844.3963     -138.79674      0.92822305     55192.9        3            
     34400   297.41377      18973.616     -2212.8723     -566.07988      1852.4342      26917.035     -6866.6243     -150.27688      0.92842255     55181.04       3            
     34500   309.84811      18944.145     -2244.1278     -588.24096      1844.4707      26930.801     -6854.4922     -144.2664       0.92858084     55171.633      3            
     34600   301.6369       18974.845     -2237.7894     -617.18559      1913.0631      27031.29      -6970.2754     -144.25747      0.92813793     55197.961      3            
     34700   297.0113       117191.61      265.481       -731.60759      97810.447      26850.808     -6854.9879     -148.53321      0.92711656     55258.771      4            
     34800   301.46492      18767.772     -2298.7588     -616.05757      1859.4399      26916.093     -6954.3127     -138.63177      0.96906115     52866.964      4            
     34900   298.44669      18657.845     -2276.9025     -650.85205      1795.2641      26812.159     -6881.8271     -139.99674      0.96658941     53002.155      4            
     35000   303.26558      18559.935     -2293.5021     -717.0113       1800.7583      26825.49      -6907.8103     -147.98983      0.96276469     53212.713      4            
     35100   302.74832      18707.851     -2314.8718     -501.67046      1771.0885      26745.75      -6853.9763     -138.46915      0.95912712     53414.527      4            
     35200   297.89571      18614.175     -2294.0087     -610.66016      1757.415       26674.215     -6769.8623     -142.92396      0.95626201     53574.565      4            
     35300   302.17901      18623.134     -2295.9434     -573.92196      1788.0709      26669.051     -6818.1        -146.02223      0.95429601     53684.937      4            
     35400   301.2994       18874.123     -2296.441      -418.40502      1786.3788      26889.649     -6947.0041     -140.05465      0.9519673      53816.262      4            
     35500   300.86362      18732.46      -2307.6565     -598.60066      1846.7857      26764.944     -6832.5727     -140.44011      0.94985602     53935.881      4            
     35600   300.85274      373305.06     -595.20445     -594.53556      355007.23      26465.822     -6836.9533     -141.30034      0.94760349     54064.091      5            
     35700   316.17185      18599.041     -2431.0047     -709.47119      1816.1676      27016.061     -6961.3488     -131.36381      1.0261055      49927.929      5            
     35800   307.10835      18545.062     -2341.3954     -677.04216      1803.3068      26830.239     -6920.3257     -149.72036      1.0204022      50206.989      5            
     35900   312.25084      18281.375     -2392.4431     -696.37555      1706.1547      26709.032     -6898.6733     -146.32027      1.0140113      50523.423      5            
     36000   302.79971      18534.091     -2345.9989     -637.32502      1841.9198      26598.082     -6784.9285     -137.65829      1.0071314      50868.556      5            
     36100   298.38656      18453.074     -2355.1965     -664.30642      1806.9372      26640.029     -6835.1173     -139.27225      1.0005867      51201.28       5            
     36200   299.63253      18305.043     -2380.0282     -721.93882      1773.9333      26590.12      -6816.4921     -140.55077      0.99506541     51485.381      5            
     36300   296.48829      18592.273     -2348.1598     -449.8689       1771.6118      26543.877     -6781.3911     -143.79619      0.99024715     51735.894      5            
     36400   299.28266      18519.603     -2351.5149     -525.30198      1851.1746      26526.099     -6842.3748     -138.47934      0.98517559     52002.224      5            
     36500   305.21079      18240.986     -2345.0843     -781.07782      1765.4751      26645.008     -6899.283      -144.05242      0.97986414     52284.107      5            
     36600   297.41734      18663.487     -2363.2679     -528.30239      1881.5244      26781.755     -6957.6132     -150.60827      0.97526566     52530.632      5            
     36700   301.36602      18504.98      -2350.1625     -585.24597      1861.6668      26553.158     -6835.8998     -138.53696      0.97112138     52754.807      5            
     36800   298.07256      18319.965     -2349.308      -728.50969      1758.5435      26495.903     -6707.0001     -149.66406      0.96762688     52945.327      5            
     36900   292.2373       18519.774     -2320.3079     -658.39714      1829.9472      26505.616     -6685.2762     -151.80751      0.96493914     53092.801      5            
     37000   300.90307      18429.577     -2362.6597     -706.69911      1861.7851      26586.161     -6802.9307     -146.07941      0.96233439     53236.507      5            
     37100   300.17383      18560.929     -2337.5932     -597.70835      1892.6205      26589.461     -6834.6071     -151.24336      0.9606024      53332.494      5            
     37200   297.17825      18529.538     -2322.3422     -670.67394      1862.901       26652.155     -6849.8912     -142.60994      0.95847038     53451.126      5            
     37300   303.4775       18469.81      -2314.8616     -616.66146      1817.6803      26669.479     -6957.8891     -127.93688      0.9565358      53559.231      5            
     37400   294.43893      18621.634     -2302.8166     -568.22165      1892.0573      26661.12      -6932.5126     -127.99205      0.95412713     53694.44       5            
     37500   295.11207      18432.912     -2316.8029     -671.35847      1833.8565      26547.376     -6820.23       -139.92876      0.95245409     53788.757      5            
     37600   292.96875      18330.707     -2286.7113     -759.59184      1816.2509      26611.828     -6923.475      -127.59382      0.95123504     53857.69       5            
     37700   293.76868      18447.621     -2285.1512     -727.3991       1833.1659      26566.662     -6790.0184     -149.63863      0.94908049     53979.955      5            
     37800   298.37811      18463.908     -2309.6783     -721.13511      1877.9374      26616.377     -6858.5968     -140.99574      0.94741676     54074.747      5            
     37900   299.55424      18611.253     -2321.5628     -576.93569      1789.5329      26701.091     -6838.2076     -142.66537      0.94690334     54104.067      5            
     38000   301.66374      18528.371     -2303.4301     -612.28         1873.4739      26513.343     -6792.9001     -149.83601      0.94808937     54036.384      5            
     38100   293.82931      18527.158     -2303.229      -680.48191      1905.7023      26602.492     -6851.8246     -145.5001       0.94899107     53985.041      5            
     38200   295.37064      18434.927     -2310.1931     -733.317        1827.1578      26637.568     -6846.8156     -139.47266      0.95020949     53915.818      5            
     38300   297.28315      18566.106     -2324.6152     -672.71673      1851.1543      26798.497     -6940.1768     -146.03672      0.95059229     53894.106      5            
     38400   305.97921      18436.802     -2318.3975     -694.82647      1840.171       26577.496     -6827.4236     -140.21774      0.95129778     53854.138      5            
     38500   299.01158      18670.083     -2319.1018     -513.71686      1883.0741      26547.427     -6782.3037     -145.29601      0.95160847     53836.555      5            
     38600   298.54544      18516.86      -2311.2814     -577.09487      1825.5766      26679.135     -6962.4949     -136.98104      0.95216219     53805.247      5            
     38700   300.13772      18434.316     -2354.5814     -626.95902      1824.2771      26600.58      -6856.8442     -152.15689      0.95190819     53819.604      5            
     38800   305.97027      18371.852     -2347.5995     -720.33463      1892.5238      26526.243     -6840.3446     -138.63657      0.95256167     53782.682      5            
     38900   306.87883      18529.061     -2308.7016     -619.13708      1809.4694      26724.142     -6930.9523     -145.7598       0.95292584     53762.128      5            
     39000   300.15641      18572.908     -2328.1829     -619.33955      1934.019       26646.751     -6923.6223     -136.71682      0.95355        53726.938      5            
     39100   301.41622      18475.561     -2341.5011     -618.75352      1859.6161      26632.217     -6913.167      -142.85111      0.95408801     53696.641      5            
     39200   300.30196      18197.187     -2333.504      -868.49369      1877.5708      26528.226     -6863.8938     -142.71862      0.95503054     53643.647      5            
     39300   295.16964      18427.832     -2340.6519     -701.79838      1894.2079      26608.075     -6882.6107     -149.38967      0.95558494     53612.525      5            
     39400   300.30585      18544.941     -2333.5444     -601.95867      1963.5827      26577.326     -6925.1557     -135.30843      0.95527714     53629.799      5            
     39500   305.22192      18527.539     -2324.4327     -656.56788      1914.9045      26552.931     -6811.221      -148.07467      0.95459358     53668.202      5            
     39600   303.35725      18463.932     -2317.6932     -700.37528      1837.7876      26655.003     -6867.7688     -143.02202      0.95408624     53696.741      5            
     39700   298.78378      18421.826     -2327.058      -733.74533      1913.9683      26674.009     -6958.3648     -146.98259      0.954205       53690.058      5            
     39800   301.53596      18362.189     -2377.6837     -688.32725      1886.3035      26576.787     -6900.1717     -134.71905      0.95527226     53630.073      5            
     39900   301.70036      18456.849     -2373.1106     -586.23998      1894.8402      26512.42      -6856.7139     -134.34649      0.95809835     53471.882      5            
     40000   299.35607      18647.687     -2324.1331     -500.78357      1913.3784      26628.837     -6925.8743     -143.7375       0.96057222     53334.169      5            
     40100   305.75579      18632.967     -2374.6027     -551.67896      1933.6173      26573.081     -6807.1341     -140.31534      0.96078075     53322.594      5            
     40200   303.28277      18500.664     -2316.2253     -686.96079      1910.042       26645.186     -6913.4093     -137.96819      0.95929345     53405.266      5            
     40300   300.27058      18618.864     -2357.6136     -515.87214      1925.8959      26515.181     -6815.3488     -133.37806      0.95709225     53528.092      5            
     40400   297.26317      18664.03      -2348.2722     -475.59076      1858.9241      26684.768     -6910.983      -144.81609      0.95576576     53602.382      5            
     40500   296.38537      18660.426     -2294.6087     -510.65934      1900.3867      26584.471     -6883.9112     -135.25248      0.95453891     53671.276      5            
     40600   303.79625      18507.516     -2336.2285     -538.84305      1863.8208      26555.554     -6893.7726     -143.01489      0.95222593     53801.645      5            
     40700   300.46737      18525.98      -2365.6687     -525.2703       1848.486       26598.082     -6889.9466     -139.70186      0.95138631     53849.126      5            
     40800   292.07324      18466.872     -2351.4747     -607.455        1862.58        26587.916     -6879.8189     -144.8756       0.9516866      53832.135      5            
     40900   297.41105      18360.586     -2350.6768     -676.61616      1850.5763      26527.455     -6840.5629     -149.58956      0.95280286     53769.068      5            
     41000   300.22503      18589.632     -2343.9305     -505.23626      1908.4287      26565.26      -6900.2744     -134.61616      0.95414687     53693.329      5            
     41100   298.91302      18663.749     -2315.6606     -475.19381      1924.879       26626.12      -6952.2683     -144.12778      0.95538861     53623.542      5            
     41200   303.27646      148077.62      873.29659     -672.4016       128452.46      26451.088     -6899.6262     -127.19395      0.95592679     53593.353      6            
     41300   303.94806      18454.837     -2455.0226     -481.75854      1850.16        26508.051     -6836.8855     -129.70662      1.0053803      50957.154      6            
     41400   300.77899      18298.334     -2445.4622     -553.34007      1834.7847      26507.728     -6900.8429     -144.53297      1.0030038      51077.892      6            
     41500   294.88994      18274.855     -2437.1976     -575.47088      1842.412       26425.558     -6839.0532     -141.39302      1.0003039      51215.756      6            
     41600   294.47958      18206.038     -2443.2386     -651.56656      1844.9387      26544.26      -6940.0988     -148.25695      0.99708657     51381.017      6            
     41700   301.05898      18142.88      -2411.704      -652.63445      1870.2336      26299.186     -6829.9639     -132.23684      0.99431096     51524.446      6            
     418