LAMMPS (22 Dec 2022)
WARNING: Using I/O redirection is unreliable with parallel runs. Better to use the -in switch to read input files. (../lammps.cpp:531)
# PREREQUISITES:
#
#     You must use moltemplate.sh to create 3 files:
#        system.data  system.in.init  system.in.settings
#     (Follow the instructions in README_setup.sh,
#      or run the file as a script using ./README_setup.sh)

# ------------------------------- Initialization Section --------------------

units real
atom_style full
pair_style lj/class2/coul/cut 10.0
bond_style class2
angle_style class2
dihedral_style class2
improper_style class2


# ------------------------------- Atom Definition Section -------------------

read_data       "pre_mol.data" extra/bond/per/atom 1 extra/angle/per/atom 12 extra/dihedral/per/atom 12 extra/improper/per/atom 12 extra/special/per/atom 12
Reading data file ...
  orthogonal box = (0 0 0) to (93.650681 93.650681 93.650681)
  1 by 2 by 3 MPI processor grid
  reading atoms ...
  74 atoms
  scanning bonds ...
  5 = max bonds/atom
  scanning angles ...
  18 = max angles/atom
  scanning dihedrals ...
  30 = max dihedrals/atom
  scanning impropers ...
  16 = max impropers/atom
  reading bonds ...
  85 bonds
  reading angles ...
  186 angles
  reading dihedrals ...
  345 dihedrals
  reading impropers ...
  120 impropers
Finding 1-2 1-3 1-4 neighbors ...
  special bond factors lj:    0        0        0       
  special bond factors coul:  0        0        0       
     4 = max # of 1-2 neighbors
     9 = max # of 1-3 neighbors
    25 = max # of 1-4 neighbors
    34 = max # of special neighbors
  special bonds CPU = 0.001 seconds
  read_data CPU = 0.007 seconds

include calc.pram

# Masses

mass		1    12.01115  # c
mass		2    12.01115  # c1
mass		3    12.01115  # c3h
mass		4     1.00797  # h
mass		5     1.00797  # hc
mass		6    15.99940  # o3e
mass		7    15.99940  # oc
mass		8    15.99940  # oh

# Potentials

pair_coeff	 1  1    0.05400    4.01000  # c,c
pair_coeff	 2  2    0.05400    4.01000  # c1,c1
pair_coeff	 3  3    0.05400    4.01000  # c3h,c3h
pair_coeff	 4  4    0.02000    2.99500  # h,h
pair_coeff	 5  5    0.02000    2.99500  # hc,hc
pair_coeff	 6  6    0.24000    3.53500  # o3e,o3e
pair_coeff	 7  7    0.24000    3.53500  # oc,oc
pair_coeff	 8  8    0.24000    3.53500  # oh,oh

# Bond Coeffs

bond_coeff	 1    1.53000  299.67000 -501.77000  679.81000  # c,c
bond_coeff	 2    1.53000  299.67000 -501.77000  679.81000  # c,c1
bond_coeff	 3    1.53000  299.67000 -501.77000  679.81000  # c,c3h
bond_coeff	 4    1.10100  345.00000 -691.89000  844.60000  # c,hc
bond_coeff	 5    1.53000  299.67000 -501.77000  679.81000  # c1,c1
bond_coeff	 6    1.53000  299.67000 -501.77000  679.81000  # c1,c3h
bond_coeff	 7    1.10100  345.00000 -691.89000  844.60000  # c1,hc
bond_coeff	 8    1.42000  400.39540 -835.19510 1313.01420  # c1,o3e
bond_coeff	 9    1.42000  400.39540 -835.19510 1313.01420  # c1,oc
bond_coeff	10    1.42000  400.39540 -835.19510 1313.01420  # c1,oh
bond_coeff	11    1.53000  299.67000 -501.77000  679.81000  # c3h,c3h
bond_coeff	12    1.10100  345.00000 -691.89000  844.60000  # c3h,hc
bond_coeff	13    1.42000  400.39540 -835.19510 1313.01420  # c3h,o3e
bond_coeff	14    0.96000  493.84800    0.00000    0.00000  # h,oh

# Angle Coeffs

angle_coeff	 1  112.67000   39.51600   -7.44300   -9.55830  # c,c,c1
angle_coeff	 2  110.77000   41.45300  -10.60400    5.12900  # c,c,hc
angle_coeff	 3  112.67000   39.51600   -7.44300   -9.55830  # c,c1,c
angle_coeff	 4  112.67000   39.51600   -7.44300   -9.55830  # c,c1,c1
angle_coeff	 5  110.77000   41.45300  -10.60400    5.12900  # c,c1,hc
angle_coeff	 6  111.27000   54.53810   -8.36420  -13.08380  # c,c1,o3e
angle_coeff	 7  111.27000   54.53810   -8.36420  -13.08380  # c,c1,oc
angle_coeff	 8  112.67000   39.51600   -7.44300   -9.55830  # c,c3h,c3h
angle_coeff	 9  110.77000   41.45300  -10.60400    5.12900  # c,c3h,hc
angle_coeff	10  111.27000   54.53810   -8.36420  -13.08380  # c,c3h,o3e
angle_coeff	11  112.67000   39.51600   -7.44300   -9.55830  # c1,c,c1
angle_coeff	12  112.67000   39.51600   -7.44300   -9.55830  # c1,c,c3h
angle_coeff	13  110.77000   41.45300  -10.60400    5.12900  # c1,c,hc
angle_coeff	14  112.67000   39.51600   -7.44300   -9.55830  # c1,c1,c1
angle_coeff	15  112.67000   39.51600   -7.44300   -9.55830  # c1,c1,c3h
angle_coeff	16  110.77000   41.45300  -10.60400    5.12900  # c1,c1,hc
angle_coeff	17  111.27000   54.53810   -8.36420  -13.08380  # c1,c1,o3e
angle_coeff	18  111.27000   54.53810   -8.36420  -13.08380  # c1,c1,oc
angle_coeff	19  111.27000   54.53810   -8.36420  -13.08380  # c1,c1,oh
angle_coeff	20  112.67000   39.51600   -7.44300   -9.55830  # c1,c3h,c3h
angle_coeff	21  110.77000   41.45300  -10.60400    5.12900  # c1,c3h,hc
angle_coeff	22  111.27000   54.53810   -8.36420  -13.08380  # c1,c3h,o3e
angle_coeff	23  104.50000   35.74540  -10.00670   -6.27290  # c1,o3e,c1
angle_coeff	24  104.50000   35.74540  -10.00670   -6.27290  # c1,oc,c1
angle_coeff	25  109.00000   58.50000    0.00000    0.00000  # c1,oh,h
angle_coeff	26  110.77000   41.45300  -10.60400    5.12900  # c3h,c,hc
angle_coeff	27  110.77000   41.45300  -10.60400    5.12900  # c3h,c1,hc
angle_coeff	28  110.77000   41.45300  -10.60400    5.12900  # c3h,c3h,hc
angle_coeff	29  111.27000   54.53810   -8.36420  -13.08380  # c3h,c3h,o3e
angle_coeff	30  104.50000   35.74540  -10.00670   -6.27290  # c3h,o3e,c3h
angle_coeff	31  107.66000   39.64100  -12.92100   -2.43180  # hc,c,hc
angle_coeff	32  108.72800   58.54460  -10.80880  -12.40060  # hc,c1,o3e
angle_coeff	33  108.72800   58.54460  -10.80880  -12.40060  # hc,c1,oc
angle_coeff	34  108.72800   58.54460  -10.80880  -12.40060  # hc,c1,oh
angle_coeff	35  108.72800   58.54460  -10.80880  -12.40060  # hc,c3h,o3e

# BondBond Coeffs

angle_coeff	 1 bb    0.00000    1.53000    1.53000  # c,c,c1
angle_coeff	 2 bb    3.38720    1.53000    1.10100  # c,c,hc
angle_coeff	 3 bb    0.00000    1.53000    1.53000  # c,c1,c
angle_coeff	 4 bb    0.00000    1.53000    1.53000  # c,c1,c1
angle_coeff	 5 bb    3.38720    1.53000    1.10100  # c,c1,hc
angle_coeff	 6 bb   11.43180    1.53000    1.42000  # c,c1,o3e
angle_coeff	 7 bb   11.43180    1.53000    1.42000  # c,c1,oc
angle_coeff	 8 bb    0.00000    1.53000    1.53000  # c,c3h,c3h
angle_coeff	 9 bb    3.38720    1.53000    1.10100  # c,c3h,hc
angle_coeff	10 bb   11.43180    1.53000    1.42000  # c,c3h,o3e
angle_coeff	11 bb    0.00000    1.53000    1.53000  # c1,c,c1
angle_coeff	12 bb    0.00000    1.53000    1.53000  # c1,c,c3h
angle_coeff	13 bb    3.38720    1.53000    1.10100  # c1,c,hc
angle_coeff	14 bb    0.00000    1.53000    1.53000  # c1,c1,c1
angle_coeff	15 bb    0.00000    1.53000    1.53000  # c1,c1,c3h
angle_coeff	16 bb    3.38720    1.53000    1.10100  # c1,c1,hc
angle_coeff	17 bb   11.43180    1.53000    1.42000  # c1,c1,o3e
angle_coeff	18 bb   11.43180    1.53000    1.42000  # c1,c1,oc
angle_coeff	19 bb   11.43180    1.53000    1.42000  # c1,c1,oh
angle_coeff	20 bb    0.00000    1.53000    1.53000  # c1,c3h,c3h
angle_coeff	21 bb    3.38720    1.53000    1.10100  # c1,c3h,hc
angle_coeff	22 bb   11.43180    1.53000    1.42000  # c1,c3h,o3e
angle_coeff	23 bb   -7.11310    1.42000    1.42000  # c1,o3e,c1
angle_coeff	24 bb   -7.11310    1.42000    1.42000  # c1,oc,c1
angle_coeff	25 bb    0.00000    1.42000    0.96000  # c1,oh,h
angle_coeff	26 bb    3.38720    1.53000    1.10100  # c3h,c,hc
angle_coeff	27 bb    3.38720    1.53000    1.10100  # c3h,c1,hc
angle_coeff	28 bb    3.38720    1.53000    1.10100  # c3h,c3h,hc
angle_coeff	29 bb   11.43180    1.53000    1.42000  # c3h,c3h,o3e
angle_coeff	30 bb   -7.11310    1.42000    1.42000  # c3h,o3e,c3h
angle_coeff	31 bb    5.33160    1.10100    1.10100  # hc,c,hc
angle_coeff	32 bb   23.19790    1.10100    1.42000  # hc,c1,o3e
angle_coeff	33 bb   23.19790    1.10100    1.42000  # hc,c1,oc
angle_coeff	34 bb   23.19790    1.10100    1.42000  # hc,c1,oh
angle_coeff	35 bb   23.19790    1.10100    1.42000  # hc,c3h,o3e

# BondAngle Coeffs

angle_coeff	 1 ba    8.01600    8.01600    1.53000    1.53000  # c,c,c1
angle_coeff	 2 ba   11.42100   20.75400    1.53000    1.10100  # c,c,hc
angle_coeff	 3 ba    8.01600    8.01600    1.53000    1.53000  # c,c1,c
angle_coeff	 4 ba    8.01600    8.01600    1.53000    1.53000  # c,c1,c1
angle_coeff	 5 ba   11.42100   20.75400    1.53000    1.10100  # c,c1,hc
angle_coeff	 6 ba    2.68680   20.40330    1.53000    1.42000  # c,c1,o3e
angle_coeff	 7 ba   20.40330    2.68680    1.53000    1.42000  # c,c1,oc
angle_coeff	 8 ba    8.01600    8.01600    1.53000    1.53000  # c,c3h,c3h
angle_coeff	 9 ba   11.42100   20.75400    1.53000    1.10100  # c,c3h,hc
angle_coeff	10 ba    2.68680   20.40330    1.53000    1.42000  # c,c3h,o3e
angle_coeff	11 ba    8.01600    8.01600    1.53000    1.53000  # c1,c,c1
angle_coeff	12 ba    8.01600    8.01600    1.53000    1.53000  # c1,c,c3h
angle_coeff	13 ba   20.75400   11.42100    1.53000    1.10100  # c1,c,hc
angle_coeff	14 ba    8.01600    8.01600    1.53000    1.53000  # c1,c1,c1
angle_coeff	15 ba    8.01600    8.01600    1.53000    1.53000  # c1,c1,c3h
angle_coeff	16 ba   20.75400   11.42100    1.53000    1.10100  # c1,c1,hc
angle_coeff	17 ba    2.68680   20.40330    1.53000    1.42000  # c1,c1,o3e
angle_coeff	18 ba    2.68680   20.40330    1.53000    1.42000  # c1,c1,oc
angle_coeff	19 ba   20.40330    2.68680    1.53000    1.42000  # c1,c1,oh
angle_coeff	20 ba    8.01600    8.01600    1.53000    1.53000  # c1,c3h,c3h
angle_coeff	21 ba   20.75400   11.42100    1.53000    1.10100  # c1,c3h,hc
angle_coeff	22 ba    2.68680   20.40330    1.53000    1.42000  # c1,c3h,o3e
angle_coeff	23 ba   -2.81120   -2.81120    1.42000    1.42000  # c1,o3e,c1
angle_coeff	24 ba   -2.81120   -2.81120    1.42000    1.42000  # c1,oc,c1
angle_coeff	25 ba    0.00000    0.00000    1.42000    0.96000  # c1,oh,h
angle_coeff	26 ba   11.42100   20.75400    1.53000    1.10100  # c3h,c,hc
angle_coeff	27 ba   11.42100   20.75400    1.53000    1.10100  # c3h,c1,hc
angle_coeff	28 ba   11.42100   20.75400    1.53000    1.10100  # c3h,c3h,hc
angle_coeff	29 ba   20.40330    2.68680    1.53000    1.42000  # c3h,c3h,o3e
angle_coeff	30 ba   -2.81120   -2.81120    1.42000    1.42000  # c3h,o3e,c3h
angle_coeff	31 ba   18.10300   18.10300    1.10100    1.10100  # hc,c,hc
angle_coeff	32 ba    4.61890   55.32700    1.10100    1.42000  # hc,c1,o3e
angle_coeff	33 ba    4.61890   55.32700    1.10100    1.42000  # hc,c1,oc
angle_coeff	34 ba   55.32700    4.61890    1.10100    1.42000  # hc,c1,oh
angle_coeff	35 ba    4.61890   55.32700    1.10100    1.42000  # hc,c3h,o3e

# Dihedral Coeffs

dihedral_coeff	 1    0.00000    0.00000    0.05140    0.00000   -0.14300    0.00000  # c,c,c1,c1
dihedral_coeff	 2    0.00000    0.00000    0.03160    0.00000   -0.16810    0.00000  # c,c,c1,hc
dihedral_coeff	 3    0.71370    0.00000    0.26600    0.00000   -0.25450    0.00000  # c,c,c1,oc
dihedral_coeff	 4    0.00000    0.00000    0.05140    0.00000   -0.14300    0.00000  # c,c1,c,c1
dihedral_coeff	 5    0.00000    0.00000    0.03160    0.00000   -0.16810    0.00000  # c,c1,c,hc
dihedral_coeff	 6    0.00000    0.00000    0.05140    0.00000   -0.14300    0.00000  # c,c1,c1,c
dihedral_coeff	 7    0.00000    0.00000    0.05140    0.00000   -0.14300    0.00000  # c,c1,c1,c1
dihedral_coeff	 8    0.00000    0.00000    0.05140    0.00000   -0.14300    0.00000  # c,c1,c1,c3h
dihedral_coeff	 9    0.00000    0.00000    0.03160    0.00000   -0.16810    0.00000  # c,c1,c1,hc
dihedral_coeff	10    0.71370    0.00000    0.26600    0.00000   -0.25450    0.00000  # c,c1,c1,o3e
dihedral_coeff	11    0.71370    0.00000    0.26600    0.00000   -0.25450    0.00000  # c,c1,c1,oc
dihedral_coeff	12    0.71370    0.00000    0.26600    0.00000   -0.25450    0.00000  # c,c1,c1,oh
dihedral_coeff	13   -0.52030    0.00000   -0.30280    0.00000   -0.34500    0.00000  # c,c1,o3e,c1
dihedral_coeff	14   -0.52030    0.00000   -0.30280    0.00000   -0.34500    0.00000  # c,c1,oc,c1
dihedral_coeff	15    0.00000    0.00000    0.05140    0.00000   -0.14300    0.00000  # c,c3h,c3h,c1
dihedral_coeff	16    0.00000    0.00000    0.03160    0.00000   -0.16810    0.00000  # c,c3h,c3h,hc
dihedral_coeff	17    0.71370    0.00000    0.26600    0.00000   -0.25450    0.00000  # c,c3h,c3h,o3e
dihedral_coeff	18   -0.52030    0.00000   -0.30280    0.00000   -0.34500    0.00000  # c,c3h,o3e,c3h
dihedral_coeff	19    0.00000    0.00000    0.05140    0.00000   -0.14300    0.00000  # c1,c,c,c1
dihedral_coeff	20    0.00000    0.00000    0.03160    0.00000   -0.16810    0.00000  # c1,c,c,hc
dihedral_coeff	21    0.00000    0.00000    0.05140    0.00000   -0.14300    0.00000  # c1,c,c1,c1
dihedral_coeff	22    0.00000    0.00000    0.03160    0.00000   -0.16810    0.00000  # c1,c,c1,hc
dihedral_coeff	23    0.71370    0.00000    0.26600    0.00000   -0.25450    0.00000  # c1,c,c1,o3e
dihedral_coeff	24    0.71370    0.00000    0.26600    0.00000   -0.25450    0.00000  # c1,c,c1,oc
dihedral_coeff	25    0.00000    0.00000    0.05140    0.00000   -0.14300    0.00000  # c1,c,c3h,c3h
dihedral_coeff	26    0.00000    0.00000    0.03160    0.00000   -0.16810    0.00000  # c1,c,c3h,hc
dihedral_coeff	27    0.71370    0.00000    0.26600    0.00000   -0.25450    0.00000  # c1,c,c3h,o3e
dihedral_coeff	28    0.00000    0.00000    0.05140    0.00000   -0.14300    0.00000  # c1,c1,c,c3h
dihedral_coeff	29    0.00000    0.00000    0.03160    0.00000   -0.16810    0.00000  # c1,c1,c,hc
dihedral_coeff	30    0.00000    0.00000    0.05140    0.00000   -0.14300    0.00000  # c1,c1,c1,c1
dihedral_coeff	31    0.00000    0.00000    0.05140    0.00000   -0.14300    0.00000  # c1,c1,c1,c3h
dihedral_coeff	32    0.00000    0.00000    0.03160    0.00000   -0.16810    0.00000  # c1,c1,c1,hc
dihedral_coeff	33    0.71370    0.00000    0.26600    0.00000   -0.25450    0.00000  # c1,c1,c1,o3e
dihedral_coeff	34    0.71370    0.00000    0.26600    0.00000   -0.25450    0.00000  # c1,c1,c1,oc
dihedral_coeff	35    0.71370    0.00000    0.26600    0.00000   -0.25450    0.00000  # c1,c1,c1,oh
dihedral_coeff	36    0.00000    0.00000    0.05140    0.00000   -0.14300    0.00000  # c1,c1,c3h,c3h
dihedral_coeff	37    0.00000    0.00000    0.03160    0.00000   -0.16810    0.00000  # c1,c1,c3h,hc
dihedral_coeff	38    0.71370    0.00000    0.26600    0.00000   -0.25450    0.00000  # c1,c1,c3h,o3e
dihedral_coeff	39   -0.52030    0.00000   -0.30280    0.00000   -0.34500    0.00000  # c1,c1,o3e,c1
dihedral_coeff	40   -0.52030    0.00000   -0.30280    0.00000   -0.34500    0.00000  # c1,c1,oc,c1
dihedral_coeff	41    0.00000    0.00000    0.00000    0.00000    0.13000  180.00000  # c1,c1,oh,h
dihedral_coeff	42    0.00000    0.00000    0.03160    0.00000   -0.16810    0.00000  # c1,c3h,c3h,hc
dihedral_coeff	43    0.71370    0.00000    0.26600    0.00000   -0.25450    0.00000  # c1,c3h,c3h,o3e
dihedral_coeff	44   -0.52030    0.00000   -0.30280    0.00000   -0.34500    0.00000  # c1,c3h,o3e,c3h
dihedral_coeff	45    0.53020    0.00000    0.00000    0.00000   -0.39660    0.00000  # c1,o3e,c1,hc
dihedral_coeff	46    0.53020    0.00000    0.00000    0.00000   -0.39660    0.00000  # c1,oc,c1,hc
dihedral_coeff	47    0.00000    0.00000    0.03160    0.00000   -0.16810    0.00000  # c3h,c,c1,hc
dihedral_coeff	48    0.00000    0.00000    0.03160    0.00000   -0.16810    0.00000  # c3h,c1,c1,hc
dihedral_coeff	49    0.00000    0.00000    0.03160    0.00000   -0.16810    0.00000  # c3h,c3h,c,hc
dihedral_coeff	50    0.00000    0.00000    0.03160    0.00000   -0.16810    0.00000  # c3h,c3h,c1,hc
dihedral_coeff	51    0.53020    0.00000    0.00000    0.00000   -0.39660    0.00000  # c3h,o3e,c3h,hc
dihedral_coeff	52    0.00000    0.00000    0.00000    0.00000    0.13000  180.00000  # h,oh,c1,hc
dihedral_coeff	53   -0.14320    0.00000    0.06170    0.00000   -0.10830    0.00000  # hc,c,c,hc
dihedral_coeff	54   -0.14320    0.00000    0.06170    0.00000   -0.10830    0.00000  # hc,c,c1,hc
dihedral_coeff	55   -0.14350    0.00000    0.25300    0.00000   -0.09050    0.00000  # hc,c,c1,o3e
dihedral_coeff	56   -0.14350    0.00000    0.25300    0.00000   -0.09050    0.00000  # hc,c,c1,oc
dihedral_coeff	57   -0.14320    0.00000    0.06170    0.00000   -0.10830    0.00000  # hc,c,c3h,hc
dihedral_coeff	58   -0.14350    0.00000    0.25300    0.00000   -0.09050    0.00000  # hc,c,c3h,o3e
dihedral_coeff	59   -0.14320    0.00000    0.06170    0.00000   -0.10830    0.00000  # hc,c1,c1,hc
dihedral_coeff	60   -0.14350    0.00000    0.25300    0.00000   -0.09050    0.00000  # hc,c1,c1,o3e
dihedral_coeff	61   -0.14350    0.00000    0.25300    0.00000   -0.09050    0.00000  # hc,c1,c1,oc
dihedral_coeff	62   -0.14350    0.00000    0.25300    0.00000   -0.09050    0.00000  # hc,c1,c1,oh
dihedral_coeff	63   -0.14320    0.00000    0.06170    0.00000   -0.10830    0.00000  # hc,c1,c3h,hc
dihedral_coeff	64   -0.14350    0.00000    0.25300    0.00000   -0.09050    0.00000  # hc,c1,c3h,o3e
dihedral_coeff	65   -0.14320    0.00000    0.06170    0.00000   -0.10830    0.00000  # hc,c3h,c3h,hc
dihedral_coeff	66   -0.14350    0.00000    0.25300    0.00000   -0.09050    0.00000  # hc,c3h,c3h,o3e
dihedral_coeff	67   -0.18200    0.00000   -0.10840    0.00000   -0.70470    0.00000  # oc,c1,c1,oc
dihedral_coeff	68   -0.18200    0.00000   -0.10840    0.00000   -0.70470    0.00000  # oc,c1,c1,oh

# MiddleBondTorsion Coeffs

dihedral_coeff	 1 mbt  -17.78700   -7.18770    0.00000    1.53000  # c,c,c1,c1
dihedral_coeff	 2 mbt  -14.87900   -3.65810   -0.31380    1.53000  # c,c,c1,hc
dihedral_coeff	 3 mbt  -21.88420   -7.67640   -0.68680    1.53000  # c,c,c1,oc
dihedral_coeff	 4 mbt  -17.78700   -7.18770    0.00000    1.53000  # c,c1,c,c1
dihedral_coeff	 5 mbt  -14.87900   -3.65810   -0.31380    1.53000  # c,c1,c,hc
dihedral_coeff	 6 mbt  -17.78700   -7.18770    0.00000    1.53000  # c,c1,c1,c
dihedral_coeff	 7 mbt  -17.78700   -7.18770    0.00000    1.53000  # c,c1,c1,c1
dihedral_coeff	 8 mbt  -17.78700   -7.18770    0.00000    1.53000  # c,c1,c1,c3h
dihedral_coeff	 9 mbt  -14.87900   -3.65810   -0.31380    1.53000  # c,c1,c1,hc
dihedral_coeff	10 mbt  -21.88420   -7.67640   -0.68680    1.53000  # c,c1,c1,o3e
dihedral_coeff	11 mbt  -21.88420   -7.67640   -0.68680    1.53000  # c,c1,c1,oc
dihedral_coeff	12 mbt  -21.88420   -7.67640   -0.68680    1.53000  # c,c1,c1,oh
dihedral_coeff	13 mbt   -5.92880   -2.70070   -0.31750    1.42000  # c,c1,o3e,c1
dihedral_coeff	14 mbt   -5.92880   -2.70070   -0.31750    1.42000  # c,c1,oc,c1
dihedral_coeff	15 mbt  -17.78700   -7.18770    0.00000    1.53000  # c,c3h,c3h,c1
dihedral_coeff	16 mbt  -14.87900   -3.65810   -0.31380    1.53000  # c,c3h,c3h,hc
dihedral_coeff	17 mbt  -21.88420   -7.67640   -0.68680    1.53000  # c,c3h,c3h,o3e
dihedral_coeff	18 mbt   -5.92880   -2.70070   -0.31750    1.42000  # c,c3h,o3e,c3h
dihedral_coeff	19 mbt  -17.78700   -7.18770    0.00000    1.53000  # c1,c,c,c1
dihedral_coeff	20 mbt  -14.87900   -3.65810   -0.31380    1.53000  # c1,c,c,hc
dihedral_coeff	21 mbt  -17.78700   -7.18770    0.00000    1.53000  # c1,c,c1,c1
dihedral_coeff	22 mbt  -14.87900   -3.65810   -0.31380    1.53000  # c1,c,c1,hc
dihedral_coeff	23 mbt  -21.88420   -7.67640   -0.68680    1.53000  # c1,c,c1,o3e
dihedral_coeff	24 mbt  -21.88420   -7.67640   -0.68680    1.53000  # c1,c,c1,oc
dihedral_coeff	25 mbt  -17.78700   -7.18770    0.00000    1.53000  # c1,c,c3h,c3h
dihedral_coeff	26 mbt  -14.87900   -3.65810   -0.31380    1.53000  # c1,c,c3h,hc
dihedral_coeff	27 mbt  -21.88420   -7.67640   -0.68680    1.53000  # c1,c,c3h,o3e
dihedral_coeff	28 mbt  -17.78700   -7.18770    0.00000    1.53000  # c1,c1,c,c3h
dihedral_coeff	29 mbt  -14.87900   -3.65810   -0.31380    1.53000  # c1,c1,c,hc
dihedral_coeff	30 mbt  -17.78700   -7.18770    0.00000    1.53000  # c1,c1,c1,c1
dihedral_coeff	31 mbt  -17.78700   -7.18770    0.00000    1.53000  # c1,c1,c1,c3h
dihedral_coeff	32 mbt  -14.87900   -3.65810   -0.31380    1.53000  # c1,c1,c1,hc
dihedral_coeff	33 mbt  -21.88420   -7.67640   -0.68680    1.53000  # c1,c1,c1,o3e
dihedral_coeff	34 mbt  -21.88420   -7.67640   -0.68680    1.53000  # c1,c1,c1,oc
dihedral_coeff	35 mbt  -21.88420   -7.67640   -0.68680    1.53000  # c1,c1,c1,oh
dihedral_coeff	36 mbt  -17.78700   -7.18770    0.00000    1.53000  # c1,c1,c3h,c3h
dihedral_coeff	37 mbt  -14.87900   -3.65810   -0.31380    1.53000  # c1,c1,c3h,hc
dihedral_coeff	38 mbt  -21.88420   -7.67640   -0.68680    1.53000  # c1,c1,c3h,o3e
dihedral_coeff	39 mbt   -5.92880   -2.70070   -0.31750    1.42000  # c1,c1,o3e,c1
dihedral_coeff	40 mbt   -5.92880   -2.70070   -0.31750    1.42000  # c1,c1,oc,c1
dihedral_coeff	41 mbt    0.00000    0.00000    0.00000    1.42000  # c1,c1,oh,h
dihedral_coeff	42 mbt  -14.87900   -3.65810   -0.31380    1.53000  # c1,c3h,c3h,hc
dihedral_coeff	43 mbt  -21.88420   -7.67640   -0.68680    1.53000  # c1,c3h,c3h,o3e
dihedral_coeff	44 mbt   -5.92880   -2.70070   -0.31750    1.42000  # c1,c3h,o3e,c3h
dihedral_coeff	45 mbt   -6.80070   -4.65460   -1.41010    1.42000  # c1,o3e,c1,hc
dihedral_coeff	46 mbt   -6.80070   -4.65460   -1.41010    1.42000  # c1,oc,c1,hc
dihedral_coeff	47 mbt  -14.87900   -3.65810   -0.31380    1.53000  # c3h,c,c1,hc
dihedral_coeff	48 mbt  -14.87900   -3.65810   -0.31380    1.53000  # c3h,c1,c1,hc
dihedral_coeff	49 mbt  -14.87900   -3.65810   -0.31380    1.53000  # c3h,c3h,c,hc
dihedral_coeff	50 mbt  -14.87900   -3.65810   -0.31380    1.53000  # c3h,c3h,c1,hc
dihedral_coeff	51 mbt   -6.80070   -4.65460   -1.41010    1.42000  # c3h,o3e,c3h,hc
dihedral_coeff	52 mbt    0.00000    0.00000    0.00000    1.42000  # h,oh,c1,hc
dihedral_coeff	53 mbt  -14.26100   -0.53220   -0.48640    1.53000  # hc,c,c,hc
dihedral_coeff	54 mbt  -14.26100   -0.53220   -0.48640    1.53000  # hc,c,c1,hc
dihedral_coeff	55 mbt  -16.79750   -1.22960   -0.27500    1.53000  # hc,c,c1,o3e
dihedral_coeff	56 mbt  -16.79750   -1.22960   -0.27500    1.53000  # hc,c,c1,oc
dihedral_coeff	57 mbt  -14.26100   -0.53220   -0.48640    1.53000  # hc,c,c3h,hc
dihedral_coeff	58 mbt  -16.79750   -1.22960   -0.27500    1.53000  # hc,c,c3h,o3e
dihedral_coeff	59 mbt  -14.26100   -0.53220   -0.48640    1.53000  # hc,c1,c1,hc
dihedral_coeff	60 mbt  -16.79750   -1.22960   -0.27500    1.53000  # hc,c1,c1,o3e
dihedral_coeff	61 mbt  -16.79750   -1.22960   -0.27500    1.53000  # hc,c1,c1,oc
dihedral_coeff	62 mbt  -16.79750   -1.22960   -0.27500    1.53000  # hc,c1,c1,oh
dihedral_coeff	63 mbt  -14.26100   -0.53220   -0.48640    1.53000  # hc,c1,c3h,hc
dihedral_coeff	64 mbt  -16.79750   -1.22960   -0.27500    1.53000  # hc,c1,c3h,o3e
dihedral_coeff	65 mbt  -14.26100   -0.53220   -0.48640    1.53000  # hc,c3h,c3h,hc
dihedral_coeff	66 mbt  -16.79750   -1.22960   -0.27500    1.53000  # hc,c3h,c3h,o3e
dihedral_coeff	67 mbt  -17.25850   -3.61570   -0.83640    1.53000  # oc,c1,c1,oc
dihedral_coeff	68 mbt  -17.25850   -3.61570   -0.83640    1.53000  # oc,c1,c1,oh

# EndBondTorsion Coeffs

dihedral_coeff	 1 ebt   -0.07320    0.00000    0.00000   -0.07320    0.00000    0.00000    1.53000    1.53000  # c,c,c1,c1
dihedral_coeff	 2 ebt    0.08140    0.05910    0.22190    0.24860    0.24220   -0.09250    1.53000    1.10100  # c,c,c1,hc
dihedral_coeff	 3 ebt    1.15380    0.84090   -0.91380   -0.31900    0.44110   -0.71740    1.53000    1.42000  # c,c,c1,oc
dihedral_coeff	 4 ebt   -0.07320    0.00000    0.00000   -0.07320    0.00000    0.00000    1.53000    1.53000  # c,c1,c,c1
dihedral_coeff	 5 ebt    0.08140    0.05910    0.22190    0.24860    0.24220   -0.09250    1.53000    1.10100  # c,c1,c,hc
dihedral_coeff	 6 ebt   -0.07320    0.00000    0.00000   -0.07320    0.00000    0.00000    1.53000    1.53000  # c,c1,c1,c
dihedral_coeff	 7 ebt   -0.07320    0.00000    0.00000   -0.07320    0.00000    0.00000    1.53000    1.53000  # c,c1,c1,c1
dihedral_coeff	 8 ebt   -0.07320    0.00000    0.00000   -0.07320    0.00000    0.00000    1.53000    1.53000  # c,c1,c1,c3h
dihedral_coeff	 9 ebt    0.08140    0.05910    0.22190    0.24860    0.24220   -0.09250    1.53000    1.10100  # c,c1,c1,hc
dihedral_coeff	10 ebt   -0.31900    0.44110   -0.71740    1.15380    0.84090   -0.91380    1.53000    1.42000  # c,c1,c1,o3e
dihedral_coeff	11 ebt    1.15380    0.84090   -0.91380   -0.31900    0.44110   -0.71740    1.53000    1.42000  # c,c1,c1,oc
dihedral_coeff	12 ebt    1.15380    0.84090   -0.91380   -0.31900    0.44110   -0.71740    1.53000    1.42000  # c,c1,c1,oh
dihedral_coeff	13 ebt    0.47410    1.26350    0.55760   -0.24560    1.05170   -0.77950    1.53000    1.42000  # c,c1,o3e,c1
dihedral_coeff	14 ebt    0.47410    1.26350    0.55760   -0.24560    1.05170   -0.77950    1.53000    1.42000  # c,c1,oc,c1
dihedral_coeff	15 ebt   -0.07320    0.00000    0.00000   -0.07320    0.00000    0.00000    1.53000    1.53000  # c,c3h,c3h,c1
dihedral_coeff	16 ebt    0.08140    0.05910    0.22190    0.24860    0.24220   -0.09250    1.53000    1.10100  # c,c3h,c3h,hc
dihedral_coeff	17 ebt   -0.31900    0.44110   -0.71740    1.15380    0.84090   -0.91380    1.53000    1.42000  # c,c3h,c3h,o3e
dihedral_coeff	18 ebt   -0.24560    1.05170   -0.77950    0.47410    1.26350    0.55760    1.53000    1.42000  # c,c3h,o3e,c3h
dihedral_coeff	19 ebt   -0.07320    0.00000    0.00000   -0.07320    0.00000    0.00000    1.53000    1.53000  # c1,c,c,c1
dihedral_coeff	20 ebt    0.24860    0.24220   -0.09250    0.08140    0.05910    0.22190    1.53000    1.10100  # c1,c,c,hc
dihedral_coeff	21 ebt   -0.07320    0.00000    0.00000   -0.07320    0.00000    0.00000    1.53000    1.53000  # c1,c,c1,c1
dihedral_coeff	22 ebt    0.24860    0.24220   -0.09250    0.08140    0.05910    0.22190    1.53000    1.10100  # c1,c,c1,hc
dihedral_coeff	23 ebt   -0.31900    0.44110   -0.71740    1.15380    0.84090   -0.91380    1.53000    1.42000  # c1,c,c1,o3e
dihedral_coeff	24 ebt   -0.31900    0.44110   -0.71740    1.15380    0.84090   -0.91380    1.53000    1.42000  # c1,c,c1,oc
dihedral_coeff	25 ebt   -0.07320    0.00000    0.00000   -0.07320    0.00000    0.00000    1.53000    1.53000  # c1,c,c3h,c3h
dihedral_coeff	26 ebt    0.24860    0.24220   -0.09250    0.08140    0.05910    0.22190    1.53000    1.10100  # c1,c,c3h,hc
dihedral_coeff	27 ebt   -0.31900    0.44110   -0.71740    1.15380    0.84090   -0.91380    1.53000    1.42000  # c1,c,c3h,o3e
dihedral_coeff	28 ebt   -0.07320    0.00000    0.00000   -0.07320    0.00000    0.00000    1.53000    1.53000  # c1,c1,c,c3h
dihedral_coeff	29 ebt    0.24860    0.24220   -0.09250    0.08140    0.05910    0.22190    1.53000    1.10100  # c1,c1,c,hc
dihedral_coeff	30 ebt   -0.07320    0.00000    0.00000   -0.07320    0.00000    0.00000    1.53000    1.53000  # c1,c1,c1,c1
dihedral_coeff	31 ebt   -0.07320    0.00000    0.00000   -0.07320    0.00000    0.00000    1.53000    1.53000  # c1,c1,c1,c3h
dihedral_coeff	32 ebt    0.24860    0.24220   -0.09250    0.08140    0.05910    0.22190    1.53000    1.10100  # c1,c1,c1,hc
dihedral_coeff	33 ebt   -0.31900    0.44110   -0.71740    1.15380    0.84090   -0.91380    1.53000    1.42000  # c1,c1,c1,o3e
dihedral_coeff	34 ebt   -0.31900    0.44110   -0.71740    1.15380    0.84090   -0.91380    1.53000    1.42000  # c1,c1,c1,oc
dihedral_coeff	35 ebt    1.15380    0.84090   -0.91380   -0.31900    0.44110   -0.71740    1.53000    1.42000  # c1,c1,c1,oh
dihedral_coeff	36 ebt   -0.07320    0.00000    0.00000   -0.07320    0.00000    0.00000    1.53000    1.53000  # c1,c1,c3h,c3h
dihedral_coeff	37 ebt    0.24860    0.24220   -0.09250    0.08140    0.05910    0.22190    1.53000    1.10100  # c1,c1,c3h,hc
dihedral_coeff	38 ebt   -0.31900    0.44110   -0.71740    1.15380    0.84090   -0.91380    1.53000    1.42000  # c1,c1,c3h,o3e
dihedral_coeff	39 ebt   -0.24560    1.05170   -0.77950    0.47410    1.26350    0.55760    1.53000    1.42000  # c1,c1,o3e,c1
dihedral_coeff	40 ebt   -0.24560    1.05170   -0.77950    0.47410    1.26350    0.55760    1.53000    1.42000  # c1,c1,oc,c1
dihedral_coeff	41 ebt    0.00000    0.00000    0.00000    0.00000    0.00000    0.00000    1.53000    0.96000  # c1,c1,oh,h
dihedral_coeff	42 ebt    0.24860    0.24220   -0.09250    0.08140    0.05910    0.22190    1.53000    1.10100  # c1,c3h,c3h,hc
dihedral_coeff	43 ebt   -0.31900    0.44110   -0.71740    1.15380    0.84090   -0.91380    1.53000    1.42000  # c1,c3h,c3h,o3e
dihedral_coeff	44 ebt   -0.24560    1.05170   -0.77950    0.47410    1.26350    0.55760    1.53000    1.42000  # c1,c3h,o3e,c3h
dihedral_coeff	45 ebt   -0.16200    0.15640   -1.14080   -0.60540    1.33390    0.96480    1.42000    1.10100  # c1,o3e,c1,hc
dihedral_coeff	46 ebt   -0.16200    0.15640   -1.14080   -0.60540    1.33390    0.96480    1.42000    1.10100  # c1,oc,c1,hc
dihedral_coeff	47 ebt    0.08140    0.05910    0.22190    0.24860    0.24220   -0.09250    1.53000    1.10100  # c3h,c,c1,hc
dihedral_coeff	48 ebt    0.08140    0.05910    0.22190    0.24860    0.24220   -0.09250    1.53000    1.10100  # c3h,c1,c1,hc
dihedral_coeff	49 ebt    0.08140    0.05910    0.22190    0.24860    0.24220   -0.09250    1.53000    1.10100  # c3h,c3h,c,hc
dihedral_coeff	50 ebt    0.08140    0.05910    0.22190    0.24860    0.24220   -0.09250    1.53000    1.10100  # c3h,c3h,c1,hc
dihedral_coeff	51 ebt   -0.60540    1.33390    0.96480   -0.16200    0.15640   -1.14080    1.42000    1.10100  # c3h,o3e,c3h,hc
dihedral_coeff	52 ebt    0.00000    0.00000    0.00000    0.00000    0.00000    0.00000    0.96000    1.10100  # h,oh,c1,hc
dihedral_coeff	53 ebt    0.21300    0.31200    0.07770    0.21300    0.31200    0.07770    1.10100    1.10100  # hc,c,c,hc
dihedral_coeff	54 ebt    0.21300    0.31200    0.07770    0.21300    0.31200    0.07770    1.10100    1.10100  # hc,c,c1,hc
dihedral_coeff	55 ebt    0.96810    0.95510    0.04360    0.59030    0.66690    0.85840    1.10100    1.42000  # hc,c,c1,o3e
dihedral_coeff	56 ebt    0.96810    0.95510    0.04360    0.59030    0.66690    0.85840    1.10100    1.42000  # hc,c,c1,oc
dihedral_coeff	57 ebt    0.21300    0.31200    0.07770    0.21300    0.31200    0.07770    1.10100    1.10100  # hc,c,c3h,hc
dihedral_coeff	58 ebt    0.96810    0.95510    0.04360    0.59030    0.66690    0.85840    1.10100    1.42000  # hc,c,c3h,o3e
dihedral_coeff	59 ebt    0.21300    0.31200    0.07770    0.21300    0.31200    0.07770    1.10100    1.10100  # hc,c1,c1,hc
dihedral_coeff	60 ebt    0.96810    0.95510    0.04360    0.59030    0.66690    0.85840    1.10100    1.42000  # hc,c1,c1,o3e
dihedral_coeff	61 ebt    0.96810    0.95510    0.04360    0.59030    0.66690    0.85840    1.10100    1.42000  # hc,c1,c1,oc
dihedral_coeff	62 ebt    0.59030    0.66690    0.85840    0.96810    0.95510    0.04360    1.10100    1.42000  # hc,c1,c1,oh
dihedral_coeff	63 ebt    0.21300    0.31200    0.07770    0.21300    0.31200    0.07770    1.10100    1.10100  # hc,c1,c3h,hc
dihedral_coeff	64 ebt    0.96810    0.95510    0.04360    0.59030    0.66690    0.85840    1.10100    1.42000  # hc,c1,c3h,o3e
dihedral_coeff	65 ebt    0.21300    0.31200    0.07770    0.21300    0.31200    0.07770    1.10100    1.10100  # hc,c3h,c3h,hc
dihedral_coeff	66 ebt    0.96810    0.95510    0.04360    0.59030    0.66690    0.85840    1.10100    1.42000  # hc,c3h,c3h,o3e
dihedral_coeff	67 ebt    1.01650    0.75530   -0.46090    1.01650    0.75530   -0.46090    1.42000    1.42000  # oc,c1,c1,oc
dihedral_coeff	68 ebt    1.01650    0.75530   -0.46090    1.01650    0.75530   -0.46090    1.42000    1.42000  # oc,c1,c1,oh

# AngleTorsion Coeffs

dihedral_coeff	 1 at    0.38860   -0.31390    0.13890    0.38860   -0.31390    0.13890  112.67000  112.67000  # c,c,c1,c1
dihedral_coeff	 2 at    0.31130    0.45160   -0.19880   -0.24540    0.00000   -0.11360  112.67000  110.77000  # c,c,c1,hc
dihedral_coeff	 3 at    0.96720   -0.75660   -1.23310    0.56230   -0.30410   -0.40150  112.67000  111.27000  # c,c,c1,oc
dihedral_coeff	 4 at    0.38860   -0.31390    0.13890    0.38860   -0.31390    0.13890  112.67000  112.67000  # c,c1,c,c1
dihedral_coeff	 5 at    0.31130    0.45160   -0.19880   -0.24540    0.00000   -0.11360  112.67000  110.77000  # c,c1,c,hc
dihedral_coeff	 6 at    0.38860   -0.31390    0.13890    0.38860   -0.31390    0.13890  112.67000  112.67000  # c,c1,c1,c
dihedral_coeff	 7 at    0.38860   -0.31390    0.13890    0.38860   -0.31390    0.13890  112.67000  112.67000  # c,c1,c1,c1
dihedral_coeff	 8 at    0.38860   -0.31390    0.13890    0.38860   -0.31390    0.13890  112.67000  112.67000  # c,c1,c1,c3h
dihedral_coeff	 9 at    0.31130    0.45160   -0.19880   -0.24540    0.00000   -0.11360  112.67000  110.77000  # c,c1,c1,hc
dihedral_coeff	10 at    0.56230   -0.30410   -0.40150    0.96720   -0.75660   -1.23310  112.67000  111.27000  # c,c1,c1,o3e
dihedral_coeff	11 at    0.96720   -0.75660   -1.23310    0.56230   -0.30410   -0.40150  112.67000  111.27000  # c,c1,c1,oc
dihedral_coeff	12 at    0.96720   -0.75660   -1.23310    0.56230   -0.30410   -0.40150  112.67000  111.27000  # c,c1,c1,oh
dihedral_coeff	13 at    0.56760    0.94500    0.07030   -2.74660    1.48770   -0.89550  111.27000  104.50000  # c,c1,o3e,c1
dihedral_coeff	14 at    0.56760    0.94500    0.07030   -2.74660    1.48770   -0.89550  111.27000  104.50000  # c,c1,oc,c1
dihedral_coeff	15 at    0.38860   -0.31390    0.13890    0.38860   -0.31390    0.13890  112.67000  112.67000  # c,c3h,c3h,c1
dihedral_coeff	16 at    0.31130    0.45160   -0.19880   -0.24540    0.00000   -0.11360  112.67000  110.77000  # c,c3h,c3h,hc
dihedral_coeff	17 at    0.56230   -0.30410   -0.40150    0.96720   -0.75660   -1.23310  112.67000  111.27000  # c,c3h,c3h,o3e
dihedral_coeff	18 at   -2.74660    1.48770   -0.89550    0.56760    0.94500    0.07030  111.27000  104.50000  # c,c3h,o3e,c3h
dihedral_coeff	19 at    0.38860   -0.31390    0.13890    0.38860   -0.31390    0.13890  112.67000  112.67000  # c1,c,c,c1
dihedral_coeff	20 at   -0.24540    0.00000   -0.11360    0.31130    0.45160   -0.19880  112.67000  110.77000  # c1,c,c,hc
dihedral_coeff	21 at    0.38860   -0.31390    0.13890    0.38860   -0.31390    0.13890  112.67000  112.67000  # c1,c,c1,c1
dihedral_coeff	22 at   -0.24540    0.00000   -0.11360    0.31130    0.45160   -0.19880  112.67000  110.77000  # c1,c,c1,hc
dihedral_coeff	23 at    0.56230   -0.30410   -0.40150    0.96720   -0.75660   -1.23310  112.67000  111.27000  # c1,c,c1,o3e
dihedral_coeff	24 at    0.56230   -0.30410   -0.40150    0.96720   -0.75660   -1.23310  112.67000  111.27000  # c1,c,c1,oc
dihedral_coeff	25 at    0.38860   -0.31390    0.13890    0.38860   -0.31390    0.13890  112.67000  112.67000  # c1,c,c3h,c3h
dihedral_coeff	26 at   -0.24540    0.00000   -0.11360    0.31130    0.45160   -0.19880  112.67000  110.77000  # c1,c,c3h,hc
dihedral_coeff	27 at    0.56230   -0.30410   -0.40150    0.96720   -0.75660   -1.23310  112.67000  111.27000  # c1,c,c3h,o3e
dihedral_coeff	28 at    0.38860   -0.31390    0.13890    0.38860   -0.31390    0.13890  112.67000  112.67000  # c1,c1,c,c3h
dihedral_coeff	29 at   -0.24540    0.00000   -0.11360    0.31130    0.45160   -0.19880  112.67000  110.77000  # c1,c1,c,hc
dihedral_coeff	30 at    0.38860   -0.31390    0.13890    0.38860   -0.31390    0.13890  112.67000  112.67000  # c1,c1,c1,c1
dihedral_coeff	31 at    0.38860   -0.31390    0.13890    0.38860   -0.31390    0.13890  112.67000  112.67000  # c1,c1,c1,c3h
dihedral_coeff	32 at   -0.24540    0.00000   -0.11360    0.31130    0.45160   -0.19880  112.67000  110.77000  # c1,c1,c1,hc
dihedral_coeff	33 at    0.56230   -0.30410   -0.40150    0.96720   -0.75660   -1.23310  112.67000  111.27000  # c1,c1,c1,o3e
dihedral_coeff	34 at    0.56230   -0.30410   -0.40150    0.96720   -0.75660   -1.23310  112.67000  111.27000  # c1,c1,c1,oc
dihedral_coeff	35 at    0.96720   -0.75660   -1.23310    0.56230   -0.30410   -0.40150  112.67000  111.27000  # c1,c1,c1,oh
dihedral_coeff	36 at    0.38860   -0.31390    0.13890    0.38860   -0.31390    0.13890  112.67000  112.67000  # c1,c1,c3h,c3h
dihedral_coeff	37 at   -0.24540    0.00000   -0.11360    0.31130    0.45160   -0.19880  112.67000  110.77000  # c1,c1,c3h,hc
dihedral_coeff	38 at    0.56230   -0.30410   -0.40150    0.96720   -0.75660   -1.23310  112.67000  111.27000  # c1,c1,c3h,o3e
dihedral_coeff	39 at   -2.74660    1.48770   -0.89550    0.56760    0.94500    0.07030  111.27000  104.50000  # c1,c1,o3e,c1
dihedral_coeff	40 at   -2.74660    1.48770   -0.89550    0.56760    0.94500    0.07030  111.27000  104.50000  # c1,c1,oc,c1
dihedral_coeff	41 at    0.00000    0.00000    0.00000    0.00000    0.00000    0.00000  111.27000  109.00000  # c1,c1,oh,h
dihedral_coeff	42 at   -0.24540    0.00000   -0.11360    0.31130    0.45160   -0.19880  112.67000  110.77000  # c1,c3h,c3h,hc
dihedral_coeff	43 at    0.56230   -0.30410   -0.40150    0.96720   -0.75660   -1.23310  112.67000  111.27000  # c1,c3h,c3h,o3e
dihedral_coeff	44 at   -2.74660    1.48770   -0.89550    0.56760    0.94500    0.07030  111.27000  104.50000  # c1,c3h,o3e,c3h
dihedral_coeff	45 at   -0.77770    0.43400   -0.66530   -1.82340    1.63930    0.51440  104.50000  108.72800  # c1,o3e,c1,hc
dihedral_coeff	46 at   -0.77770    0.43400   -0.66530   -1.82340    1.63930    0.51440  104.50000  108.72800  # c1,oc,c1,hc
dihedral_coeff	47 at    0.31130    0.45160   -0.19880   -0.24540    0.00000   -0.11360  112.67000  110.77000  # c3h,c,c1,hc
dihedral_coeff	48 at    0.31130    0.45160   -0.19880   -0.24540    0.00000   -0.11360  112.67000  110.77000  # c3h,c1,c1,hc
dihedral_coeff	49 at    0.31130    0.45160   -0.19880   -0.24540    0.00000   -0.11360  112.67000  110.77000  # c3h,c3h,c,hc
dihedral_coeff	50 at    0.31130    0.45160   -0.19880   -0.24540    0.00000   -0.11360  112.67000  110.77000  # c3h,c3h,c1,hc
dihedral_coeff	51 at   -1.82340    1.63930    0.51440   -0.77770    0.43400   -0.66530  104.50000  108.72800  # c3h,o3e,c3h,hc
dihedral_coeff	52 at    0.00000    0.00000    0.00000    0.00000    0.00000    0.00000  109.00000  108.72800  # h,oh,c1,hc
dihedral_coeff	53 at   -0.80850    0.55690   -0.24660   -0.80850    0.55690   -0.24660  110.77000  110.77000  # hc,c,c,hc
dihedral_coeff	54 at   -0.80850    0.55690   -0.24660   -0.80850    0.55690   -0.24660  110.77000  110.77000  # hc,c,c1,hc
dihedral_coeff	55 at    2.36680    2.49200   -1.01220   -0.18920    0.49180    0.72730  110.77000  111.27000  # hc,c,c1,o3e
dihedral_coeff	56 at    2.36680    2.49200   -1.01220   -0.18920    0.49180    0.72730  110.77000  111.27000  # hc,c,c1,oc
dihedral_coeff	57 at   -0.80850    0.55690   -0.24660   -0.80850    0.55690   -0.24660  110.77000  110.77000  # hc,c,c3h,hc
dihedral_coeff	58 at    2.36680    2.49200   -1.01220   -0.18920    0.49180    0.72730  110.77000  111.27000  # hc,c,c3h,o3e
dihedral_coeff	59 at   -0.80850    0.55690   -0.24660   -0.80850    0.55690   -0.24660  110.77000  110.77000  # hc,c1,c1,hc
dihedral_coeff	60 at    2.36680    2.49200   -1.01220   -0.18920    0.49180    0.72730  110.77000  111.27000  # hc,c1,c1,o3e
dihedral_coeff	61 at    2.36680    2.49200   -1.01220   -0.18920    0.49180    0.72730  110.77000  111.27000  # hc,c1,c1,oc
dihedral_coeff	62 at   -0.18920    0.49180    0.72730    2.36680    2.49200   -1.01220  110.77000  111.27000  # hc,c1,c1,oh
dihedral_coeff	63 at   -0.80850    0.55690   -0.24660   -0.80850    0.55690   -0.24660  110.77000  110.77000  # hc,c1,c3h,hc
dihedral_coeff	64 at    2.36680    2.49200   -1.01220   -0.18920    0.49180    0.72730  110.77000  111.27000  # hc,c1,c3h,o3e
dihedral_coeff	65 at   -0.80850    0.55690   -0.24660   -0.80850    0.55690   -0.24660  110.77000  110.77000  # hc,c3h,c3h,hc
dihedral_coeff	66 at    2.36680    2.49200   -1.01220   -0.18920    0.49180    0.72730  110.77000  111.27000  # hc,c3h,c3h,o3e
dihedral_coeff	67 at    0.55110    0.97370   -0.66730    0.55110    0.97370   -0.66730  111.27000  111.27000  # oc,c1,c1,oc
dihedral_coeff	68 at    0.55110    0.97370   -0.66730    0.55110    0.97370   -0.66730  111.27000  111.27000  # oc,c1,c1,oh

# AngleAngleTorsion Coeffs

dihedral_coeff	 1 aat  -22.04500  112.67000  112.67000  # c,c,c1,c1
dihedral_coeff	 2 aat  -16.16400  112.67000  110.77000  # c,c,c1,hc
dihedral_coeff	 3 aat  -29.04200  112.67000  111.27000  # c,c,c1,oc
dihedral_coeff	 4 aat  -22.04500  112.67000  112.67000  # c,c1,c,c1
dihedral_coeff	 5 aat  -16.16400  112.67000  110.77000  # c,c1,c,hc
dihedral_coeff	 6 aat  -22.04500  112.67000  112.67000  # c,c1,c1,c
dihedral_coeff	 7 aat  -22.04500  112.67000  112.67000  # c,c1,c1,c1
dihedral_coeff	 8 aat  -22.04500  112.67000  112.67000  # c,c1,c1,c3h
dihedral_coeff	 9 aat  -16.16400  112.67000  110.77000  # c,c1,c1,hc
dihedral_coeff	10 aat  -29.04200  112.67000  111.27000  # c,c1,c1,o3e
dihedral_coeff	11 aat  -29.04200  112.67000  111.27000  # c,c1,c1,oc
dihedral_coeff	12 aat  -29.04200  112.67000  111.27000  # c,c1,c1,oh
dihedral_coeff	13 aat  -19.00590  111.27000  104.50000  # c,c1,o3e,c1
dihedral_coeff	14 aat  -19.00590  111.27000  104.50000  # c,c1,oc,c1
dihedral_coeff	15 aat  -22.04500  112.67000  112.67000  # c,c3h,c3h,c1
dihedral_coeff	16 aat  -16.16400  112.67000  110.77000  # c,c3h,c3h,hc
dihedral_coeff	17 aat  -29.04200  112.67000  111.27000  # c,c3h,c3h,o3e
dihedral_coeff	18 aat  -19.00590  111.27000  104.50000  # c,c3h,o3e,c3h
dihedral_coeff	19 aat  -22.04500  112.67000  112.67000  # c1,c,c,c1
dihedral_coeff	20 aat  -16.16400  112.67000  110.77000  # c1,c,c,hc
dihedral_coeff	21 aat  -22.04500  112.67000  112.67000  # c1,c,c1,c1
dihedral_coeff	22 aat  -16.16400  112.67000  110.77000  # c1,c,c1,hc
dihedral_coeff	23 aat  -29.04200  112.67000  111.27000  # c1,c,c1,o3e
dihedral_coeff	24 aat  -29.04200  112.67000  111.27000  # c1,c,c1,oc
dihedral_coeff	25 aat  -22.04500  112.67000  112.67000  # c1,c,c3h,c3h
dihedral_coeff	26 aat  -16.16400  112.67000  110.77000  # c1,c,c3h,hc
dihedral_coeff	27 aat  -29.04200  112.67000  111.27000  # c1,c,c3h,o3e
dihedral_coeff	28 aat  -22.04500  112.67000  112.67000  # c1,c1,c,c3h
dihedral_coeff	29 aat  -16.16400  112.67000  110.77000  # c1,c1,c,hc
dihedral_coeff	30 aat  -22.04500  112.67000  112.67000  # c1,c1,c1,c1
dihedral_coeff	31 aat  -22.04500  112.67000  112.67000  # c1,c1,c1,c3h
dihedral_coeff	32 aat  -16.16400  112.67000  110.77000  # c1,c1,c1,hc
dihedral_coeff	33 aat  -29.04200  112.67000  111.27000  # c1,c1,c1,o3e
dihedral_coeff	34 aat  -29.04200  112.67000  111.27000  # c1,c1,c1,oc
dihedral_coeff	35 aat  -29.04200  112.67000  111.27000  # c1,c1,c1,oh
dihedral_coeff	36 aat  -22.04500  112.67000  112.67000  # c1,c1,c3h,c3h
dihedral_coeff	37 aat  -16.16400  112.67000  110.77000  # c1,c1,c3h,hc
dihedral_coeff	38 aat  -29.04200  112.67000  111.27000  # c1,c1,c3h,o3e
dihedral_coeff	39 aat  -19.00590  111.27000  104.50000  # c1,c1,o3e,c1
dihedral_coeff	40 aat  -19.00590  111.27000  104.50000  # c1,c1,oc,c1
dihedral_coeff	41 aat    0.00000  111.27000  109.00000  # c1,c1,oh,h
dihedral_coeff	42 aat  -16.16400  112.67000  110.77000  # c1,c3h,c3h,hc
dihedral_coeff	43 aat  -29.04200  112.67000  111.27000  # c1,c3h,c3h,o3e
dihedral_coeff	44 aat  -19.00590  111.27000  104.50000  # c1,c3h,o3e,c3h
dihedral_coeff	45 aat  -16.44380  104.50000  108.72800  # c1,o3e,c1,hc
dihedral_coeff	46 aat  -16.44380  104.50000  108.72800  # c1,oc,c1,hc
dihedral_coeff	47 aat  -16.16400  112.67000  110.77000  # c3h,c,c1,hc
dihedral_coeff	48 aat  -16.16400  112.67000  110.77000  # c3h,c1,c1,hc
dihedral_coeff	49 aat  -16.16400  112.67000  110.77000  # c3h,c3h,c,hc
dihedral_coeff	50 aat  -16.16400  112.67000  110.77000  # c3h,c3h,c1,hc
dihedral_coeff	51 aat  -16.44380  104.50000  108.72800  # c3h,o3e,c3h,hc
dihedral_coeff	52 aat    0.00000  109.00000  108.72800  # h,oh,c1,hc
dihedral_coeff	53 aat  -12.56400  110.77000  110.77000  # hc,c,c,hc
dihedral_coeff	54 aat  -12.56400  110.77000  110.77000  # hc,c,c1,hc
dihedral_coeff	55 aat  -20.20060  110.77000  111.27000  # hc,c,c1,o3e
dihedral_coeff	56 aat  -20.20060  110.77000  111.27000  # hc,c,c1,oc
dihedral_coeff	57 aat  -12.56400  110.77000  110.77000  # hc,c,c3h,hc
dihedral_coeff	58 aat  -20.20060  110.77000  111.27000  # hc,c,c3h,o3e
dihedral_coeff	59 aat  -12.56400  110.77000  110.77000  # hc,c1,c1,hc
dihedral_coeff	60 aat  -20.20060  110.77000  111.27000  # hc,c1,c1,o3e
dihedral_coeff	61 aat  -20.20060  110.77000  111.27000  # hc,c1,c1,oc
dihedral_coeff	62 aat  -20.20060  110.77000  111.27000  # hc,c1,c1,oh
dihedral_coeff	63 aat  -12.56400  110.77000  110.77000  # hc,c1,c3h,hc
dihedral_coeff	64 aat  -20.20060  110.77000  111.27000  # hc,c1,c3h,o3e
dihedral_coeff	65 aat  -12.56400  110.77000  110.77000  # hc,c3h,c3h,hc
dihedral_coeff	66 aat  -20.20060  110.77000  111.27000  # hc,c3h,c3h,o3e
dihedral_coeff	67 aat  -14.04840  111.27000  111.27000  # oc,c1,c1,oc
dihedral_coeff	68 aat  -14.04840  111.27000  111.27000  # oc,c1,c1,oh

# BondBond13 Coeffs

dihedral_coeff	 1 bb13    0.00000    1.53000    1.53000  # c,c,c1,c1
dihedral_coeff	 2 bb13    0.00000    1.53000    1.10100  # c,c,c1,hc
dihedral_coeff	 3 bb13    0.00000    1.53000    1.42000  # c,c,c1,oc
dihedral_coeff	 4 bb13    0.00000    1.53000    1.53000  # c,c1,c,c1
dihedral_coeff	 5 bb13    0.00000    1.53000    1.10100  # c,c1,c,hc
dihedral_coeff	 6 bb13    0.00000    1.53000    1.53000  # c,c1,c1,c
dihedral_coeff	 7 bb13    0.00000    1.53000    1.53000  # c,c1,c1,c1
dihedral_coeff	 8 bb13    0.00000    1.53000    1.53000  # c,c1,c1,c3h
dihedral_coeff	 9 bb13    0.00000    1.53000    1.10100  # c,c1,c1,hc
dihedral_coeff	10 bb13    0.00000    1.53000    1.42000  # c,c1,c1,o3e
dihedral_coeff	11 bb13    0.00000    1.53000    1.42000  # c,c1,c1,oc
dihedral_coeff	12 bb13    0.00000    1.53000    1.42000  # c,c1,c1,oh
dihedral_coeff	13 bb13    0.00000    1.53000    1.42000  # c,c1,o3e,c1
dihedral_coeff	14 bb13    0.00000    1.53000    1.42000  # c,c1,oc,c1
dihedral_coeff	15 bb13    0.00000    1.53000    1.53000  # c,c3h,c3h,c1
dihedral_coeff	16 bb13    0.00000    1.53000    1.10100  # c,c3h,c3h,hc
dihedral_coeff	17 bb13    0.00000    1.53000    1.42000  # c,c3h,c3h,o3e
dihedral_coeff	18 bb13    0.00000    1.53000    1.42000  # c,c3h,o3e,c3h
dihedral_coeff	19 bb13    0.00000    1.53000    1.53000  # c1,c,c,c1
dihedral_coeff	20 bb13    0.00000    1.53000    1.10100  # c1,c,c,hc
dihedral_coeff	21 bb13    0.00000    1.53000    1.53000  # c1,c,c1,c1
dihedral_coeff	22 bb13    0.00000    1.53000    1.10100  # c1,c,c1,hc
dihedral_coeff	23 bb13    0.00000    1.53000    1.42000  # c1,c,c1,o3e
dihedral_coeff	24 bb13    0.00000    1.53000    1.42000  # c1,c,c1,oc
dihedral_coeff	25 bb13    0.00000    1.53000    1.53000  # c1,c,c3h,c3h
dihedral_coeff	26 bb13    0.00000    1.53000    1.10100  # c1,c,c3h,hc
dihedral_coeff	27 bb13    0.00000    1.53000    1.42000  # c1,c,c3h,o3e
dihedral_coeff	28 bb13    0.00000    1.53000    1.53000  # c1,c1,c,c3h
dihedral_coeff	29 bb13    0.00000    1.53000    1.10100  # c1,c1,c,hc
dihedral_coeff	30 bb13    0.00000    1.53000    1.53000  # c1,c1,c1,c1
dihedral_coeff	31 bb13    0.00000    1.53000    1.53000  # c1,c1,c1,c3h
dihedral_coeff	32 bb13    0.00000    1.53000    1.10100  # c1,c1,c1,hc
dihedral_coeff	33 bb13    0.00000    1.53000    1.42000  # c1,c1,c1,o3e
dihedral_coeff	34 bb13    0.00000    1.53000    1.42000  # c1,c1,c1,oc
dihedral_coeff	35 bb13    0.00000    1.53000    1.42000  # c1,c1,c1,oh
dihedral_coeff	36 bb13    0.00000    1.53000    1.53000  # c1,c1,c3h,c3h
dihedral_coeff	37 bb13    0.00000    1.53000    1.10100  # c1,c1,c3h,hc
dihedral_coeff	38 bb13    0.00000    1.53000    1.42000  # c1,c1,c3h,o3e
dihedral_coeff	39 bb13    0.00000    1.53000    1.42000  # c1,c1,o3e,c1
dihedral_coeff	40 bb13    0.00000    1.53000    1.42000  # c1,c1,oc,c1
dihedral_coeff	41 bb13    0.00000    1.53000    0.96000  # c1,c1,oh,h
dihedral_coeff	42 bb13    0.00000    1.53000    1.10100  # c1,c3h,c3h,hc
dihedral_coeff	43 bb13    0.00000    1.53000    1.42000  # c1,c3h,c3h,o3e
dihedral_coeff	44 bb13    0.00000    1.53000    1.42000  # c1,c3h,o3e,c3h
dihedral_coeff	45 bb13    0.00000    1.42000    1.10100  # c1,o3e,c1,hc
dihedral_coeff	46 bb13    0.00000    1.42000    1.10100  # c1,oc,c1,hc
dihedral_coeff	47 bb13    0.00000    1.53000    1.10100  # c3h,c,c1,hc
dihedral_coeff	48 bb13    0.00000    1.53000    1.10100  # c3h,c1,c1,hc
dihedral_coeff	49 bb13    0.00000    1.53000    1.10100  # c3h,c3h,c,hc
dihedral_coeff	50 bb13    0.00000    1.53000    1.10100  # c3h,c3h,c1,hc
dihedral_coeff	51 bb13    0.00000    1.42000    1.10100  # c3h,o3e,c3h,hc
dihedral_coeff	52 bb13    0.00000    0.96000    1.10100  # h,oh,c1,hc
dihedral_coeff	53 bb13    0.00000    1.10100    1.10100  # hc,c,c,hc
dihedral_coeff	54 bb13    0.00000    1.10100    1.10100  # hc,c,c1,hc
dihedral_coeff	55 bb13    0.00000    1.10100    1.42000  # hc,c,c1,o3e
dihedral_coeff	56 bb13    0.00000    1.10100    1.42000  # hc,c,c1,oc
dihedral_coeff	57 bb13    0.00000    1.10100    1.10100  # hc,c,c3h,hc
dihedral_coeff	58 bb13    0.00000    1.10100    1.42000  # hc,c,c3h,o3e
dihedral_coeff	59 bb13    0.00000    1.10100    1.10100  # hc,c1,c1,hc
dihedral_coeff	60 bb13    0.00000    1.10100    1.42000  # hc,c1,c1,o3e
dihedral_coeff	61 bb13    0.00000    1.10100    1.42000  # hc,c1,c1,oc
dihedral_coeff	62 bb13    0.00000    1.10100    1.42000  # hc,c1,c1,oh
dihedral_coeff	63 bb13    0.00000    1.10100    1.10100  # hc,c1,c3h,hc
dihedral_coeff	64 bb13    0.00000    1.10100    1.42000  # hc,c1,c3h,o3e
dihedral_coeff	65 bb13    0.00000    1.10100    1.10100  # hc,c3h,c3h,hc
dihedral_coeff	66 bb13    0.00000    1.10100    1.42000  # hc,c3h,c3h,o3e
dihedral_coeff	67 bb13    0.00000    1.42000    1.42000  # oc,c1,c1,oc
dihedral_coeff	68 bb13    0.00000    1.42000    1.42000  # oc,c1,c1,oh

# Improper Coeffs

improper_coeff	 1    0.00000    0.00000  # c,c,c1,hc
improper_coeff	 2    0.00000    0.00000  # c,c,hc,c1
improper_coeff	 3    0.00000    0.00000  # c,c,hc,hc
improper_coeff	 4    0.00000    0.00000  # c,c1,c1,hc
improper_coeff	 5    0.00000    0.00000  # c,c1,hc,c3h
improper_coeff	 6    0.00000    0.00000  # c,c1,hc,hc
improper_coeff	 7    0.00000    0.00000  # c,c3h,hc,hc
improper_coeff	 8    0.00000    0.00000  # c1,c,c,c1
improper_coeff	 9    0.00000    0.00000  # c1,c,c,hc
improper_coeff	10    0.00000    0.00000  # c1,c,c1,c1
improper_coeff	11    0.00000    0.00000  # c1,c,c1,hc
improper_coeff	12    0.00000    0.00000  # c1,c,c1,oc
improper_coeff	13    0.00000    0.00000  # c1,c,hc,c1
improper_coeff	14    0.00000    0.00000  # c1,c,hc,oc
improper_coeff	15    0.00000    0.00000  # c1,c,o3e,c1
improper_coeff	16    0.00000    0.00000  # c1,c,o3e,hc
improper_coeff	17    0.00000    0.00000  # c1,c,oc,c1
improper_coeff	18    0.00000    0.00000  # c1,c,oc,hc
improper_coeff	19    0.00000    0.00000  # c1,c1,c1,c1
improper_coeff	20    0.00000    0.00000  # c1,c1,c1,c3h
improper_coeff	21    0.00000    0.00000  # c1,c1,c1,hc
improper_coeff	22    0.00000    0.00000  # c1,c1,c1,o3e
improper_coeff	23    0.00000    0.00000  # c1,c1,c1,oc
improper_coeff	24    0.00000    0.00000  # c1,c1,c1,oh
improper_coeff	25    0.00000    0.00000  # c1,c1,c3h,hc
improper_coeff	26    0.00000    0.00000  # c1,c1,hc,c3h
improper_coeff	27    0.00000    0.00000  # c1,c1,hc,o3e
improper_coeff	28    0.00000    0.00000  # c1,c1,hc,oc
improper_coeff	29    0.00000    0.00000  # c1,c1,hc,oh
improper_coeff	30    0.00000    0.00000  # c1,c1,o3e,hc
improper_coeff	31    0.00000    0.00000  # c1,c1,oc,hc
improper_coeff	32    0.00000    0.00000  # c3h,c,hc,c3h
improper_coeff	33    0.00000    0.00000  # c3h,c,o3e,c3h
improper_coeff	34    0.00000    0.00000  # c3h,c,o3e,hc
improper_coeff	35    0.00000    0.00000  # c3h,c1,c3h,hc
improper_coeff	36    0.00000    0.00000  # c3h,c1,c3h,o3e
improper_coeff	37    0.00000    0.00000  # c3h,c1,o3e,hc
improper_coeff	38    0.00000    0.00000  # c3h,c3h,o3e,hc

# AngleAngle Coeffs

improper_coeff	 1 aa    0.00000   -1.31990    0.00000  112.67000  110.77000  110.77000  # c,c,c1,hc
improper_coeff	 2 aa    0.00000   -1.31990    0.00000  110.77000  112.67000  110.77000  # c,c,hc,c1
improper_coeff	 3 aa    0.00000   -0.48250    0.00000  110.77000  110.77000  107.66000  # c,c,hc,hc
improper_coeff	 4 aa   -1.31990   -1.31990    0.11840  112.67000  110.77000  110.77000  # c,c1,c1,hc
improper_coeff	 5 aa    0.11840    0.00000   -1.31990  110.77000  112.67000  110.77000  # c,c1,hc,c3h
improper_coeff	 6 aa    0.27380   -0.48250    0.27380  110.77000  110.77000  107.66000  # c,c1,hc,hc
improper_coeff	 7 aa    0.00000   -0.48250    0.00000  110.77000  110.77000  107.66000  # c,c3h,hc,hc
improper_coeff	 8 aa    0.00000    0.00000   -0.17290  112.67000  112.67000  112.67000  # c1,c,c,c1
improper_coeff	 9 aa    0.00000    0.00000    0.11840  112.67000  110.77000  110.77000  # c1,c,c,hc
improper_coeff	10 aa    0.00000   -0.17290    0.00000  112.67000  112.67000  112.67000  # c1,c,c1,c1
improper_coeff	11 aa    0.00000   -1.31990    0.00000  112.67000  110.77000  110.77000  # c1,c,c1,hc
improper_coeff	12 aa    0.00000   -0.83300    0.00000  112.67000  111.27000  111.27000  # c1,c,c1,oc
improper_coeff	13 aa    0.00000   -1.31990    0.00000  110.77000  112.67000  110.77000  # c1,c,hc,c1
improper_coeff	14 aa    0.00000    2.59260    0.00000  110.77000  111.27000  108.72800  # c1,c,hc,oc
improper_coeff	15 aa    0.00000   -0.83300   -0.83300  111.27000  112.67000  111.27000  # c1,c,o3e,c1
improper_coeff	16 aa    0.00000    2.59260    3.91770  111.27000  110.77000  108.72800  # c1,c,o3e,hc
improper_coeff	17 aa    0.00000   -0.83300    0.00000  111.27000  112.67000  111.27000  # c1,c,oc,c1
improper_coeff	18 aa    0.00000    2.59260    0.00000  111.27000  110.77000  108.72800  # c1,c,oc,hc
improper_coeff	19 aa   -0.17290   -0.17290   -0.17290  112.67000  112.67000  112.67000  # c1,c1,c1,c1
improper_coeff	20 aa   -0.17290   -0.17290   -0.17290  112.67000  112.67000  112.67000  # c1,c1,c1,c3h
improper_coeff	21 aa   -1.31990   -1.31990    0.11840  112.67000  110.77000  110.77000  # c1,c1,c1,hc
improper_coeff	22 aa   -0.83300   -0.83300   -3.57440  112.67000  111.27000  111.27000  # c1,c1,c1,o3e
improper_coeff	23 aa   -0.83300   -0.83300   -3.57440  112.67000  111.27000  111.27000  # c1,c1,c1,oc
improper_coeff	24 aa    0.00000    0.00000   -3.57440  112.67000  111.27000  111.27000  # c1,c1,c1,oh
improper_coeff	25 aa   -1.31990    0.00000    0.11840  112.67000  110.77000  110.77000  # c1,c1,c3h,hc
improper_coeff	26 aa    0.11840    0.00000   -1.31990  110.77000  112.67000  110.77000  # c1,c1,hc,c3h
improper_coeff	27 aa    3.91770    2.59260    0.16890  110.77000  111.27000  108.72800  # c1,c1,hc,o3e
improper_coeff	28 aa    3.91770    2.59260    0.16890  110.77000  111.27000  108.72800  # c1,c1,hc,oc
improper_coeff	29 aa    0.00000    0.00000    0.16890  110.77000  111.27000  108.72800  # c1,c1,hc,oh
improper_coeff	30 aa    0.16890    2.59260    3.91770  111.27000  110.77000  108.72800  # c1,c1,o3e,hc
improper_coeff	31 aa    0.16890    2.59260    3.91770  111.27000  110.77000  108.72800  # c1,c1,oc,hc
improper_coeff	32 aa    0.11840    0.00000    0.00000  110.77000  112.67000  110.77000  # c3h,c,hc,c3h
improper_coeff	33 aa   -3.57440    0.00000   -0.83300  111.27000  112.67000  111.27000  # c3h,c,o3e,c3h
improper_coeff	34 aa    0.00000    2.59260    3.91770  111.27000  110.77000  108.72800  # c3h,c,o3e,hc
improper_coeff	35 aa   -1.31990    0.00000    0.11840  112.67000  110.77000  110.77000  # c3h,c1,c3h,hc
improper_coeff	36 aa   -0.83300    0.00000   -3.57440  112.67000  111.27000  111.27000  # c3h,c1,c3h,o3e
improper_coeff	37 aa    0.16890    2.59260    3.91770  111.27000  110.77000  108.72800  # c3h,c1,o3e,hc
improper_coeff	38 aa    0.00000    2.59260    0.00000  111.27000  110.77000  108.72800  # c3h,c3h,o3e,hc

# ------------------------------- OPT Section -------------------------------
minimize 1.0e-5 1.0e-7 100000 400000
Generated 28 of 28 mixed pair_coeff terms from sixthpower/geometric mixing rule
Neighbor list info ...
  update: every = 1 steps, delay = 0 steps, check = yes
  max neighbors/atom: 2000, page size: 100000
  master list distance cutoff = 12
  ghost atom cutoff = 12
  binsize = 6, bins = 16 16 16
  1 neighbor lists, perpetual/occasional/extra = 1 0 0
  (1) pair lj/class2/coul/cut, perpetual
      attributes: half, newton on
      pair build: half/bin/newton
      stencil: half/bin/3d
      bin: standard
Per MPI rank memory allocation (min/avg/max) = 28.57 | 28.7 | 29.35 Mbytes
   Step          Temp          E_pair         E_mol          TotEng         Press     
         0   0             -9.1733642      543.3191       534.14573      8.1673915    
        52   0             -15.043027      472.21025      457.16722      0.21636667   
Loop time of 0.0335052 on 6 procs for 52 steps with 74 atoms

98.8% CPU use with 6 MPI tasks x no OpenMP threads

Minimization stats:
  Stopping criterion = linesearch alpha is zero
  Energy initial, next-to-last, final = 
      534.145733305458   457.167220255666   457.167220255666
  Force two-norm initial, final = 304.36233 13.869782
  Force max component initial, final = 74.686836 4.2525152
  Final line search alpha, max atom move = 4.0447815e-11 1.7200495e-10
  Iterations, force evaluations = 52 157

MPI task timing breakdown:
Section |  min time  |  avg time  |  max time  |%varavg| %total
---------------------------------------------------------------
Pair    | 9.376e-06  | 0.00048751 | 0.0028737  |   0.0 |  1.46
Bond    | 2.2995e-05 | 0.0044973  | 0.026852   |  14.9 | 13.42
Neigh   | 0          | 0          | 0          |   0.0 |  0.00
Comm    | 2.2272e-05 | 0.010532   | 0.031361   |  14.0 | 31.43
Output  | 0          | 0          | 0          |   0.0 |  0.00
Modify  | 0          | 0          | 0          |   0.0 |  0.00
Other   |            | 0.01799    |            |       | 53.69

Nlocal:        12.3333 ave          74 max           0 min
Histogram: 5 0 0 0 0 0 0 0 0 1
Nghost:        51.3333 ave          98 max           0 min
Histogram: 2 0 1 0 0 0 0 0 0 3
Neighs:            164 ave         984 max           0 min
Histogram: 5 0 0 0 0 0 0 0 0 1

Total # of neighbors = 984
Ave neighs/atom = 13.297297
Ave special neighs/atom = 13.972973
Neighbor list builds = 0
Dangerous builds = 0
# ------------------------------- Run Section -------------------------------
#

thermo_style custom step temp pe evdwl ecoul ebond eangle edihed eimp density vol
thermo          100

fix Langevin  all langevin 300 300 100.0 482432
fix moveLimit all nve/limit 0.1
run 20000
Generated 28 of 28 mixed pair_coeff terms from sixthpower/geometric mixing rule
Per MPI rank memory allocation (min/avg/max) = 27.45 | 27.58 | 28.23 Mbytes
   Step          Temp          PotEng         E_vdwl         E_coul         E_bond        E_angle        E_dihed        E_impro        Density         Volume    
        52   0              457.16722      1.899182      -16.942209      7.4630059      594.20812     -124.25412     -5.2067668      0.00099999998  821358.63    
       100   121.04249      477.98378      1.1413388     -15.981181      16.971951      603.8195      -122.44931     -5.5185181      0.00099999998  821358.63    
       200   228.72625      509.70633      2.2692599     -16.898428      25.685384      618.24618     -114.79821     -4.79785        0.00099999998  821358.63    
       300   289.24441      515.07392      3.3517578     -18.146539      36.420968      613.82877     -116.33987     -4.0411603      0.00099999998  821358.63    
       400   267.29396      518.52219     -0.6102653     -15.168992      37.953824      615.3475      -115.27509     -3.7247894      0.00099999998  821358.63    
       500   327.97632      519.11978      0.98937887    -16.664615      33.792281      617.80524     -112.08091     -4.7215958      0.00099999998  821358.63    
       600   331.21842      520.48018      1.1414979     -16.888506      31.983234      626.28197     -116.98605     -5.0519627      0.00099999998  821358.63    
       700   379.68471      510.7669      -0.65017879    -17.600518      36.827948      618.38031     -120.97682     -5.2138338      0.00099999998  821358.63    
       800   304.98193      515.65129      1.3654945     -13.70306       33.505805      614.00356     -114.85499     -4.6655247      0.00099999998  821358.63    
       900   283.4382       521.93388      0.94020529    -14.298286      35.15436       628.00208     -120.72669     -7.1377967      0.00099999998  821358.63    
      1000   295.76218      517.05119     -0.60375833    -14.647501      40.914288      618.37695     -122.0295      -4.959289       0.00099999998  821358.63    
      1100   306.10641      511.98748      1.4797196     -14.670128      30.865784      628.87197     -129.00258     -5.5572811      0.00099999998  821358.63    
      1200   309.56772      514.95223      2.4147373     -15.31996       33.883341      617.28333     -119.35632     -3.9529027      0.00099999998  821358.63    
      1300   301.16623      517.34932      1.4366037     -16.661424      30.235191      628.20525     -120.5624      -5.3038951      0.00099999998  821358.63    
      1400   294.30441      527.98028      2.3234434     -13.21158       39.18249       619.08122     -114.40954     -4.9857606      0.00099999998  821358.63    
      1500   318.39576      509.253        0.29434082    -13.004489      26.959721      616.88675     -117.22459     -4.6587269      0.00099999998  821358.63    
      1600   334.84122      527.72115     -1.0817344     -13.019527      39.186808      639.89922     -132.72221     -4.5414104      0.00099999998  821358.63    
      1700   333.82256      527.12486      2.2662481     -13.975906      34.906422      634.52637     -124.54213     -6.0561444      0.00099999998  821358.63    
      1800   276.72967      523.07001      1.9529581     -15.593865      29.59195       622.78039     -111.79577     -3.8656552      0.00099999998  821358.63    
      1900   289.93541      517.87056      0.74696657    -15.056742      40.781168      614.68282     -118.39753     -4.8861273      0.00099999998  821358.63    
      2000   252.70978      515.83657     -0.7451545     -15.815929      30.195814      644.76433     -137.01322     -5.549271       0.00099999998  821358.63    
      2100   274.30733      522.00973      1.2469725     -16.194257      40.529683      623.33186     -122.36862     -4.5359027      0.00099999998  821358.63    
      2200   303.02148      517.92323      5.9753786     -15.432215      29.992676      621.42353     -119.82632     -4.2098198      0.00099999998  821358.63    
      2300   304.99233      528.70399      0.96495915    -15.602195      33.287882      623.64735     -110.13628     -3.4577298      0.00099999998  821358.63    
      2400   327.1309       518.5944       0.57323051    -15.377302      33.354404      621.62502     -117.54678     -4.0341682      0.00099999998  821358.63    
      2500   291.80521      537.27688      1.0710679     -17.196648      32.968027      655.12419     -129.86018     -4.8295785      0.00099999998  821358.63    
      2600   359.02653      523.70585     -0.6833365     -16.023079      31.884921      617.84111     -106.84248     -2.4712883      0.00099999998  821358.63    
      2700   314.50856      517.82284      2.1210796     -16.530204      35.468111      626.08427     -124.73984     -4.5805764      0.00099999998  821358.63    
      2800   312.15083      529.11631     -1.2939039     -17.039991      41.369013      625.31946     -114.03888     -5.1993901      0.00099999998  821358.63    
      2900   252.19908      510.06804      0.41451078    -14.875236      31.358498      613.74719     -116.43399     -4.142928       0.00099999998  821358.63    
      3000   271.00427      517.83183      4.2726928     -16.725041      37.46494       624.57637     -126.44047     -5.3166638      0.00099999998  821358.63    
      3100   310.01029      509.19348     -0.69637407    -16.976735      35.800564      619.83118     -123.65606     -5.1090886      0.00099999998  821358.63    
      3200   278.44929      529.00935      1.5192179     -16.891408      37.792232      632.71939     -120.72602     -5.4040644      0.00099999998  821358.63    
      3300   299.53533      525.58065      0.38362573    -16.95093       35.946806      620.39587     -110.95218     -3.2425502      0.00099999998  821358.63    
      3400   301.28456      522.19754      4.7360235     -15.747828      37.40658       620.97103     -117.14736     -8.0209114      0.00099999998  821358.63    
      3500   311.43271      519.66199      1.3781311     -16.807892      35.661179      621.9036      -118.5552      -3.9178285      0.00099999998  821358.63    
      3600   286.85145      527.84578      0.2493288     -14.76426       37.463366      617.51436     -108.82818     -3.788834       0.00099999998  821358.63    
      3700   319.01187      521.82094      3.8995281     -15.757812      33.002493      624.84462     -118.54898     -5.6189101      0.00099999998  821358.63    
      3800   224.38174      520.96525      0.36308157    -14.129275      33.327651      621.0518      -115.01756     -4.6304474      0.00099999998  821358.63    
      3900   284.36772      519.73752     -1.5073122     -14.676243      40.88237       621.6003      -121.8863      -4.6752961      0.00099999998  821358.63    
      4000   267.80043      517.78002     -0.01569079    -16.936793      27.165775      632.3073      -120.22045     -4.5201275      0.00099999998  821358.63    
      4100   319.61797      511.32413     -1.219625      -15.159756      33.771379      627.37292     -127.43942     -6.0013741      0.00099999998  821358.63    
      4200   302.27969      526.90124      3.1382156     -16.267897      33.878647      625.95091     -114.66424     -5.1343952      0.00099999998  821358.63    
      4300   264.08221      525.66928      2.2195736     -17.196907      37.654239      627.6051      -120.76654     -3.8461762      0.00099999998  821358.63    
      4400   267.87217      520.82997      1.141078      -15.669157      40.931565      613.45338     -114.82317     -4.2037232      0.00099999998  821358.63    
      4500   312.45282      518.53093     -1.4076672     -15.3659        29.193808      625.5635      -115.47615     -3.9766659      0.00099999998  821358.63    
      4600   365.35954      526.17717      1.2010061     -14.892729      48.436113      608.56667     -113.09779     -4.0361043      0.00099999998  821358.63    
      4700   364.284        517.94964      1.6598051     -17.220576      32.265147      621.58519     -114.67898     -5.6609421      0.00099999998  821358.63    
      4800   291.13212      526.85453      4.6320671     -15.535702      32.38453       630.81566     -120.72526     -4.7167569      0.00099999998  821358.63    
      4900   312.57592      507.77126      6.2845289     -17.703098      31.569743      613.70483     -120.83879     -5.2459468      0.00099999998  821358.63    
      5000   310.88687      517.21286      3.438279      -14.756217      32.1684        623.07285     -121.97771     -4.7327363      0.00099999998  821358.63    
      5100   345.90559      519.51861      3.3917393     -17.254744      36.226362      627.14095     -124.19054     -5.7951588      0.00099999998  821358.63    
      5200   310.82264      516.0946       2.672445      -16.785743      27.617021      619.79646     -112.24981     -4.9557646      0.00099999998  821358.63    
      5300   290.04698      512.35256      4.092081      -17.418423      33.175126      618.21985     -120.34503     -5.3710393      0.00099999998  821358.63    
      5400   294.6023       525.61583      2.5887852     -16.405607      38.372772      627.19031     -120.62158     -5.508858       0.00099999998  821358.63    
      5500   279.61188      521.15305      2.9688718     -15.645446      38.34781       612.81519     -112.66579     -4.6675864      0.00099999998  821358.63    
      5600   280.00167      514.57676      1.6887913     -15.615362      28.400435      621.76019     -116.30404     -5.3532503      0.00099999998  821358.63    
      5700   270.46215      516.39926      3.5088988     -16.16874       26.169475      627.57762     -118.6441      -6.0438935      0.00099999998  821358.63    
      5800   323.21383      513.57568      0.15422136    -15.270573      32.617021      616.2188      -116.32229     -3.8214945      0.00099999998  821358.63    
      5900   288.30463      517.51106      3.2917556     -16.25328       41.328176      608.12339     -114.1562      -4.8227793      0.00099999998  821358.63    
      6000   294.61933      515.24317      2.1867388     -14.237989      31.010222      612.43732     -109.99552     -6.1576023      0.00099999998  821358.63    
      6100   367.37148      520.41716      2.0249054     -16.112494      31.07431       624.76848     -116.10814     -5.2298975      0.00099999998  821358.63    
      6200   298.23885      519.58564      5.8384437     -15.282687      35.152782      612.26048     -113.6613      -4.7220878      0.00099999998  821358.63    
      6300   283.30262      514.50943      1.4084168     -14.778274      31.259181      616.96234     -115.09753     -5.2447018      0.00099999998  821358.63    
      6400   284.17737      504.08072      4.1507356     -16.61571       29.272501      605.23333     -113.30939     -4.6507493      0.00099999998  821358.63    
      6500   264.44506      513.17708      0.55732415    -14.919747      31.095937      599.55174     -98.15011      -4.9580654      0.00099999998  821358.63    
      6600   335.24589      503.54454      2.0302847     -17.113523      31.734201      599.6604      -107.9479      -4.8189279      0.00099999998  821358.63    
      6700   313.28781      510.17568      6.2234007     -16.74629       33.36755       584.79611     -92.736441     -4.7286514      0.00099999998  821358.63    
      6800   293.12501      511.77409      0.90192036    -15.762251      37.488394      608.89767     -115.63141     -4.1202431      0.00099999998  821358.63    
      6900   329.95434      511.16508      2.244866      -16.445167      40.653273      603.15377     -112.353       -6.0886573      0.00099999998  821358.63    
      7000   320.67699      501.39729      2.1892871     -16.502462      31.518119      592.76023     -103.07778     -5.4900994      0.00099999998  821358.63    
      7100   289.73241      500.44579      1.5275178     -16.875096      32.475233      602.52699     -113.83254     -5.3763141      0.00099999998  821358.63    
      7200   327.13325      506.07793      2.5087413     -15.83361       35.279693      611.5866      -121.43217     -6.0313326      0.00099999998  821358.63    
      7300   262.45166      506.64644      2.0809343     -17.302288      30.014395      593.03597     -99.268559     -1.9140153      0.00099999998  821358.63    
      7400   317.39847      503.20725      1.4478685     -17.549568      34.757436      602.84659     -112.96404     -5.3310326      0.00099999998  821358.63    
      7500   364.02553      501.68124      3.1775889     -15.33993       31.132142      589.68751     -102.13412     -4.841946       0.00099999998  821358.63    
      7600   266.04362      505.4338       1.2812464     -15.153132      36.902918      599.20319     -112.70746     -4.0929628      0.00099999998  821358.63    
      7700   253.94216      509.83075      2.9982019     -15.051705      30.742771      610.22191     -113.31643     -5.7640029      0.00099999998  821358.63    
      7800   258.25387      506.85042     -1.0854688     -14.76467       30.568637      610.19045     -113.14585     -4.9126699      0.00099999998  821358.63    
      7900   253.79472      508.22729      4.5644107     -13.813723      32.924492      604.23281     -114.35162     -5.3290766      0.00099999998  821358.63    
      8000   268.34937      509.64572      0.99126148    -16.193452      35.714251      600.26537     -106.34429     -4.7874294      0.00099999998  821358.63    
      8100   366.89849      510.56629     -2.5104136     -17.289119      39.580125      604.00548     -108.89829     -4.3214919      0.00099999998  821358.63    
      8200   304.12393      515.83664     -0.65506737    -15.842869      35.139891      607.217       -103.90062     -6.1217014      0.00099999998  821358.63    
      8300   337.07831      506.56162     -1.8944609     -15.877892      31.287982      604.20404     -107.57138     -3.586676       0.00099999998  821358.63    
      8400   294.51594      509.75426      4.3678566     -14.827939      36.757032      596.15445     -107.67802     -5.0191276      0.00099999998  821358.63    
      8500   313.56329      511.98109      2.8016855     -14.812781      39.534856      604.44856     -114.92927     -5.061966       0.00099999998  821358.63    
      8600   283.14738      502.6362      -2.5532582     -14.941166      32.235982      595.67632     -104.00073     -3.7809425      0.00099999998  821358.63    
      8700   255.97719      511.42145      2.3773252     -14.224022      26.865294      616.57091     -113.34412     -6.8239401      0.00099999998  821358.63    
      8800   308.41732      498.67218      0.82385642    -14.406859      27.08021       587.06806     -98.180961     -3.7121318      0.00099999998  821358.63    
      8900   287.67188      495.01597     -0.60934904    -15.583817      31.703084      593.0773      -109.57048     -4.0007734      0.00099999998  821358.63    
      9000   333.23413      504.56423     -0.022983375   -15.72338       30.932875      599.26863     -106.23748     -3.6534313      0.00099999998  821358.63    
      9100   294.65032      511.69261      1.2769446     -15.418927      38.291064      605.66663     -113.34005     -4.7830426      0.00099999998  821358.63    
      9200   304.73668      504.36535      1.0037514     -14.962257      33.691952      600.06824     -110.53777     -4.8985611      0.00099999998  821358.63    
      9300   278.31424      514.05989      2.4667203     -16.841179      34.696196      613.34759     -114.41321     -5.1962272      0.00099999998  821358.63    
      9400   292.2378       509.51825      0.73012304    -14.806633      41.795599      597.76158     -110.90485     -5.0575667      0.00099999998  821358.63    
      9500   312.89819      498.79463     -0.82906781    -15.721946      32.436559      597.67815     -109.21446     -5.5546124      0.00099999998  821358.63    
      9600   324.84123      509.16306      6.4863409     -15.299954      38.595497      598.81192     -114.25705     -5.1736939      0.00099999998  821358.63    
      9700   295.93768      511.34598      0.65349147    -16.605887      45.724658      593.4677      -106.35031     -5.5436749      0.00099999998  821358.63    
      9800   304.41999      503.12334      0.012031842   -16.186988      29.283958      601.77521     -106.08054     -5.6803237      0.00099999998  821358.63    
      9900   298.42123      504.36309      1.9352939     -15.524551      28.585088      596.23269     -102.15709     -4.7083374      0.00099999998  821358.63    
     10000   323.10054      504.25383      0.18941076    -16.686619      40.444123      597.93178     -112.95456     -4.6703117      0.00099999998  821358.63    
     10100   266.64703      508.5581       2.5353786     -15.008069      34.697952      597.14393     -105.42567     -5.3854225      0.00099999998  821358.63    
     10200   279.32049      504.23504      1.0561007     -17.047643      33.295092      604.97772     -111.82235     -6.2238882      0.00099999998  821358.63    
     10300   341.38217      514.65515      0.90611557    -17.481618      32.010934      624.15108     -119.97219     -4.9591774      0.00099999998  821358.63    
     10400   323.62421      505.74583      0.65482422    -16.074826      22.828055      601.55621     -97.616194     -5.6022392      0.00099999998  821358.63    
     10500   320.73948      512.4465       1.4955607     -16.646515      30.270757      607.6143      -106.85701     -3.4305903      0.00099999998  821358.63    
     10600   276.26548      504.03796     -0.86079697    -16.913399      43.603479      601.89341     -118.85966     -4.8250776      0.00099999998  821358.63    
     10700   288.27754      506.80374      2.5994364     -16.44805       29.864904      610.1444      -113.08932     -6.2676381      0.00099999998  821358.63    
     10800   287.9301       498.57416      2.7865674     -16.792362      34.04668       578.21985     -96.620622     -3.0659558      0.00099999998  821358.63    
     10900   296.62568      498.00433     -1.0898312     -16.085479      39.960799      586.04594     -105.55532     -5.2717842      0.00099999998  821358.63    
     11000   297.99051      504.54373     -1.1077852     -15.747479      33.412538      611.69457     -117.66148     -6.0466354      0.00099999998  821358.63    
     11100   266.27411      517.46422      5.7569066     -16.069258      34.990328      608.19085     -110.60669     -4.7979237      0.00099999998  821358.63    
     11200   366.03095      508.81299     -1.4350553     -15.539127      37.509871      607.79476     -113.88916     -5.6283013      0.00099999998  821358.63    
     11300   339.26687      502.11577      0.11043413    -15.113123      23.459258      607.43967     -109.04984     -4.7306239      0.00099999998  821358.63    
     11400   304.05451      516.56371      5.995011      -15.544554      36.875957      599.20802     -105.91055     -4.0601713      0.00099999998  821358.63    
     11500   300.89873      508.67595      2.0384625     -16.352003      36.311486      615.99759     -122.74222     -6.57737        0.00099999998  821358.63    
     11600   253.43217      511.50303      3.2494155     -15.954969      41.693869      601.86524     -114.15103     -5.1994992      0.00099999998  821358.63    
     11700   269.17129      504.99535      0.195373      -15.687035      31.297175      597.52453     -103.20789     -5.1268015      0.00099999998  821358.63    
     11800   363.5122       508.0402       1.4051796     -15.449306      40.816562      616.08792     -128.63818     -6.1819863      0.00099999998  821358.63    
     11900   331.69428      509.8639      -0.32750117    -16.842021      45.116585      603.1957      -115.78209     -5.4967693      0.00099999998  821358.63    
     12000   337.70948      508.07596      1.7527574     -15.635136      36.899446      591.98646     -102.44794     -4.4796206      0.00099999998  821358.63    
     12100   343.17387      510.60116      3.3409646     -16.29411       41.154887      606.68524     -118.194       -6.0918186      0.00099999998  821358.63    
     12200   276.68352      522.44452     -0.77346938    -15.085422      41.998361      605.77994     -106.46412     -3.0107779      0.00099999998  821358.63    
     12300   337.54551      516.63741      1.748584      -14.803521      37.092335      588.99675     -93.371354     -3.0253891      0.00099999998  821358.63    
     12400   301.76685      500.68538     -0.31682525    -15.215421      33.56616       594.5175      -107.08296     -4.7830678      0.00099999998  821358.63    
     12500   289.29987      507.99588      3.6171816     -15.910077      40.260639      600.23304     -116.24582     -3.9590914      0.00099999998  821358.63    
     12600   331.4587       518.1621       0.16623104    -15.975374      31.845255      607.94337     -101.69564     -4.1217506      0.00099999998  821358.63    
     12700   297.97124      506.62569      3.7783109     -15.59075       39.654517      599.41106     -115.26289     -5.364558       0.00099999998  821358.63    
     12800   288.34844      503.10347      1.9559216     -15.713778      34.323018      593.60458     -108.04157     -3.0247037      0.00099999998  821358.63    
     12900   294.77912      500.09472      5.301004      -16.411137      26.174627      587.19222     -97.614752     -4.5472407      0.00099999998  821358.63    
     13000   329.83177      505.46186      4.562295      -15.744951      33.74587       605.00636     -116.07368     -6.034035       0.00099999998  821358.63    
     13100   314.82285      512.05006     -0.83980692    -16.318079      34.682744      627.14475     -126.69501     -5.9245413      0.00099999998  821358.63    
     13200   302.46293      503.03128      2.801803      -16.370956      33.242979      601.26403     -113.14526     -4.7613173      0.00099999998  821358.63    
     13300   301.70979      505.52225      2.466186      -16.073994      22.888502      596.78258     -97.285515     -3.2555139      0.00099999998  821358.63    
     13400   303.89798      504.71033      3.5186964     -15.979776      41.8304        586.10772     -106.50672     -4.2599886      0.00099999998  821358.63    
     13500   276.82031      511.37967     -1.005935      -15.581253      32.714188      607.77703     -109.34685     -3.177518       0.00099999998  821358.63    
     13600   284.64036      504.32158      5.884297      -16.350249      34.007588      611.66519     -123.89102     -6.9942246      0.00099999998  821358.63    
     13700   266.91257      496.64857     -0.38402218    -15.667203      27.956462      592.0304      -103.16812     -4.1189454      0.00099999998  821358.63    
     13800   303.26861      507.10883      0.58895723    -15.708055      33.358263      617.10682     -122.41354     -5.823616       0.00099999998  821358.63    
     13900   256.71372      509.86717      3.9180031     -15.583096      32.019534      612.82597     -117.71771     -5.5955372      0.00099999998  821358.63    
     14000   292.4746       510.01801      1.1669177     -17.750899      33.332442      605.03239     -108.84315     -2.919692       0.00099999998  821358.63    
     14100   326.19143      510.80569      4.5199211     -16.537938      31.335445      611.21186     -113.24856     -6.475039       0.00099999998  821358.63    
     14200   298.2259       517.78091      1.3715171     -15.306494      35.103976      590.54197     -91.953892     -1.9761661      0.00099999998  821358.63    
     14300   295.96457      518.5097       0.092530207   -15.770358      33.623084      616.34428     -109.84098     -5.93886        0.00099999998  821358.63    
     14400   343.09915      505.78221      3.2163316     -14.900756      31.654968      597.37063     -107.71285     -3.8461136      0.00099999998  821358.63    
     14500   269.57483      500.47445     -0.74725671    -14.483489      32.936639      596.81547     -108.85962     -5.1872931      0.00099999998  821358.63    
     14600   285.82671      499.79556      0.87518121    -14.476323      33.429899      604.9021      -118.69935     -6.2359453      0.00099999998  821358.63    
     14700   266.37829      511.81818      2.2374046     -14.592718      28.142864      605.12258     -105.13481     -3.9571472      0.00099999998  821358.63    
     14800   297.03795      514.74316      4.3795634     -15.218418      32.610127      587.93827     -92.099346     -2.8670395      0.00099999998  821358.63    
     14900   335.69764      512.33905     -1.632707      -14.792404      42.817527      600.17336     -108.63861     -5.5881131      0.00099999998  821358.63    
     15000   309.77625      507.46931      1.5879504     -15.662912      34.125118      588.49144     -96.763726     -4.3085522      0.00099999998  821358.63    
     15100   284.28017      500.72376      0.50381242    -15.749184      30.651158      595.25415     -105.43469     -4.5014803      0.00099999998  821358.63    
     15200   275.12853      498.7818       3.4817327     -16.287281      40.250928      592.13231     -115.82169     -4.9741989      0.00099999998  821358.63    
     15300   281.37857      495.57627      2.9798486     -17.61891       32.972012      579.77846     -97.056411     -5.4787273      0.00099999998  821358.63    
     15400   300.11183      513.73595     -0.37813306    -17.488622      28.582329      612.11011     -106.03965     -3.0500929      0.00099999998  821358.63    
     15500   321.22663      503.16415      1.4942228     -17.424809      36.073141      601.50741     -112.75481     -5.7310061      0.00099999998  821358.63    
     15600   286.83258      503.20074      2.3240866     -15.986587      33.198215      590.54557     -103.05888     -3.8216727      0.00099999998  821358.63    
     15700   298.03337      505.39412     -1.6634059     -14.704207      32.918184      595.82789     -103.47316     -3.5111792      0.00099999998  821358.63    
     15800   382.07453      509.47307     -3.433497      -15.424001      43.842372      593.08875     -103.0296      -5.5709524      0.00099999998  821358.63    
     15900   350.56327      519.96349      5.2845248     -13.91849       39.624339      611.21705     -115.70205     -6.5418815      0.00099999998  821358.63    
     16000   278.3993       517.3462       0.10599477    -14.334866      34.422606      610.75033     -107.415       -6.1828672      0.00099999998  821358.63    
     16100   307.37894      514.35451      0.64351519    -15.390301      43.090987      593.5876      -102.88696     -4.6903332      0.00099999998  821358.63    
     16200   309.27174      511.86211      2.1053315     -15.460477      38.889146      604.7423      -113.23612     -5.1780659      0.00099999998  821358.63    
     16300   293.20253      516.56498      1.2417095     -16.156112      28.566805      604.15682     -97.120028     -4.1242174      0.00099999998  821358.63    
     16400   314.19933      511.07194     -0.12137817    -16.344464      34.098085      612.34692     -113.03961     -5.867609       0.00099999998  821358.63    
     16500   286.45647      513.1418       0.44957322    -16.265474      28.995148      628.49695     -123.20592     -5.3284769      0.00099999998  821358.63    
     16600   284.30955      506.74803      2.5954839     -17.638418      36.293409      594.10472     -103.70437     -4.9027872      0.00099999998  821358.63    
     16700   271.05269      508.49272      6.8714547     -17.17036       30.270745      617.34523     -122.21868     -6.6056708      0.00099999998  821358.63    
     16800   364.93767      495.43256      2.1997769     -15.971393      34.017379      597.84402     -116.3663      -6.2909225      0.00099999998  821358.63    
     16900   291.7941       515.68818     -2.3194524     -15.938288      43.069448      612.1069      -115.9709      -5.2595273      0.00099999998  821358.63    
     17000   235.32732      508.72752      0.32018893    -14.512525      37.308013      604.50319     -114.25074     -4.640606       0.00099999998  821358.63    
     17100   299.04544      504.07978     -0.93646938    -14.811758      32.392129      600.8738      -108.78079     -4.6571314      0.00099999998  821358.63    
     17200   288.08374      504.30356     -0.37485609    -15.611285      33.132828      595.65433     -104.05496     -4.4424978      0.00099999998  821358.63    
     17300   336.22775      510.52414      3.8236529     -16.218801      31.739414      593.20838     -98.793959     -3.2345435      0.00099999998  821358.63    
     17400   313.22853      506.78324      2.9168042     -15.570831      24.891109      611.43289     -110.55173     -6.3349981      0.00099999998  821358.63    
     17500   319.81417      504.01678     -1.3588953     -16.750899      33.874533      603.07104     -110.46047     -4.3585374      0.00099999998  821358.63    
     17600   266.09802      499.68984      1.1375341     -16.485193      34.370725      584.07474     -99.742543     -3.6654204      0.00099999998  821358.63    
     17700   270.18856      497.97983     -0.30113815    -16.501397      33.398433      592.35362     -107.1367      -3.8329993      0.00099999998  821358.63    
     17800   288.18779      501.09416     -0.56202042    -16.154239      23.6114        606.6717      -107.48452     -4.9881701      0.00099999998  821358.63    
     17900   320.77137      501.40474      3.4909651     -16.830496      30.289861      599.03448     -109.51633     -5.0637421      0.00099999998  821358.63    
     18000   286.0331       508.89766     -2.4269386     -15.925935      30.604781      609.75094     -108.76577     -4.3394233      0.00099999998  821358.63    
     18100   289.60889      512.57493      3.050463      -17.075029      40.094624      599.39723     -107.01839     -5.8739691      0.00099999998  821358.63    
     18200   383.89689      515.35087      1.4455228     -15.872585      40.18586       599.20686     -104.7828      -4.8319932      0.00099999998  821358.63    
     18300   331.18725      505.49195     -2.5234541     -17.847685      32.380925      601.08123     -103.91477     -3.6842916      0.00099999998  821358.63    
     18400   313.44197      504.32898      2.9633411     -17.961558      44.676798      587.41128     -108.40355     -4.3573358      0.00099999998  821358.63    
     18500   309.74324      509.69072      4.0566264     -16.131551      32.459809      596.40817     -100.18853     -6.9138048      0.00099999998  821358.63    
     18600   296.2838       505.04964      0.091655767   -17.556658      36.917548      610.21468     -118.54461     -6.072972       0.00099999998  821358.63    
     18700   308.78273      500.17345      0.72782838    -15.481564      32.406919      598.51875     -110.64559     -5.3528932      0.00099999998  821358.63    
     18800   267.99428      502.97013     -0.78086526    -14.604975      32.70951       600.61329     -108.82553     -6.141302       0.00099999998  821358.63    
     18900   281.77402      508.14598     -0.32365018    -16.976186      31.385393      607.47554     -108.05679     -5.3583271      0.00099999998  821358.63    
     19000   295.67187      506.7223      -1.0118435     -16.509563      27.830677      601.41767     -99.557068     -5.4475761      0.00099999998  821358.63    
     19100   384.05378      521.85728      0.31969704    -14.556819      44.704016      617.0784      -120.61257     -5.0754548      0.00099999998  821358.63    
     19200   352.746        508.37185      7.3139023     -15.219669      36.600696      604.0628      -117.25741     -7.1284726      0.00099999998  821358.63    
     19300   286.6729       514.88566      2.0403791     -15.012184      32.339159      605.87094     -105.45168     -4.9009558      0.00099999998  821358.63    
     19400   273.56561      507.58856      10.108125     -16.364544      25.482791      602.79806     -108.48948     -5.9463926      0.00099999998  821358.63    
     19500   295.92132      513.38656      1.9410866     -16.130224      44.242532      607.49194     -118.10345     -6.0553257      0.00099999998  821358.63    
     19600   325.1011       505.19434      4.7334971     -17.570082      38.616518      582.99917     -98.821045     -4.7637119      0.00099999998  821358.63    
     19700   307.17189      500.6346       3.3789103     -19.049771      33.112598      605.54733     -116.44314     -5.9113353      0.00099999998  821358.63    
     19800   258.48735      497.32684      1.7553669     -16.927763      29.677637      597.54861     -108.73044     -5.9965828      0.00099999998  821358.63    
     19900   282.97018      503.02561      3.5117554     -16.741429      30.609158      593.48131     -102.55743     -5.2777553      0.00099999998  821358.63    
     20000   323.69383      500.94865      5.4723737     -16.641998      41.415689      589.58366     -113.57404     -5.3070396      0.00099999998  821358.63    
     20052   268.86878      497.8625      -0.10715235    -16.263436      29.252067      599.86661     -110.39416     -4.4914312      0.00099999998  821358.63    
Loop time of 3.89662 on 6 procs for 20000 steps with 74 atoms

Performance: 443.461 ns/day, 0.054 hours/ns, 5132.650 timesteps/s, 379.816 katom-step/s
99.7% CPU use with 6 MPI tasks x no OpenMP threads

MPI task timing breakdown:
Section |  min time  |  avg time  |  max time  |%varavg| %total
---------------------------------------------------------------
Pair    | 0.00093397 | 0.037977   | 0.22275    |  42.4 |  0.97
Bond    | 0.0020755  | 0.54094    | 3.2319     | 163.6 | 13.88
Neigh   | 0.012645   | 0.013218   | 0.014069   |   0.5 |  0.34
Comm    | 0.0063351  | 1.2356     | 3.5882     | 148.1 | 31.71
Output  | 0.0069683  | 0.031892   | 0.052432   |  11.5 |  0.82
Modify  | 0.0029637  | 0.015568   | 0.077032   |  22.0 |  0.40
Other   |            | 2.021      |            |       | 51.88

Nlocal:        12.3333 ave          74 max           0 min
Histogram: 5 0 0 0 0 0 0 0 0 1
Nghost:        51.3333 ave          98 max           0 min
Histogram: 2 0 1 0 0 0 0 0 0 3
Neighs:            164 ave         984 max           0 min
Histogram: 5 0 0 0 0 0 0 0 0 1

Total # of neighbors = 984
Ave neighs/atom = 13.297297
Ave special neighs/atom = 13.972973
Neighbor list builds = 194
Dangerous builds = 0
unfix Langevin
unfix moveLimit



fix 		relax all npt temp 300.0 300.0 100 iso 1.0 1.0 1000
run 1000
Generated 28 of 28 mixed pair_coeff terms from sixthpower/geometric mixing rule
Per MPI rank memory allocation (min/avg/max) = 27.45 | 27.6 | 28.23 Mbytes
   Step          Temp          PotEng         E_vdwl         E_coul         E_bond        E_angle        E_dihed        E_impro        Density         Volume    
     20052   268.86878      497.8625      -0.10715235    -16.263436      29.252067      599.86661     -110.39416     -4.4914312      0.00099999998  821358.63    
     20100   249.47559      503.80994      4.378965      -15.906622      32.923938      594.44922     -107.51697     -4.5185894      0.0010012833   820305.93    
     20200   274.6901       510.54376      1.1961581     -16.093095      43.721736      600.96315     -113.8413      -5.4028888      0.0010067666   815838.14    
     20300   326.99207      505.21384      3.2273941     -16.949548      31.264266      614.67112     -120.22398     -6.7754094      0.0010205031   804856.59    
     20400   281.98939      513.11968     -1.0175252     -15.426954      39.261549      593.20942     -98.743093     -4.1637155      0.001035813    792960.29    
     20500   300.47595      503.59166      1.6127077     -16.016433      36.768133      599.26716     -113.09496     -4.944954       0.0010614306   773822.24    
     20600   226.64614      513.25178      2.2248605     -15.61158       33.571221      615.64246     -116.03825     -6.5369331      0.0010973189   748514.06    
     20700   263.38515      494.58035      0.31453101    -15.222455      35.333111      596.05285     -116.29791     -5.5997878      0.0011322698   725408.9     
     20800   269.0347       493.50913     -0.35277729    -14.742178      27.354335      594.8813      -108.93473     -4.6968148      0.0011823196   694701       
     20900   281.33905      506.99825     -0.18143531    -14.620835      33.072048      598.01907     -104.84892     -4.4416741      0.0012372125   663878.38    
     21000   317.86183      505.58585      3.7787509     -14.270952      34.918382      612.59427     -125.34908     -6.0855226      0.0012972066   633174.87    
     21052   314.33275      506.5825       0.93977565    -15.801345      34.073465      594.10379     -101.46863     -5.2645627      0.0013276583   618652.11    
Loop time of 0.211332 on 6 procs for 1000 steps with 74 atoms

Performance: 408.836 ns/day, 0.059 hours/ns, 4731.899 timesteps/s, 350.161 katom-step/s
99.7% CPU use with 6 MPI tasks x no OpenMP threads

MPI task timing breakdown:
Section |  min time  |  avg time  |  max time  |%varavg| %total
---------------------------------------------------------------
Pair    | 6.6531e-05 | 0.0020491  | 0.011223   |   9.1 |  0.97
Bond    | 0.00017661 | 0.028298   | 0.1687     |  37.3 | 13.39
Neigh   | 0.0013807  | 0.0014418  | 0.0015278  |   0.2 |  0.68
Comm    | 0.00047672 | 0.063422   | 0.18525    |  34.2 | 30.01
Output  | 0.00027793 | 0.00035299 | 0.00071125 |   0.0 |  0.17
Modify  | 0.020507   | 0.11259    | 0.20546    |  27.3 | 53.27
Other   |            | 0.003182   |            |       |  1.51

Nlocal:        12.3333 ave          70 max           0 min
Histogram: 5 0 0 0 0 0 0 0 0 1
Nghost:        52.6667 ave          97 max           0 min
Histogram: 2 0 1 0 0 0 0 0 0 3
Neighs:            164 ave         977 max           0 min
Histogram: 5 0 0 0 0 0 0 0 0 1

Total # of neighbors = 984
Ave neighs/atom = 13.297297
Ave special neighs/atom = 13.972973
Neighbor list builds = 23
Dangerous builds = 0
unfix relax


molecule 	pre cleaned_pre-mol
Read molecule template pre:
  1 molecules
  0 fragments
  32 atoms with max type 7
  34 bonds with max type 9
  69 angles with max type 33
  111 dihedrals with max type 61
  44 impropers with max type 30
molecule	post cleaned_post-mol
Read molecule template post:
  1 molecules
  0 fragments
  32 atoms with max type 7
  34 bonds with max type 9
  69 angles with max type 33
  114 dihedrals with max type 67
  44 impropers with max type 31

fix		fxrct all bond/react stabilization yes statted_grp .03 		 react rxn1 all 100 0.0 10.0 pre post semi.map stabilize_steps 2000 molecule inter
dynamic group bond_react_MASTER_group defined
dynamic group statted_grp_REACT defined
fix 		npt statted_grp_REACT npt temp 300.0 300.0 100 iso 1.0 1.0 1000
fix 		reacted bond_react_MASTER_group temp/rescale 1 300.0 300.0 1 1


thermo_style custom step temp pe evdwl ecoul ebond eangle edihed eimp density vol f_fxrct[1]
thermo          100


compute 1 all property/local btype batom1 batom2

compute 2 all stress/atom NULL
fix 5 all ave/atom 1 500 1000 c_2[*]

dump DumpPos all custom 1000 dump.pos id type x y z mol  f_5[*]
dump DumpBond all local 1000 bonds.dump index c_1[*]

run 10000

CITE-CITE-CITE-CITE-CITE-CITE-CITE-CITE-CITE-CITE-CITE-CITE-CITE

Your simulation uses code contributions which should be cited:

- fix bond/react: reacter.org doi:10.1016/j.polymer.2017.09.038, doi:10.1021/acs.macromol.0c02012

@Article{Gissinger17,
 author = {J. R. Gissinger and B. D. Jensen and K. E. Wise},
 title = {Modeling Chemical Reactions in Classical Molecular Dynamics Simulations},
 journal = {Polymer},
 year =    2017,
 volume =  128,
 pages =   {211--217}
}

@Article{Gissinger20,
 author = {J. R. Gissinger, B. D. Jensen, K. E. Wise},
 title = {{REACTER}: A Heuristic Method for Reactive Molecular Dynamics},
 journal = {Macromolecules},
 year =    2020,
 volume =  53,
 number =  22,
 pages =   {9953--9961}
}

CITE-CITE-CITE-CITE-CITE-CITE-CITE-CITE-CITE-CITE-CITE-CITE-CITE

Generated 28 of 28 mixed pair_coeff terms from sixthpower/geometric mixing rule
Neighbor list info ...
  update: every = 1 steps, delay = 0 steps, check = yes
  max neighbors/atom: 2000, page size: 100000
  master list distance cutoff = 12
  ghost atom cutoff = 12
  binsize = 6, bins = 15 15 15
  2 neighbor lists, perpetual/occasional/extra = 1 1 0
  (1) pair lj/class2/coul/cut, perpetual
      attributes: half, newton on
      pair build: half/bin/newton
      stencil: half/bin/3d
      bin: standard
  (2) fix bond/react, occasional, copy from (1)
      attributes: half, newton on
      pair build: copy
      stencil: none
      bin: none
Per MPI rank memory allocation (min/avg/max) = 32.32 | 32.6 | 33.44 Mbytes
   Step          Temp          PotEng         E_vdwl         E_coul         E_bond        E_angle        E_dihed        E_impro        Density         Volume       f_fxrct[1]  
     21052   314.33275      506.5825       0.93977565    -15.801345      34.073465      594.10379     -101.46863     -5.2645627      0.0013276583   618652.11      0            
     21100   302.84468      509.94902      3.12607       -14.639905      29.961808      591.60538     -97.13863      -2.9656979      0.0013320461   616614.24      0            
     21200   260.75676      514.85583      2.1103913     -14.662758      37.473298      611.53352     -115.56232     -6.0363029      0.0013486775   609010.4       0            
     21300   260.56845      500.38476      3.5995537     -15.866937      33.464347      596.70447     -113.21974     -4.296941       0.001374776    597449.04      0            
     21400   288.30839      491.99531      0.50987629    -15.210138      28.087269      581.75264     -99.13005      -4.0142895      0.0014063342   584042.27      0            
     21500   261.26455      509.73228      0.70636163    -16.29773       34.187306      601.30649     -105.93704     -4.2331012      0.0014484344   567066.49      0            
     21600   306.43383      507.30471      1.6778029     -15.302608      35.092057      604.53523     -113.90403     -4.7937383      0.0014956305   549172.13      0            
     21700   315.56727      504.69861     -2.5968902     -15.25393       30.732538      600.72801     -104.19844     -4.7126751      0.001555742    527952.96      0            
     21800   322.22979      498.18784      0.71532313    -16.902154      29.829273      592.00962     -103.46161     -4.0026148      0.00161522     508511.92      0            
     21900   258.69486      505.09572     -0.17849093    -15.933025      34.85812       599.58661     -108.92367     -4.3138312      0.0016793626   489089.48      0            
     22000   256.46593      500.11852     -1.3506523     -16.015817      33.477043      594.70925     -106.20902     -4.4922844      0.0017445228   470821.36      0            
     22100   303.9716       494.74318      5.6030353     -15.591934      30.985693      588.26108     -109.76128     -4.7534157      0.0018056706   454877.32      0            
     22200   333.86705      503.82003      2.1671664     -17.588755      36.584647      608.39979     -118.86716     -6.8756519      0.0018660167   440166.79      0            
     22300   320.95974      507.90638     -0.64775129    -14.360665      35.388519      605.36907     -113.45235     -4.390439       0.001914437    429034.03      0            
     22400   337.66562      497.32446      1.5583984     -15.018583      29.601522      597.0618      -111.20861     -4.6700638      0.0019663426   417708.81      0            
     22500   313.54924      489.90977      0.55217744    -18.14504       26.42255       601.55544     -114.5372      -5.9381554      0.0020098262   408671.46      0            
     22600   256.69267      497.32823     -0.46838948    -16.712817      31.334265      599.31261     -110.79936     -5.3380759      0.0020571409   399271.92      0            
     22700   280.50897      510.99067      4.8665156     -13.328248      36.140224      598.03522     -110.09002     -4.6330196      0.0021129858   388719.41      0            
     22800   280.32768      519.32664      1.3068983     -16.015531      47.245967      607.40731     -115.99288     -4.6251221      0.0021616682   379965.16      0            
     22900   306.02305      508.68513      2.5962363     -17.408202      34.340954      608.58869     -112.90602     -6.5265285      0.0022094358   371750.38      0            
     23000   286.08861      503.1384       1.2473485     -15.815372      32.043791      609.12851     -118.60539     -4.8604827      0.002244175    365995.8       0            
     23100   252.14019      505.54922      0.37249493    -15.851041      28.537379      616.0585      -118.05262     -5.5154878      0.0022710947   361657.58      0            
     23200   287.8259       504.15231      2.5593503     -15.30492       31.829549      595.03961     -104.83039     -5.1408901      0.0023063754   356125.29      0            
     23300   331.51764      512.42327      4.2159028     -14.677025      29.518479      612.20642     -112.24221     -6.5982986      0.0023570997   348461.55      0            
     23400   330.43688      508.51755      6.3404267     -15.623763      31.253785      611.19016     -118.2637      -6.3793597      0.0024090687   340944.46      0            
     23500   289.75847      503.49546      3.6148065     -17.11084       25.561104      608.84132     -112.36728     -5.0436527      0.0024783056   331419.42      0            
     23600   274.5065       503.95335      3.238315      -16.957155      31.50225       592.76176     -101.55736     -5.0344546      0.0025376094   323674.16      0            
     23700   256.85024      508.05647     -0.36261354    -17.983535      30.737793      612.78412     -111.23588     -5.883407       0.0026113082   314539.13      0            
     23800   325.28798      502.33277      2.0614565     -15.467863      39.182316      583.92522     -103.57895     -3.7894003      0.0026807223   306394.51      0            
     23900   350.2282       516.57141      2.2699678     -15.640733      33.673702      605.56497     -104.50736     -4.7891445      0.0027497676   298701.11      0            
     24000   338.51429      515.81297      6.8243738     -17.506526      31.758462      616.49507     -117.44667     -4.311741       0.002834121    289810.71      0            
     24100   319.04776      502.71012      2.7046133     -16.483309      32.594802      605.91723     -116.13277     -5.8904476      0.0028979874   283423.8       0            
     24200   285.13337      505.68135      0.46749202    -17.061738      36.648433      602.03944     -111.69433     -4.7179449      0.0029911751   274593.96      0            
     24300   273.16401      505.9185       0.21303926    -15.419943      34.812798      607.03419     -115.40605     -5.3155389      0.0030413879   270060.46      0            
     24400   325.39773      499.40409     -0.18710814    -16.68346       28.836779      613.66195     -122.23691     -3.9871665      0.0031251207   262824.6       0            
     24500   323.82635      513.6159       3.1753384     -16.40604       43.16718       599.09261     -109.01929     -6.3939002      0.0031971553   256902.95      0            
     24600   338.36612      509.02467      2.3366013     -14.496239      36.823445      605.60129     -116.41005     -4.8303745      0.0032621008   251788.24      0            
     24700   296.82231      500.13498      2.2979019     -15.471648      30.65667       599.1568      -112.94529     -3.5594405      0.0033215095   247284.74      0            
     24800   263.03782      504.85184     -1.1925111     -16.203729      30.377787      591.05138     -96.219419     -2.9616755      0.003368608    243827.3       0            
     24900   312.35496      499.12724      3.6148886     -16.964308      40.334119      585.34988     -108.60699     -4.6003534      0.0034303006   239442.17      0            
     25000   303.04041      508.50252      0.92433366    -16.607453      30.62086       600.91451     -102.72486     -4.6248714      0.0034957471   234959.39      0            
     25100   345.99059      502.26914     -1.1906239     -18.721862      30.596902      602.09614     -108.08946     -2.4219597      0.0035634516   230495.24      0            
     25200   264.37109      508.53407      2.074895      -16.275208      32.275198      608.95574     -112.2936      -6.2029551      0.003630969    226209.21      0            
     25300   264.04717      497.61156     -0.69981612    -18.614457      33.152183      598.22259     -110.82531     -3.6236359      0.0036924028   222445.56      0            
     25400   264.68516      502.38335      2.7527273     -16.946187      29.185299      605.74168     -113.26252     -5.0876527      0.003749713    219045.73      0            
     25500   316.99847      502.97388     -0.40156114    -16.969724      35.527913      607.22177     -117.48436     -4.9201445      0.0038046584   215882.35      0            
     25600   304.71333      506.70397      1.6667735     -19.167667      34.845047      591.36944     -99.268528     -2.7410932      0.0038798099   211700.74      0            
     25700   323.84734      503.06795      1.0992409     -17.869766      30.403424      605.33177     -111.99148     -3.9052367      0.0039399062   208471.62      0            
     25800   318.96252      499.66098      1.074781      -18.030385      30.64459       610.41468     -118.7727      -5.6699827      0.0039973466   205475.95      0            
     25900   292.56063      502.76731      0.27049658    -16.203534      32.758266      601.42602     -110.04009     -5.4438462      0.0040393307   203340.28      0            
     26000   273.81949      504.81483      0.30491314    -15.949905      30.616602      602.82435     -109.43669     -3.5444455      0.0040909037   200776.81      0            
     26100   270.80774      499.87017     -0.31408495    -15.043531      27.801919      599.10161     -106.41656     -5.2591849      0.0041100972   199839.22      0            
     26200   273.26176      500.95726      4.8662433     -17.046798      28.478665      602.11174     -112.53644     -4.9161457      0.0041582527   197524.94      0            
     26300   318.83162      501.62161      1.9310753     -15.97866       33.038142      588.15894     -102.08971     -3.4381816      0.0041986205   195625.83      0            
     26400   339.45983      504.15709     -0.75760823    -17.53145       31.523063      599.37292     -104.29416     -4.1556741      0.0042547451   193045.32      0            
     26500   308.63868      506.6401       2.4609906     -17.146763      34.424362      599.44534     -108.80958     -3.7342531      0.0043019257   190928.13      0            
     26600   256.91693      503.36006      0.17139295    -15.483583      34.70883       583.20766     -96.282614     -2.9616256      0.0043488042   188869.99      0            
     26700   251.38396      502.58663      1.224877      -16.805379      27.184657      595.07764     -99.408684     -4.6864869      0.004404126    186497.53      0            
     26800   268.26799      504.73291      0.71118432    -15.586216      41.470171      593.28633     -110.53827     -4.6102839      0.0044180845   185908.31      0            
     26900   283.12385      508.67203     -0.26330169    -17.0279        32.544999      592.38475     -95.957462     -3.009058       0.004462549    184055.93      0            
     27000   310.3361       506.31947     -0.26867125    -16.954439      31.454435      594.81795     -99.44277      -3.2870357      0.0044777526   183430.99      0            
     27100   328.23252      499.61764      2.3409639     -16.744125      33.819916      594.39839     -109.00469     -5.1928144      0.0045065549   182258.65      0            
     27200   264.78892      500.75045     -0.62421102    -16.567185      31.263671      595.45592     -104.15838     -4.6193574      0.0045301046   181311.18      0            
     27300   268.52939      497.16548      0.66889318    -15.830926      30.621223      595.44303     -110.22969     -3.5070504      0.0045602671   180111.95      0            
     27400   320.4893       496.38456      4.004434      -16.661839      26.995264      598.61773     -110.37376     -6.1972654      0.0046072951   178273.5       0            
     27500   296.48087      510.2713       2.2858132     -15.454306      37.188335      606.66697     -114.58751     -5.827997       0.0046336277   177260.38      0            
     27600   293.07725      509.48463      3.7490585     -17.537772      29.028586      603.72928     -105.96817     -3.516353       0.0046744871   175710.96      0            
     27700   293.43803      503.18117     -0.16448889    -16.66488       36.125358      607.81442     -117.02089     -6.9083512      0.0046660183   176029.87      0            
     27800   255.85739      507.09476      1.9567498     -16.188759      33.548275      599.88908     -106.71182     -5.3987741      0.0046784338   175562.73      0            
     27900   260.4198       497.41062      0.58451131    -17.073913      35.291986      590.03422     -106.09972     -5.3264631      0.004678407    175563.73      0            
     28000   264.72866      490.30353      1.4737263     -19.381529      28.555777      604.90121     -119.37999     -5.8656593      0.0046770406   175615.03      0            
     28100   293.28024      496.72156      3.5201775     -18.92218       32.043196      595.8163      -110.5356      -5.2003312      0.0046908099   175099.53      0            
     28200   316.77418      500.97505      1.6491152     -18.688028      35.553356      592.83873     -105.7626      -4.6155177      0.0047045319   174588.81      0            
     28300   312.96105      502.3942       9.4073189     -19.101469      29.133021      616.71317     -125.55779     -8.2000525      0.0047130334   174273.88      0            
     28400   310.45306      495.0246       1.18566       -17.830917      28.333766      604.25901     -114.59289     -6.3300213      0.0047000772   174754.28      0            
     28500   249.02828      497.88334      2.2408362     -15.802958      32.935453      583.74458     -101.07445     -4.1601219      0.0046992541   174784.89      0            
     28600   272.52791      493.02657      3.617765      -17.379319      28.029418      602.53791     -117.32684     -6.4523754      0.0047174301   174111.45      0            
     28700   292.08938      510.65916      1.5953113     -16.877128      47.916298      597.4641      -114.71272     -4.7267074      0.0047270892   173755.68      0            
     28800   296.66049      509.03623      2.6706142     -17.291129      30.822985      605.51993     -107.32142     -5.364749       0.0047592577   172581.24      0            
     28900   299.86813      501.2561       3.8895561     -16.136183      32.528786      595.45621     -109.49328     -4.9889854      0.004754425    172756.66      0            
     29000   253.82041      503.79901      3.2291759     -17.606713      31.033704      609.79778     -117.23012     -5.4248153      0.0047730968   172080.86      0            
     29100   297.63444      495.09695      1.5603013     -18.487121      30.049084      599.08446     -111.94002     -5.1697614      0.0047700924   172189.25      0            
     29200   346.80399      501.3988       1.0545498     -18.200404      40.175292      601.41255     -117.14395     -5.8992347      0.00477304     172082.91      0            
     29300   375.31072      498.48797      0.27371028    -17.481406      26.371626      613.85851     -118.48405     -6.0504127      0.0047667764   172309.03      0            
     29400   296.48711      508.22028     -0.12135593    -16.868039      36.766663      606.0779      -113.10774     -4.5271531      0.0047669667   172302.15      0            
     29500   320.22345      494.41971      1.8679892     -16.769135      28.691597      596.51355     -109.38517     -6.4991236      0.0047391123   173314.87      0            
     29600   312.82707      494.53579      3.2011692     -16.911044      30.745816      589.39509     -107.15351     -4.7417394      0.0047380065   173355.32      0            
     29700   316.39902      496.91277     -0.1163807     -16.386707      31.082647      604.99574     -116.94905     -5.7134787      0.0047336549   173514.68      0            
     29800   279.42594      503.5608       1.8082025     -17.797421      39.819261      585.87507     -101.56866     -4.5756472      0.0046992311   174785.75      0            
     29900   284.94434      504.52847      3.2646467     -16.603585      33.425274      594.40835     -103.96717     -5.9990499      0.0047100142   174385.59      0            
     30000   281.10903      503.26485     -0.0019040507  -19.017187      30.102815      606.12838     -110.24867     -3.6985798      0.0047020376   174681.42      0            
     30100   315.94716      496.88327      0.30704542    -20.449736      29.57937       602.56532     -110.09154     -5.0271917      0.004699288    174783.63      0            
     30200   324.41349      500.37004      2.4790173     -17.081247      37.19968       587.51915     -105.44646     -4.3000972      0.0046924776   175037.3       0            
     30300   342.2882       497.28227     -0.59891863    -17.015769      25.933328      597.14569     -104.03217     -4.1498939      0.0046904894   175111.49      0            
     30400   312.8498       497.89304      1.639242      -18.419101      31.15954       600.80822     -113.51844     -3.7764263      0.004700797    174727.52      0            
     30500   283.97852      496.1099       2.4725468     -18.254546      30.900886      591.18275     -105.19994     -4.9917988      0.0047054156   174556.02      0            
     30600   286.32369      496.35903      2.0162165     -15.878969      30.676368      598.89142     -115.19839     -4.1476113      0.0046973779   174854.7       0            
     30700   332.51933      499.02434      0.2382996     -17.306376      37.113058      598.52318     -115.30263     -4.2411799      0.0046753165   175679.79      0            
     30800   327.64493      509.43637      0.91315682    -16.522105      30.158751      599.45497     -99.279045     -5.2893585      0.0046555862   176424.32      0            
     30900   289.84202      510.21698      0.80739175    -17.277837      41.10533       601.15262     -111.24653     -4.3239943      0.0046074962   178265.71      0            
     31000   271.56293      504.1485      -0.75598302    -17.73959       19.824784      616.47002     -107.46821     -6.1825139      0.0045586148   180177.23      0            
     31052   279.28109      500.48887     -0.31050552    -15.672381      37.245897      588.78276     -105.31551     -4.241395       0.0045241456   181549.99      0            
Loop time of 1.72882 on 6 procs for 10000 steps with 74 atoms

Performance: 499.763 ns/day, 0.048 hours/ns, 5784.289 timesteps/s, 428.037 katom-step/s
99.7% CPU use with 6 MPI tasks x no OpenMP threads

MPI task timing breakdown:
Section |  min time  |  avg time  |  max time  |%varavg| %total
---------------------------------------------------------------
Pair    | 0.00068986 | 0.02939    | 0.14743    |  31.0 |  1.70
Bond    | 0.0018627  | 0.27553    | 1.1305     |  77.1 | 15.94
Neigh   | 0.0089027  | 0.0095901  | 0.010526   |   0.7 |  0.55
Comm    | 0.0099155  | 0.50635    | 1.2529     |  70.0 | 29.29
Output  | 0.0061436  | 0.0071899  | 0.01157    |   2.3 |  0.42
Modify  | 0.3329     | 0.87437    | 1.6724     |  63.9 | 50.58
Other   |            | 0.0264     |            |       |  1.53

Nlocal:        12.3333 ave          30 max           0 min
Histogram: 2 0 0 1 0 1 1 0 0 1
Nghost:           34.5 ave          56 max           0 min
Histogram: 2 0 0 0 0 0 0 0 2 2
Neighs:          163.5 ave         797 max           0 min
Histogram: 4 1 0 0 0 0 0 0 0 1

Total # of neighbors = 981
Ave neighs/atom = 13.256757
Ave special neighs/atom = 13.972973
Neighbor list builds = 161
Dangerous builds = 0

unfix reacted
unfix npt
unfix fxrct


fix		fxrct all bond/react stabilization yes statted_grp .03 		 react rxn1 all 100 0.0 5.0 pre post semi.map stabilize_steps 2000
dynamic group bond_react_MASTER_group defined
dynamic group statted_grp_REACT defined
fix 		npt statted_grp_REACT npt temp 300.0 300.0 100 iso 1.0 1.0 1000
fix 		reacted bond_react_MASTER_group temp/rescale 1 300.0 300.0 1 1

run 2000000
Generated 28 of 28 mixed pair_coeff terms from sixthpower/geometric mixing rule
Neighbor list info ...
  update: every = 1 steps, delay = 0 steps, check = yes
  max neighbors/atom: 2000, page size: 100000
  master list distance cutoff = 12
  ghost atom cutoff = 12
  binsize = 6, bins = 10 10 10
  2 neighbor lists, perpetual/occasional/extra = 1 1 0
  (1) pair lj/class2/coul/cut, perpetual
      attributes: half, newton on
      pair build: half/bin/newton
      stencil: half/bin/3d
      bin: standard
  (2) fix bond/react, occasional, copy from (1)
      attributes: half, newton on
      pair build: copy
      stencil: none
      bin: none
Per MPI rank memory allocation (min/avg/max) = 33.33 | 34.64 | 36.47 Mbytes
   Step          Temp          PotEng         E_vdwl         E_coul         E_bond        E_angle        E_dihed        E_impro        Density         Volume       f_fxrct[1]  
     31052   279.28109      500.48887     -0.31050552    -15.672381      37.245897      588.78276     -105.31551     -4.241395       0.0045241456   181549.99      0            
     31100   248.76872      506.67112      2.6075778     -18.788574      44.697162      592.05164     -110.31545     -3.5812357      0.0045329551   181197.17      0            
     31200   324.49698      500.39738     -0.0038693703  -18.157067      25.856675      602.58335     -103.77964     -6.1020695      0.0045373985   181019.72      0            
     31300   324.68165      512.59481      3.0105643     -19.119711      39.368318      611.18711     -116.94791     -4.9035546      0.0045278147   181402.87      0            
     31400   323.20203      509.32486      2.9847504     -16.107882      40.208603      599.22275     -112.42651     -4.5568588      0.004533383    181180.06      0            
     31500   315.05518      502.78547     -1.1495659     -19.869192      35.322924      592.08147     -99.462548     -4.1376179      0.0045144182   181941.19      0            
     31600   309.20622      499.69683     -0.84223762    -16.690513      40.453123      602.25511     -120.29636     -5.1822931      0.0044728003   183634.09      0            
     31700   273.68318      501.64138      3.2586038     -16.753613      39.885095      598.41544     -117.13025     -6.0338924      0.0044367771   185125.06      0            
     31800   285.64109      498.27209     -0.53590831    -15.013285      30.050658      592.67022     -104.13358     -4.7660188      0.0044141084   186075.77      0            
     31900   336.54998      496.84237     -0.05794505    -18.717454      39.067281      600.74875     -118.69317     -5.5050992      0.0044228126   185709.57      0            
     32000   298.46429      515.90456      2.9648484     -17.931558      39.22946       608.55153     -111.20919     -5.7005227      0.0044207484   185796.28      0            
     32100   309.52945      505.14446      3.5109287     -16.666212      37.659241      595.67988     -110.84279     -4.1965778      0.0044070965   186371.82      0            
     32200   265.76821      504.74171      3.7786861     -17.201437      36.408637      593.41292     -107.87311     -3.7839891      0.0043775546   187629.55      0            
     32300   299.79816      495.9142       3.3893277     -17.280702      31.143825      601.74261     -119.39734     -3.6835215      0.0043325364   189579.16      0            
     32400   286.45542      502.19475      2.6810578     -17.869435      29.832768      598.92726     -106.60495     -4.7719521      0.0042824504   191796.41      0            
     32500   293.14669      509.50613      0.98290738    -13.415622      40.702456      595.14741     -109.49807     -4.412947       0.0042051457   195322.27      0            
     32600   337.85646      507.43599      2.297516      -18.344516      33.264164      604.22456     -108.72958     -5.2761473      0.0041441352   198197.83      0            
     32700   359.85561      518.96927      1.7462912     -14.814024      41.455975      609.31819     -114.24031     -4.4968439      0.0040824605   201192.05      0            
     32800   358.13079      501.96326     -1.8997828     -17.513787      34.10557       600.28441     -108.72208     -4.2910784      0.0040017725   205248.7       0            
     32900   284.37477      507.05101      0.0014341984  -15.312566      47.277061      593.36391     -113.24571     -5.033122       0.0039161613   209735.64      0            
     33000   318.07269      494.62842      2.5328932     -16.464188      23.602027      598.56424     -108.40248     -5.2040783      0.0038475608   213475.15      0            
     33100   306.97351      492.59582      3.157518      -17.86065       31.026906      590.72229     -111.02236     -3.4278784      0.0037528149   218864.68      0            
     33200   281.94998      503.50319      2.2294515     -16.610957      35.287226      608.40053     -119.66214     -6.1409258      0.003631789    226158.13      0            
     33300   344.34473      504.01463     -1.0107868     -16.173605      28.047323      598.75667     -101.74853     -3.8564414      0.0034963319   234920.09      0            
     33400   292.68172      514.63532      0.74811425    -16.542257      45.646891      602.30498     -113.87995     -3.6424585      0.0033715405   243615.23      0            
     33500   293.28875      504.91293      2.2039201     -16.184855      37.774179      591.28271     -106.30905     -3.8539754      0.003243997    253193.4       0            
     33600   268.40421      503.36186     -1.4277936     -15.585006      32.698375      617.54988     -124.17989     -5.693707       0.0031430854   261322.4       0            
     33700   275.09357      501.74784     -0.14440478    -18.507935      30.911247      594.16682     -101.5352      -3.1426961      0.0030727826   267301.24      0            
     33800   306.55682      501.62303      2.8291897     -18.220128      30.274822      591.83645     -101.92719     -3.1701172      0.0029899277   274708.52      0            
     33900   312.98688      507.78573     -1.1255102     -17.316725      45.734603      602.83043     -116.37965     -5.9574158      0.0028955492   283662.46      0            
     34000   326.24422      503.79972      1.8288822     -17.829818      29.205288      601.39543     -105.64236     -5.1577134      0.0028274018   290499.43      0            
     34100   244.52588      505.40342     -0.63486074    -19.644625      38.346763      595.00176     -104.26931     -3.3963104      0.0027655963   296991.51      0            
     34200   284.14823      495.58154      1.3800467     -16.008166      24.69113       597.17832     -106.8888      -4.7709938      0.0027147263   302556.69      0            
     34300   304.56214      499.71864     -1.071564      -15.225167      40.281244      589.85856     -110.0136      -4.1108349      0.0026729675   307283.43      0            
     34400   323.5022       502.91949      2.86963       -17.382133      31.897448      600.41373     -109.21808     -5.6611047      0.0026512316   309802.67      0            
     34500   315.64511      504.73977      2.4138123     -15.472741      34.868416      604.54928     -115.31022     -6.3087727      0.0026068422   315078         0            
     34600   313.59442      503.30265      0.7172231     -17.00049       32.372408      608.1338      -115.29679     -5.6234984      0.0025707332   319503.64      0            
     34700   293.30972      502.17994     -0.98720096    -17.288728      36.681436      597.82926     -109.26549     -4.7893407      0.0025333789   324214.67      0            
     34800   262.55999      495.95177      1.385118      -16.333803      31.05571       597.47622     -111.13314     -6.4983341      0.0025052424   327855.94      0            
     34900   229.98292      496.19163      2.1417182     -16.592424      31.759268      604.55415     -119.14305     -6.5280336      0.0024845943   330580.57      0            
     35000   267.37973      498.96204     -0.45079351    -16.284625      28.236788      599.66396     -106.61775     -5.5855345      0.0024590542   334014.03      0            
     35100   308.63201      497.58944      5.2458924     -15.661951      36.447208      587.65256     -110.5448      -5.5494697      0.0024609646   333754.75      0            
     35200   278.21991      510.96231      1.2657133     -14.968329      38.088758      598.37862     -106.67029     -5.132158       0.002452999    334838.54      0            
     35300   326.08126      506.21552      1.1290826     -15.980274      43.792953      584.79037     -102.96548     -4.5511337      0.0024715263   332328.5       0            
     35400   323.64564      505.10041      5.5567047     -16.871382      32.771027      598.36073     -110.13249     -4.5841751      0.0024806771   331102.58      0            
     35500   248.32631      507.41725      0.049062906   -16.137427      43.019992      604.24516     -118.40807     -5.3514719      0.0025023688   328232.44      0            
     35600   271.98112      497.54882      1.7661961     -15.261533      30.334422      593.19559     -108.63802     -3.8478335      0.0025312444   324488.07      0            
     35700   255.79915      509.91372      1.6961173     -16.147781      38.682274      588.16133     -99.038737     -3.4394815      0.0025690904   319707.94      0            
     35800   325.64051      505.13649      0.07730734    -16.061001      40.79625       597.63055     -113.49392     -3.8126968      0.0025985608   316082.12      0            
     35900   291.06823      512.79843     -1.4070291     -15.071629      38.780935      592.51325     -98.013456     -4.0036343      0.0026522636   309682.11      0            
     36000   297.8875       507.50695      2.0443909     -15.252462      35.259113      599.07553     -108.06016     -5.5594572      0.0027095822   303131.1       0            
     36100   307.08051      498.98233     -1.98608       -15.24561       30.316547      598.29069     -107.71261     -4.6806134      0.0027667915   296863.21      0            
     36200   236.69095      503.01107      0.56871999    -15.37869       28.416383      596.45508     -103.31967     -3.7307474      0.002846465    288553.92      0            
     36300   234.72696      495.40575      0.48198959    -16.455991      28.843603      594.12591     -107.34989     -4.2398724      0.0029411518   279264.27      0            
     36400   287.99642      496.60872      4.7643367     -15.802411      29.861296      600.77107     -116.89622     -6.0893507      0.0030476926   269501.79      0            
     36500   316.32839      503.21721     -1.1629915     -15.842979      44.017867      587.70693     -107.16479     -4.3368336      0.0031668297   259363.05      0            
     36600   319.23906      506.04782      1.5154164     -16.235291      36.147041      593.46968     -103.88331     -4.9657111      0.0033353304   246260.05      0            
     36700   290.5475       507.50401      3.7883515     -16.783174      38.354755      598.92789     -112.7234      -4.0604162      0.0035053716   234314.28      0            
     36800   271.89562      500.33122      6.3205502     -18.626806      32.927087      608.15601     -121.83549     -6.61013        0.0037045074   221718.71      0            
     36900   253.91956      499.66922      2.4076204     -17.136498      33.856855      590.01369     -104.65138     -4.8210739      0.0039044969   210362.22      0            
     37000   295.5051       501.75409      5.4990351     -17.033686      29.410263      596.90171     -108.06925     -4.953983       0.0040824577   201192.19      0            
     37100   366.33923      498.26854      2.36612       -16.904077      26.920281      607.84655     -115.97621     -5.98413        0.0042030625   195419.08      0            
     37200   304.97432      507.5512       2.968187      -15.399684      32.525815      608.92069     -115.14129     -6.32252        0.0043092418   190603.97      0            
     37300   269.86165      502.5704       4.9480613     -17.357947      32.04781       588.2902      -100.64775     -4.7099666      0.0044126645   186136.65      0            
     37400   295.49973      495.73982      1.3281316     -16.620364      35.252254      605.41375     -124.43568     -5.198277       0.0044867544   183062.98      0            
     37500   330.66567      495.32778      0.38554499    -16.498832      23.273842      603.58762     -110.14953     -5.2708686      0.0045724203   179633.22      0            
     37600   331.91596      514.15549      4.6341521     -16.303843      36.889824      595.37744     -100.85022     -5.591868       0.0046487032   176685.53      0            
     37700   338.77724      507.39949      6.6499325     -17.159102      37.269232      599.76705     -113.40051     -5.7271106      0.0047004296   174741.18      0            
     37800   323.35083      500.88316      1.4250341     -14.530203      30.892101      604.04218     -115.85079     -5.0951715      0.004703211    174637.84      0            
     37900   292.6039       504.75282      6.7699117     -17.849362      31.277153      596.16914     -107.67509     -3.9389269      0.0047305504   173628.55      0            
     38000   328.30851      494.25962      2.6544324     -16.789849      35.447432      580.35364     -104.22189     -3.1841459      0.0047467326   173036.63      0            
     38100   311.49554      498.81377      1.3457605     -16.307933      32.151977      601.23157     -115.26246     -4.3451439      0.0047399408   173284.57      0            
     38200   289.52769      510.31979      1.5917662     -16.586325      34.853375      605.30211     -110.53586     -4.3052757      0.0047721119   172116.38      0            
     38300   324.43861      510.43364      1.0358737     -14.540762      32.942619      588.19215     -95.394858     -1.8013833      0.0047973848   171209.66      0            
     38400   323.94414      505.79277      2.0966789     -17.786346      35.311986      602.97124     -112.67117     -4.1296217      0.0048313664   170005.45      0            
     38500   291.12118      498.05161      2.2645339     -14.111086      33.321339      598.80465     -118.73404     -3.4937844      0.0048541777   169206.54      0            
     38600   289.48723      496.05561      4.489699      -18.216612      26.176725      598.2594      -110.34808     -4.3055295      0.0048887642   168009.45      0            
     38700   271.476        506.60814      0.42458728    -14.982442      38.897236      594.28947     -108.14347     -3.8772489      0.0048867682   168078.08      0            
     38800   324.63312      501.44782      2.2326995     -16.111951      26.547559      609.96919     -115.33096     -5.8587197      0.004905906    167422.41      0            
     38900   319.18581      503.9724       5.1262829     -17.466635      38.464174      609.44525     -125.57715     -6.0195228      0.0049076916   167361.5       0            
     39000   308.22669      500.7448       1.262391      -14.458721      31.556988      585.89147     -99.024398     -4.4829301      0.0048879158   168038.62      0            
     39100   288.98576      502.63349      1.7944156     -17.443157      33.741652      599.12039     -109.59568     -4.9841322      0.0049249515   166774.96      0            
     39200   297.68996      500.76018      0.49976069    -15.348692      31.203025      611.12119     -120.10865     -6.6064525      0.0049263214   166728.59      0            
     39300   263.77547      512.9043       3.4069253     -18.111288      42.745807      605.63767     -114.70884     -6.0659815      0.0049493146   165954.01      0            
     39400   320.63123      505.49976      0.17148632    -12.305347      37.248377      600.8312      -114.3648      -6.0811451      0.0049452567   166090.19      0            
     39500   320.6181       502.79324      0.2462614     -16.507321      32.473827      599.22405     -107.66315     -4.9804309      0.004979747    164939.83      0            
     39600   280.35301      497.60324      3.5578207     -20.394936      35.078279      607.95502     -122.67769     -5.9152579      0.0049828705   164836.43      0            
     39700   296.52348      491.77261      3.5858876     -15.78483       27.518753      595.8592      -113.8903      -5.5160966      0.0050065839   164055.7       0            
     39800   301.18336      499.96512      2.7148374     -13.641534      25.925946      602.51875     -112.39966     -5.1532165      0.0050304523   163277.29      0            
     39900   317.41367      508.68136      1.7972461     -17.808988      36.512944      605.55413     -111.62835     -5.7456211      0.0050373966   163052.2       0            
     40000   328.68304      505.06171     -2.4785058     -15.915485      29.011079      602.23705     -104.0457      -3.7467241      0.0050545346   162499.36      0            
     40100   303.82155      498.2578       1.1547515     -17.767024      43.217353      589.08843     -112.0857      -5.3500009      0.0050723081   161929.95      0            
     40200   267.61788      500.42858      2.1178236     -20.714304      27.191921      602.31213     -105.82159     -4.6574016      0.0050983696   161102.21      0            
     40300   293.34213      498.39502     -1.2105431     -17.788469      40.960825      589.40532     -109.11086     -3.8612503      0.0050866968   161471.9       0            
     40400   368.13275      502.04369      2.2105693     -17.904692      26.170402      600.99152     -103.79734     -5.626769       0.0051136318   160621.38      0            
     40500   344.27916      505.72719     -1.2962317     -16.863697      44.551406      592.38586     -108.32444     -4.7257072      0.0050989192   161084.85      0            
     40600   315.92711      498.78016      2.9720075     -20.259877      35.437503      592.33055     -106.57164     -5.1283778      0.005157166    159265.5       0            
     40700   305.83024      497.46016     -0.50084662    -17.463587      38.762539      605.32546     -123.45614     -5.2072567      0.0051765009   158670.62      0            
     40800   292.76631      503.77813     -0.030496188   -12.560085      29.689986      602.26633     -110.97447     -4.613137       0.0052070667   157739.21      0            
     40900   300.94639      502.07503      2.6296509     -15.715273      32.309915      598.40059     -108.54964     -7.0002162      0.005249392    156467.38      0            
     41000   317.58113      511.37235      3.5536316     -15.406551      38.996634      607.46911     -117.47221     -5.7682638      0.005316314    154497.76      0            
     41100   341.0304       512.71347     -0.27399941    -13.447399      32.385899      599.02839     -102.22126     -2.7581671      0.0053518978   153470.53      0            
     41200   290.26067      507.31113      2.3369959     -16.038415      31.966887      590.10731     -97.599597     -3.4620515      0.0053951529   152240.1       0            
     41300   275.31201      502.14616      3.8208817     -19.161117      30.053446      601.3155      -109.7657      -4.1168593      0.0054859985   149719.07      0            
     41400   266.54348      507.9775       3.215504      -15.115169      36.83591       606.17655     -118.96659     -4.1686978      0.0055457717   148105.38      0            
     41500   322.24737      502.52165      0.035628536   -14.975758      27.743443      601.87209     -108.82409     -3.3296562      0.0056113481   146374.56      0            
     41600   369.04879      504.95764     -0.06764981    -16.015431      37.134965      595.14578     -106.06729     -5.1727247      0.0056902582   144344.7       0            
     41700   368.36442      513.60702     -1.1552249     -14.317344      38.973399      615.93316     -121.11288     -4.7140825      0.0057687718   142380.15      0            
     41800   309.85331      504.22729      0.93923611    -13.196539      34.641826      593.20413     -108.36357     -2.9977884      0.0058141229   141269.56      0            
     41900   319.4819       495.83301      0.58186965    -13.220122      33.281991      582.85349     -103.75019     -3.9140322      0.0058804491   139676.17      0            
     42000   295.69696      490.99426     -0.11549995    -22.684168      33.590489      598.53647     -113.43242     -4.9006102      0.0059353872   138383.32      0            
     42100   325.86968      497.09498     -0.56979416    -11.042205      27.30126       590.62272     -104.6376      -4.579409       0.0060121251   136617.02      0            
     42200   295.1055       511.12079     -2.2359982     -16.328285      41.747759      602.92435     -110.29943     -4.6876047      0.0060946041   134768.16      0            
     42300   347.16737      505.36987     -0.21299211    -14.358167      35.014498      612.32582     -121.83203     -5.567265       0.0061880921   132732.12      0            
     42400   347.30098      495.54011     -0.58296941    -10.951279      28.340526      595.18971     -111.25397     -5.2019088      0.0063006601   130360.72      0            
     42500   285.71641      493.04713      2.8730055     -16.439344      31.690345      588.45425     -108.91537     -4.6157472      0.006438247    127574.88      0            
     42600   255.569        499.15587      0.17224109    -21.739989      37.10262       614.08063     -124.24289     -6.2167396      0.0065292041   125797.66      0            
     42700   368.81203      483.10499      1.1243197     -24.681712      28.708056      591.7084      -109.26222     -4.4918422      0.0066684792   123170.3       0            
     42800   320.45403      501.37634      0.8543719     -20.02906       29.832562      600.59865     -104.89512     -4.9850651      0.0067990586   120804.76      0            
     42900   304.96257      500.36648     -2.6685188     -22.699292      29.341307      617.73988     -116.35245     -4.9944344      0.0069420597   118316.27      0            
     43000   303.35209      500.014       -1.5506824     -19.279714      30.35991       601.43924     -106.97482     -3.9799314      0.0070919496   115815.63      0            
     43100   307.00295      499.84509      1.2559535     -17.913051      32.400631      604.38904     -116.04948     -4.2380083      0.0072899185   112670.48      0            
     43200   307.36988      494.11872      1.673513      -21.137228      29.802677      602.02068     -112.36334     -5.8775764      0.0074775717   109842.96      0            
     43300   272.22717      502.79375      0.26020195    -19.624933      34.716706      596.2472      -105.16462     -3.6408057      0.0076481213   107393.51      0            
     43400   288.77001      499.21562      2.2139638     -19.430308      33.678179      588.40728     -102.81651     -2.8369915      0.0078864594   104147.95      0            
     43500   296.50525      499.08811      0.25956173    -19.385144      40.558664      604.97721     -121.48739     -5.8347891      0.0080577339   101934.19      0            
     43600   303.38673      502.57109     -0.7953824     -19.628057      42.003027      596.96335     -111.51559     -4.4562604      0.0082837095   99153.479      0            
     43700   304.15836      506.34314      1.1087806     -17.710842      33.267894      594.43369     -101.55099     -3.2053878      0.0085220673   96380.207      0            
     43800   321.90297      496.40534     -1.1438193     -22.788144      28.326387      615.531       -119.03689     -4.4831824      0.0088001972   93334.114      0            
     43900   278.60263      495.50407     -1.6534107     -19.469265      34.216041      590.93833     -105.00822     -3.5194058      0.009041769    90840.477      0            
     44000   268.73336      493.70969     -0.1613409     -19.438843      26.954285      584.50166     -94.432427     -3.7136405      0.009322894    88101.25       0            
     44100   287.33705      500.27057      0.85954942    -20.764931      31.041597      612.91185     -119.52346     -4.2540239      0.0095902687   85645.005      0            
     44200   310.2607       508.52486     -0.6960826     -16.926282      36.154983      595.68651     -101.5639      -4.1303618      0.009766916    84096.004      0            
     44300   285.45743      511.30714     -0.22277148    -17.325867      39.808199      608.73213     -113.73673     -5.9478182      0.0099843089   82264.944      0            
     44400   273.20152      507.23793      1.2112382     -15.951679      30.674238      607.02886     -111.57742     -4.1473093      0.010176461    80711.62       0            
     44500   287.08799      499.59871     -1.1541765     -15.933956      31.213757      608.38711     -118.73385     -4.1801762      0.010369798    79206.81       0            
     44600   305.54045      492.04023     -0.20591287    -17.647519      33.822012      580.39145     -101.05206     -3.2677282      0.010519632    78078.645      0            
     44700   330.01271      503.67612      5.166911      -15.721339      30.831775      588.56282     -101.00413     -4.1599124      0.010670502    76974.689      0            
     44800   298.17352      515.65131     -0.43683145    -18.769037      33.714134      619.08873     -113.75015     -4.1955346      0.010743119    76454.393      0            
     44900   316.91018      499.17049      0.26879394    -17.476486      26.387603      592.56283     -98.2059       -4.3663452      0.010788268    76134.425      0            
     45000   284.27466      497.26644     -0.66885704    -17.351171      34.828307      602.01835     -116.53919     -5.0210015      0.010806068    76009.016      0            
     45100   287.76997      498.94488      1.7690017     -15.94385       30.918875      601.4035      -112.63391     -6.5687279      0.010825351    75873.622      0            
     45200   311.88425      497.97766      1.1727031     -17.75856       39.538898      596.74216     -117.01524     -4.7022906      0.010881263    75483.756      0            
     45300   307.31964      503.31703     -1.7757841     -16.875679      39.394481      603.33048     -115.59267     -5.1637904      0.010868308    75573.731      0            
     45400   305.53712      503.59793      2.3198491     -17.743495      31.978593      603.42071     -110.31164     -6.0660872      0.010878418    75503.498      0            
     45500   286.71165      496.31072     -1.3262436     -17.522388      33.328067      594.27337     -107.90614     -4.5359406      0.010897285    75372.776      0            
     45600   262.23054      497.52326      2.8306745     -16.119393      31.982495      601.40438     -116.22737     -6.3475305      0.010894838    75389.702      0            
     45700   288.57342      497.12811     -0.38106978    -17.175785      31.488298      598.88784     -111.30012     -4.3910618      0.0109073      75303.569      0            
     45800   331.38416      500.48262      1.3419127     -15.492591      29.105975      596.65523     -106.05413     -5.0737739      0.010871397    75552.263      0            
     45900   349.94351      497.75839      4.1011942     -16.730602      30.037797      605.87228     -120.94796     -4.5743184      0.010849051    75707.875      0            
     46000   272.92524      507.24266     -2.932574      -14.821622      40.245714      590.08259     -101.23166     -4.0997896      0.01068391     76878.092      0            
     46100   248.78338      499.51814     -1.0731813     -17.191152      31.648027      600.19574     -110.63999     -3.4213002      0.010643057    77173.188      0            
     46200   251.3723       495.39093      1.8210969     -14.659824      30.952559      593.75207     -111.61004     -4.8649299      0.010567745    77723.168      0            
     46300   274.39501      510.6745       1.4055286     -16.032831      37.146423      600.67061     -108.37158     -4.1436606      0.010489704    78301.407      0            
     46400   322.03714      504.80806      0.050863781   -16.744063      27.318623      592.34733     -95.648381     -2.5163118      0.01044396     78644.368      0            
     46500   303.47574      502.3052      -0.77198178    -16.904498      28.078805      610.51025     -112.44699     -6.1603948      0.010340979    79427.551      0            
     46600   263.3017       500.78637      2.6010909     -17.658625      31.892901      603.27878     -114.87406     -4.4537215      0.010267872    79993.073      0            
     46700   287.29503      494.10722      1.1940563     -15.553292      29.452153      589.13334     -106.46403     -3.6549963      0.010202984    80501.799      0            
     46800   302.18834      501.88946     -0.75603822    -17.807331      32.255261      602.20597     -110.67271     -3.3356844      0.010121431    81150.447      0            
     46900   346.62144      504.31765      0.79427902    -14.649281      38.971268      603.35984     -118.34273     -5.8157292      0.0099601234   82464.702      0            
     47000   322.07901      503.24567      0.19323436    -17.393308      37.663486      589.54295     -102.54863     -4.2120655      0.0098214666   83628.916      0            
     47100   287.84179      504.06714     -2.2891669     -16.065797      31.069289      607.41679     -110.29972     -5.7642522      0.0096521355   85096.05       0            
     47200   303.75325      497.76683     -0.38094542    -16.320883      33.629746      598.57042     -113.41009     -4.3214206      0.0095367126   86125.968      0            
     47300   300.30395      500.12084     -0.00079426801 -17.182661      32.495746      593.52276     -105.29401     -3.4201989      0.0094470262   86943.615      0            
     47400   370.58205      493.19184      2.286438      -17.292452      25.323164      596.97773     -109.37531     -4.7277287      0.0093271841   88060.726      0            
     47500   369.0449       510.12787      3.7073449     -16.356261      37.584197      609.69611     -119.40867     -5.0948527      0.0091880775   89393.957      0            
     47600   336.99709      505.39244      0.44985805    -14.620614      33.73225       592.19125     -103.37736     -2.9829436      0.008988752    91376.267      0            
     47700   320.72051      497.37541     -0.68263313    -15.280687      34.047002      590.62448     -107.40706     -3.9256871      0.0088067641   93264.518      0            
     47800   284.9931       500.83397      1.6077993     -17.205788      32.895112      604.63595     -116.03556     -5.0635356      0.0085577343   95978.513      0            
     47900   284.73862      500.84011      2.7154459     -17.293791      37.194318      593.93569     -111.40669     -4.3048673      0.008390821    97887.753      0            
     48000   306.03108      501.13215      1.2413203     -15.911213      34.085964      605.93255     -119.98905     -4.2274194      0.0081324828   100997.28      0            
     48100   333.90519      508.49788      1.0377387     -15.382339      32.234023      616.44306     -120.20564     -5.6289651      0.0078686069   104384.25      0            
     48200   331.46925      510.22052      2.4233555     -15.3899        41.367103      593.66402     -107.24176     -4.6023011      0.0076991657   106681.51      0            
     48300   314.93488      498.35417      1.1703705     -16.871569      32.660158      593.61379     -108.21862     -3.9999636      0.0075094903   109376.08      0            
     48400   277.79061      501.50607     -0.05489608    -16.630115      33.904732      611.96362     -122.54423     -5.1330368      0.0072727108   112937.06      0            
     48500   292.35332      500.94713     -0.58500721    -15.721818      30.514659      598.80431     -106.50943     -5.5555938      0.0070765471   116067.71      0            
     48600   316.40465      501.72978      0.44371192    -17.07074       36.248875      586.9212      -101.25594     -3.5573202      0.0068535232   119844.73      0            
     48700   358.04019      502.55345      2.1190035     -18.032527      28.502828      616.42582     -120.5083      -5.9533769      0.0066493238   123525.13      0            
     48800   313.43775      520.94617      3.7867178     -15.279952      42.055659      607.27177     -114.23578     -2.6522438      0.0064063521   128210.03      0            
     48900   298.88711      506.21466      0.27981523    -16.718064      34.7195        589.86147     -97.764035     -4.1640223      0.0061954912   132573.61      0            
     49000   313.29807      493.59028     -0.89071123    -17.265724      31.605604      596.71815     -111.75783     -4.8192111      0.0059987434   136921.78      0            
     49100   268.85613      503.21004     -2.8561327     -16.999622      38.674472      595.66061     -107.00729     -4.2620047      0.0058164033   141214.18      0            
     49200   341.5829       495.80876     -0.37706729    -18.012695      32.766243      588.31567     -102.8748      -4.0086019      0.0056910499   144324.62      0            
     49300   331.68049      507.84049      1.5974066     -17.537965      32.320419      602.70458     -105.51905     -5.7248918      0.0055530262   147911.89      0            
     49400   357.0638       497.26075     -0.97459617    -17.806515      36.069319      602.33651     -117.85536     -4.5086166      0.0054390357   151011.81      0            
     49500   279.36005      496.78063      2.2363653     -15.991951      28.305647      589.91396     -103.80154     -3.8818563      0.0053575563   153308.44      0            
     49600   288.54011      495.36694     -0.29404192    -17.104261      27.596857      589.65082     -101.21099     -3.271443       0.0052700484   155854.09      0            
     49700   316.75826      500.25311      2.8938019     -17.42336       34.518365      597.7696      -111.8452      -5.6600991      0.0052039288   157834.33      0            
     49800   300.28073      509.97887      2.6675053     -16.870151      37.43604       594.04549     -103.3472      -3.952808       0.0051437086   159682.18      0            
     49900   317.62982      501.55167     -0.28540213    -18.449237      29.71755       613.82267     -118.0326      -5.2213043      0.0050634329   162213.79      0            
     50000   263.92593      496.59034      1.4578852     -17.323907      27.197398      602.00263     -111.26336     -5.4803024      0.0050162862   163738.39      0            
     50100   236.34184      499.35098     -0.91439336    -17.597356      31.911591      600.58051     -110.3899      -4.2394696      0.0049916746   164545.7       0            
     50200   290.78454      496.6911       0.0096305209  -15.871566      24.64128       607.58806     -114.22776     -5.4485512      0.0049676447   165341.66      0            
     50300   291.73227      505.36813      1.5498525     -17.108078      32.720576      605.26963     -111.56489     -5.4989619      0.0049397069   166276.79      0            
     50400   334.61824      501.23447      0.20593018    -16.022882      30.529868      602.38716     -110.90969     -4.9559166      0.0049271454   166700.71      0            
     50500   301.99205      505.35163      0.5133286     -17.434733      29.412733      598.99348     -102.30118     -3.8319992      0.0049217426   166883.7       0            
     50600   251.39233      501.1368       0.78846146    -17.578242      40.578732      603.52634     -120.5875      -5.590988       0.00489426     167820.79      0            
     50700   275.48993      492.23226      0.41387197    -16.217339      26.630786      590.2317      -104.83434     -3.9924243      0.0048757051   168459.45      0            
     50800   269.97964      502.38418      0.911944      -15.453278      28.017696      603.4368      -111.29888     -3.2300991      0.0048573575   169095.77      0            
     50900   288.44172      503.46612     -0.75591126    -17.210063      29.316332      601.51944     -104.84145     -4.5622275      0.0048378486   169777.66      0            
     51000   309.03252      501.6495       0.94639306    -16.890793      27.812285      589.51632     -96.932744     -2.8019632      0.0048383123   169761.39      0            
     51100   282.79176      509.08315      0.027457707   -16.731211      40.885244      605.46388     -115.64168     -4.92054        0.004825161    170224.08      0            
     51200   312.8508       501.57545     -0.92854466    -16.619327      31.924001      597.08577     -105.8911      -3.995353       0.0048199163   170409.31      0            
     51300   302.27674      496.57932      0.47006337    -16.544735      30.610236      586.46341     -100.60447     -3.8151777      0.0048592699   169029.22      0            
     51400   289.66118      493.55947     -1.9894339     -18.101156      26.214914      606.66253     -114.47956     -4.7478257      0.0048770654   168412.47      0            
     51500   288.81716      499.11111      1.330032      -15.108007      22.397524      618.09606     -120.67733     -6.9271745      0.0049091738   167310.97      0            
     51600   307.62033      509.36464      2.6766148     -15.853755      30.492298      604.94015     -108.34562     -4.5450497      0.0049261411   166734.69      0            
     51700   310.70126      512.25526     -0.23803238    -15.243738      41.774186      604.2512      -111.0919      -7.1964534      0.0049445324   166114.52      0            
     51800   307.06413      503.43497      0.63844452    -17.727844      27.514385      612.68693     -114.86569     -4.8112498      0.0049486865   165975.07      0            
     51900   313.5573       496.51837      1.7680306     -17.748302      33.794822      605.84886     -121.34955     -5.7954816      0.0049786184   164977.22      0            
     52000   262.95046      506.73357     -1.2846658     -18.254804      33.802535      602.80504     -105.21508     -5.1194559      0.0050068804   164045.98      0            
     52100   318.8308       498.48692      1.6059201     -17.014501      35.44581       599.03199     -115.11246     -5.4698355      0.0050377312   163041.37      0            
     52200   304.80348      506.00721      0.10901942    -14.613437      33.085218      600.26897     -108.20765     -4.634907       0.0050843116   161547.65      0            
     52300   359.07479      503.75232      1.1593593     -15.736788      34.237254      590.00528     -102.41991     -3.492875       0.0051450194   159641.5       0            
     52400   314.42822      517.69416      0.063462509   -17.407342      42.563881      609.5082      -111.26962     -5.7644178      0.0052073618   157730.28      0            
     52500   330.95087      496.76086      0.47594573    -16.952298      36.144332      589.43461     -108.88681     -3.4549132      0.005281655    155511.6       0            
     52600   321.71923      492.23474      0.6216424     -17.80797       29.174897      591.88943     -107.65626     -3.9870007      0.0053909134   152359.82      0            
     52700   260.71179      507.98682     -1.3733936     -15.590138      37.862724      600.91757     -108.7956      -5.0343477      0.005463887    150324.96      0            
     52800   293.77849      507.15724      1.7762854     -17.570185      42.374637      592.91419     -110.27969     -2.0580052      0.0056098044   146414.84      0            
     52900   356.67187      506.66708      1.4948756     -15.89842       30.135725      603.83249     -108.6675      -4.2300812      0.0057714909   142313.07      0            
     53000   350.04089      507.82607      3.7427876     -13.274581      38.617758      600.13652     -116.53333     -4.8630916      0.0059834599   137271.51      0            
     53100   300.3634       494.92325     -0.21265862    -18.925561      31.445507      590.89767     -104.48936     -3.7923469      0.0062060128   132348.84      0            
     53200   295.33015      492.7743       2.9084635     -18.892563      23.279329      593.91625     -104.66689     -3.7702904      0.0064692946   126962.62      0            
     53300   261.33867      505.86802     -0.30942936    -20.68438       43.159369      602.27613     -113.75043     -4.8232457      0.0067388834   121883.49      0            
     53400   293.3573       510.81444     -0.55354488    -17.671629      32.673066      606.57478     -104.30789     -5.9003439      0.0070305959   116826.31      0            
     53500   308.73487      511.20106     -0.0038680131  -17.96142       35.011488      607.81403     -109.75214     -3.9070301      0.0073820904   111263.69      0            
     53600   302.01055      492.5868       2.5923833     -19.021095      28.271161      593.15287     -106.54805     -5.8604753      0.0076918145   106783.47      0            
     53700   268.60848      496.18899      0.97534542    -18.153172      36.915552      593.67461     -111.77955     -5.4437989      0.0080002174   102667.04      0            
     53800   287.55009      508.89673      0.22759505    -7.2140727      35.103529      593.858       -109.01264     -4.0656898      0.0082939444   99031.121      0            
     53900   298.52489      513.83787     -0.16314886    -10.824271      36.649327      598.58837     -105.59855     -4.8138519      0.0085456895   96113.79       0            
     54000   325.45396      503.45703     -2.5461752     -15.886775      44.030616      592.7728      -110.29524     -4.6181998      0.0087452338   93920.715      0            
     54100   285.94386      503.07458      1.0418757     -12.993968      33.027412      585.28258     -100.18298     -3.1003385      0.0088488204   92821.255      0            
     54200   248.00712      490.80351     -0.022100811   -20.937389      31.737194      592.90657     -108.92346     -3.9573057      0.0088562473   92743.414      0            
     54300   278.55689      499.38125      0.61681585    -10.157369      29.7069        605.66876     -120.46864     -5.9852181      0.0088707194   92592.108      0            
     54400   312.84973      503.91323      2.1318089     -9.4412122      33.347969      591.35165     -108.12916     -5.347819       0.0088945471   92344.062      0            
     54500   328.84886      498.12869     -2.4795032     -15.589744      29.985294      589.3083      -99.322849     -3.7728127      0.0088823615   92470.748      0            
     54600   301.25931      504.0931      -1.3127521     -15.61766       34.764464      615.45008     -123.61044     -5.5805933      0.008887542    92416.847      0            
     54700   289.88715      488.80263      1.5612854     -20.816229      28.830174      589.48049     -105.96983     -4.2832535      0.0089489836   91782.335      0            
     54800   257.28387      488.39247     -1.6738844     -17.999113      33.15263       588.6601      -109.57224     -4.1750271      0.0089590164   91679.552      0            
     54900   275.91452      491.76624      2.8409872     -19.193241      25.646641      595.15506     -107.32946     -5.3537517      0.0090119096   91141.462      0            
     55000   277.26687      504.92969      1.6445928     -13.952501      29.955951      607.26754     -116.12671     -3.8591851      0.0090591271   90666.418      0            
     55100   321.61704      497.56812      0.68365668    -17.751116      30.431922      598.52076     -108.81437     -5.5027317      0.0091387304   89876.665      0            
     55200   320.17539      500.09212      2.3763372     -20.038928      29.63391       608.55427     -115.26705     -5.1664247      0.0091937776   89338.534      0            
     55300   269.79231      509.84642      3.5910689     -16.521199      29.962854      610.26902     -112.26029     -5.1950298      0.0092797251   88511.093      0            
     55400   259.54148      500.01957      1.1599481     -19.90216       33.646868      603.14428     -114.36582     -3.66355        0.0093430356   87911.321      0            
     55500   239.52973      499.9899       2.768679      -17.072007      30.207855      604.15033     -114.80081     -5.2641417      0.0094195415   87197.302      0            
     55600   299.00038      498.79019      2.1402149     -15.343417      32.021781      583.28708     -98.758217     -4.5572536      0.0095453575   86047.967      0            
     55700   294.45584      508.24104      4.7712115     -15.965384      36.826572      616.32905     -127.86928     -5.8511225      0.009621648    85365.689      0            
     55800   296.11047      506.12366      1.8482593     -16.861568      29.576106      609.83206     -112.5759      -5.695292       0.0097334009   84385.573      0            
     55900   326.2313       494.0623       2.0342016     -18.635549      25.268044      596.2837      -105.66118     -5.2269227      0.0098509811   83378.356      0            
     56000   289.7696       496.98566      2.4743069     -16.79619       28.771838      592.9796      -106.4681      -3.9757847      0.0099618547   82450.371      0            
     56100   291.94605      490.39588     -0.35206095    -18.102193      27.013826      600.75427     -114.17765     -4.7403169      0.010062131    81628.696      0            
     56200   262.40609      496.30454      0.13796701    -16.805045      33.975717      599.05573     -113.64393     -6.4159006      0.010241145    80201.833      0            
     56300   273.32751      507.68281      1.7122791     -17.967316      36.987836      589.33927     -99.554414     -2.8348412      0.010373065    79181.862      0            
     56400   293.96963      509.14909     -0.094221405   -18.077603      39.340022      609.46194     -115.89819     -5.5828563      0.010520174    78074.621      0            
     56500   315.21551      502.66523      0.2639641     -19.07485       33.912116      610.23427     -118.37105     -4.2992212      0.010661626    77038.772      0            
     56600   305.07591      491.96387      3.3218826     -18.130109      30.142918      576.56346     -96.300869     -3.6334124      0.010868424    75572.93       0            
     56700   258.66257      496.32274      0.84662866    -17.274008      31.561408      597.2255      -111.7431      -4.2936937      0.011000645    74664.583      0            
     56800   270.34245      500.19616     -0.20008844    -17.749492      28.570958      598.61986     -105.6051      -3.4399735      0.01122145     73195.408      0            
     56900   329.78524      504.89631      3.0590402     -16.919339      28.283223      587.8526      -93.292899     -4.086316       0.011459447    71675.239      0            
     57000   287.91989      509.60615      1.0103692     -18.37528       40.048046      604.22593     -112.47768     -4.8252323      0.011723252    70062.349      0            
     57100   291.61803      497.91373      3.8693978     -18.39086       32.74972       597.89585     -113.12154     -5.0888354      0.011988988    68509.418      0            
     57200   271.06369      497.1424       2.4487343     -17.139197      33.402059      592.20954     -109.72577     -4.0529679      0.012271395    66932.783      0            
     57300   296.39218      495.1059      -0.77936099    -15.792177      24.816588      601.22612     -110.0472      -4.3180673      0.012528985    65556.677      0            
     57400   314.76195      506.62251      2.3219498     -16.318747      33.203367      618.68719     -125.64855     -5.6226939      0.012912004    63612.015      0            
     57500   346.91386      503.78465      0.45061495    -16.602865      35.49851       598.9693      -109.8671      -4.6638104      0.013293112    61788.287      0            
     57600   322.37731      502.46662     -0.22786316    -15.404307      39.139198      591.49331     -107.22481     -5.308908       0.013556569    60587.497      0            
     57700   296.81959      502.48104      2.7146308     -17.222351      29.088051      618.54826     -125.1449      -5.5026592      0.013967132    58806.533      0            
     57800   300.20079      499.34501      2.3655514     -16.70017       34.164285      590.29628     -106.24378     -4.5371514      0.014245268    57658.347      0            
     57900   294.52048      500.74619      2.3514338     -16.611754      32.952616      593.57013     -107.72549     -3.7907448      0.014558751    56416.831      0            
     58000   307.64161      502.98501      3.2961434     -16.246488      31.82747       616.91453     -126.97126     -5.8353856      0.014843319    55335.241      0            
     58100   334.52071      505.65183      3.4331182     -15.908622      31.667654      603.40511     -111.39234     -5.5530957      0.015238352    53900.752      0            
     58200   328.06323      506.54546      3.2082645     -14.736904      33.516852      599.08714     -109.42431     -5.1055849      0.015494529    53009.589      0            
     58300   303.76062      494.65282      1.1347335     -16.896281      28.763367      608.68886     -119.86721     -7.1706397      0.015837198    51862.621      0            
     58400   264.54538      500.1999       1.823672      -18.068596      30.248166      600.14372     -110.32603     -3.621031       0.016192354    50725.09       0            
     58500   303.34304      495.03391     -1.256053      -16.809108      28.149536      597.98541     -107.7468      -5.2890729      0.016485625    49822.717      0            
     58600   339.81416      495.75109     -0.76427408    -17.460118      33.16509       597.05824     -111.05716     -5.1906891      0.016844408    48761.501      0            
     58700   369.90537      508.93313      0.6997383     -16.013474      36.809663      604.11973     -112.42486     -4.2576705      0.017206575    47735.161      0            
     58800   331.65183      522.10774      2.475137      -17.698876      44.556502      603.62604     -107.11516     -3.7359085      0.01740876     47180.766      0            
     58900   326.81022      499.36117      2.9459085     -17.254604      34.32633       597.17003     -112.44841     -5.3780863      0.017625966    46599.352      0            
     59000   269.18354      507.23099      1.8016034     -14.868646      34.130008      604.16401     -112.57076     -5.4252247      0.017912131    45854.879      0            
     59100   267.0178       503.79162      0.88151269    -17.316205      39.052007      585.9445      -101.33872     -3.4314711      0.018148739    45257.063      0            
     59200   298.98686      496.32894      4.6449581     -18.034584      34.689594      595.16298     -114.85571     -5.2782899      0.018478344    44449.796      0            
     59300   292.95956      503.55931      3.0157564     -18.976602      33.983584      598.42096     -107.39908     -5.4853123      0.018796431    43697.584      0            
     59400   344.36655      500.04389     -0.090968437   -18.002196      26.578823      604.13131     -108.42407     -4.1490069      0.01915506     42879.46       0            
     59500   373.63138      493.25338      3.5356629     -18.223299      31.622922      590.33279     -109.03624     -4.9784504      0.019430058    42272.576      0            
     59600   289.3694       496.1412      -0.12178793    -15.431801      23.446013      605.94108     -111.68949     -6.0028164      0.019817386    41446.365      0            
     59700   313.73357      488.89748     -0.3161555     -15.379612      30.258025      591.90045     -112.84481     -4.7204176      0.020239441    40582.081      0            
     59800   311.01382      494.47426      1.5272759     -17.675823      28.156033      588.21902     -101.73325     -4.018984       0.020801739    39485.093      0            
     59900   285.86552      510.5082       2.52286       -18.005865      35.083288      606.60514     -109.88882     -5.808405       0.021585124    38052.069      0            
     60000   345.54819      501.26796      2.4557155     -16.813051      33.954636      598.35082     -112.52964     -4.1505111      0.022206923    36986.602      0            
     60100   271.59666      500.2431      -0.29435415    -15.352301      26.061742      596.60465     -101.07034     -5.7063042      0.022953322    35783.867      0            
     60200   272.61307      493.37036      3.952316      -18.234286      27.604452      603.33866     -118.16481     -5.1259771      0.023903244    34361.805      0            
     60300   274.97351      502.07146      1.8035862     -18.122038      28.233514      614.49449     -118.29466     -6.0434326      0.024767756    33162.415      0            
     60400   338.7654       498.956        1.433691      -15.959508      31.751328      596.5973      -111.38334     -3.4834691      0.025617418    32062.506      0            
     60500   339.70714      498.79565      1.9647294     -16.551246      25.835903      606.56752     -112.57945     -6.4418018      0.026565483    30918.264      0            
     60600   269.06545      501.87853      1.401384      -16.6846        34.050086      596.97284     -108.98286     -4.8783237      0.027263704    30126.45       0            
     60700   225.27933      502.3844       3.9144673     -17.634224      35.153022      606.26489     -119.48678     -5.8269694      0.02820331     29122.774      0            
     60800   249.64419      500.43809      0.69890186    -17.376396      26.390549      606.4354      -111.22028     -4.4900867      0.028909678    28411.199      0            
     60900   269.36428      501.80194      2.3011897     -16.565515      31.384156      602.1623      -111.60597     -5.8742247      0.029639044    27712.048      0            
     61000   314.92232      499.19314      1.4036273     -18.867237      31.710917      599.43162     -109.17936     -5.3064273      0.030553808    26882.365      0            
     61100   336.07821      497.43664      4.924664      -19.295347      28.918632      601.62609     -113.45094     -5.2864503      0.031161456    26358.159      0            
     61200   308.82488      492.05302      0.39373473    -17.826797      28.006186      598.20776     -111.9557      -4.7721611      0.031696571    25913.17       0            
     61300   257.01312      493.88258     -0.011115115   -16.941217      24.731399      587.02803     -97.222236     -3.702276       0.032096307    25590.439      0            
     61400   275.49264      494.3544       2.008621      -17.759862      28.219268      604.48098     -118.03922     -4.5553834      0.032549982    25233.766      0            
     61500   287.33784      500.31577      0.15940288    -18.794911      30.541621      603.60146     -110.44835     -4.7434498      0.032894018    24969.847      0            
     61600   335.64921      494.2014      -0.90572254    -17.227703      29.157975      602.20093     -114.41454     -4.6095305      0.033149196    24777.633      0            
     61700   325.95799      496.76356      0.40783087    -15.54869       30.314001      598.35752     -111.12756     -5.6395439      0.03344188     24560.779      0            
     61800   271.21785      501.58857     -0.63207882    -17.948385      36.044632      605.03171     -116.1043      -4.8030133      0.033450606    24554.372      0            
     61900   249.80843      491.42549     -1.0939806     -17.8415        24.804896      594.4307      -104.82477     -4.0498549      0.033418784    24577.753      0            
     62000   237.28634      497.08848      1.3660923     -14.730052      33.980475      583.65294     -103.50109     -3.6798879      0.033498292    24519.417      0            
     62100   292.8079       496.95101      0.65340718    -15.425527      30.826347      598.16068     -112.7169      -4.5469926      0.033410152    24584.103      0            
     62200   291.15978      502.32255      0.53929381    -16.499654      36.640408      605.8342      -120.30676     -3.8849415      0.033295363    24668.859      0            
     62300   269.97537      508.60041      0.51316176    -17.181066      33.407025      593.79785     -99.211325     -2.7252352      0.033195743    24742.89       0            
     62400   275.31709      507.34808      1.4695598     -15.389656      37.586906      593.2286      -105.17719     -4.3701406      0.032694504    25122.223      0            
     62500   269.59456      500.33019      0.99097161    -16.659535      30.732542      600.30564     -111.59225     -3.4471832      0.032330692    25404.919      0            
     62600   231.70211      502.37529      1.069326      -15.897171      38.109458      594.26238     -111.42187     -3.7468196      0.031960609    25699.091      0            
     62700   272.70535      495.54661      1.1742096     -16.770288      30.483554      596.28848     -110.01831     -5.6110405      0.03139798     26159.6        0            
     62800   300.46963      505.84528      2.1760382     -14.915726      32.755945      596.62612     -107.44587     -3.3512212      0.030830923    26640.74       0            
     62900   315.89959      503.94116     -1.0871025     -16.141294      32.849819      609.8555      -116.99606     -4.5397001      0.030243364    27158.308      0            
     63000   298.52676      503.08079      2.8006935     -14.700611      29.082376      594.82565     -105.42986     -3.4974577      0.029722957    27633.812      0            
     63100   296.53681      495.67945      1.559994      -16.459358      27.302625      604.49092     -116.15414     -5.0605998      0.02890585     28414.962      0            
     63200   246.4738       504.22499      0.76012347    -19.350554      34.788518      606.17152     -115.05886     -3.0857531      0.028081333    29249.274      0            
     63300   349.50596      497.78258      2.5079064     -16.582729      26.076027      603.79031     -113.21561     -4.7933257      0.026992822    30428.778      0            
     63400   336.13587      508.83344     -1.3842274     -15.697142      39.268839      597.52909     -105.83951     -5.0436029      0.025860427    31761.216      0            
     63500   322.05461      499.36916      2.139479      -15.776162      31.860856      602.42966     -116.24164     -5.0430431      0.025063675    32770.878      0            
     63600   278.91862      496.47684      3.8341581     -19.385523      29.254605      598.15115     -111.05302     -4.3245274      0.024173861    33977.138      0            
     63700   276.97442      499.50566      0.48806007    -13.942851      24.239053      602.90356     -109.12858     -5.0535861      0.02332004     35221.15       0            
     63800   316.75956      496.20267      2.7484682     -17.740729      33.046281      592.88178     -109.51333     -5.2197961      0.022515031    36480.456      0            
     63900   337.61374      504.5638       4.1577213     -15.316785      27.655725      595.8684      -104.29655     -3.5047176      0.021617625    37994.859      0            
     64000   325.14141      505.64927     -0.50592629    -13.586359      31.419832      605.74571     -113.11996     -4.3040247      0.020928704    39245.556      0            
     64100   324.76114      499.46803     -0.13735823    -15.305724      29.040219      577.81081     -89.292352     -2.6475677      0.020439781    40184.316      0            
     64200   350.95512      487.77586      1.4790769     -16.344806      29.484909      583.4739      -104.94062     -5.3766022      0.01996647     41136.897      0            
     64300   298.53471      495.71953     -0.37745491    -12.996535      29.410982      607.93573     -122.45914     -5.7940579      0.019614848    41874.329      0            
     64400   292.3522       495.24168      3.7945416     -15.630209      33.006093      589.35869     -110.96006     -4.3273829      0.019302041    42552.94       0            
     64500   336.71533      501.34517      0.72255017    -13.296037      30.964281      605.58766     -116.72934     -5.9039479      0.018924829    43401.111      0            
     64600   372.63183      500.41619     -1.1872259     -15.350888      28.64855       604.97448     -111.28055     -5.3881658      0.01846966     44470.695      0            
     64700   322.31638      502.63233      1.9733765     -14.783231      38.011721      595.64368     -113.67498     -4.538238       0.018241305    45027.405      0            
     64800   315.16456      491.5145       3.0030666     -19.384092      30.270179      595.653       -112.67315     -5.3544976      0.018038313    45534.115      0            
     64900   284.14034      498.93741      2.2644552     -18.193001      29.545689      608.6812      -117.8805      -5.4804413      0.017794502    46158          0            
     65000   335.27932      490.13234      2.1766456     -17.940723      28.062684      590.52081     -108.84891     -3.8381677      0.017604105    46657.221      0            
     65100   288.78573      504.39265      2.223293      -17.391428      29.432759      610.73272     -114.86252     -5.7421692      0.017356709    47322.256      0            
     65200   318.05289      514.16686      3.7912792     -14.833481      36.118172      610.31698     -116.57901     -4.6470875      0.017112267    47998.236      0            
     65300   359.68039      511.40361      3.7797435     -15.15559       30.651141      586.42057     -91.045552     -3.2467046      0.016972663    48393.03       0            
     65400   327.28587      500.60161      2.1606003     -17.32423       38.354234      601.27922     -117.74587     -6.1223517      0.01667244     49264.452      0            
     65500   293.77445      502.71205      3.2529858     -15.191656      33.592425      602.95687     -117.64633     -4.2522402      0.016330931    50294.66       0            
     65600   270.589        501.7658       0.71892601    -17.086523      23.101138      600.67529     -101.10662     -4.5364116      0.01615412     50845.148      0            
     65700   297.32759      496.21035     -1.0471737     -16.481898      30.116545      600.37543     -112.55373     -4.1988179      0.015816048    51931.975      0            
     65800   299.66317      505.7329       3.3147029     -15.613166      33.952057      610.92808     -120.27895     -6.5698245      0.015578802    52722.835      0            
     65900   344.44085      504.04888      4.8819952     -18.323586      31.894248      610.48985     -119.89151     -5.0021178      0.015455761    53142.555      0            
     66000   295.22262      510.31143      4.9409297     -15.866274      34.169726      592.55143     -102.17583     -3.3085579      0.015133111    54275.594      0            
     66100   293.4612       496.60703      5.4383042     -16.203833      26.966255      607.19201     -120.59275     -6.1929522      0.014820599    55420.07       0            
     66200   286.03355      496.70672     -0.20992465    -16.55778       30.766569      600.21248     -113.41081     -4.0938197      0.014490684    56681.838      0            
     66300   282.66199      504.61953      4.8201254     -16.111933      32.038618      593.42067     -104.51008     -5.0378705      0.014202446    57832.196      0            
     66400   332.21948      500.44476      1.7363989     -18.14707       34.033929      608.72381     -119.86254     -6.0397566      0.013953947    58862.098      0            
     66500   334.0307       498.17569      1.7042892     -18.564581      22.13354       600.29084     -102.98279     -4.4056108      0.013609905    60350.06       0            
     66600   273.2472       501.72244      4.0176238     -16.751494      31.434149      597.8061      -109.4459      -5.3380332      0.013265358    61917.562      0            
     66700   265.40657      497.45834      1.8339076     -14.699829      26.431412      595.5644      -105.70737     -5.9641835      0.012949443    63428.103      0            
     66800   276.4668       500.81077      3.7677031     -18.398696      32.468946      606.16625     -119.38848     -3.8049495      0.012753939    64400.388      0            
     66900   339.48733      498.23687      4.3258485     -17.34393       26.668097      603.06516     -112.67628     -5.8020272      0.012506967    65672.086      0            
     67000   278.9167       512.02168      4.1310489     -16.406625      36.734845      609.80643     -116.16805     -6.0759631      0.012234162    67136.484      0            
     67100   292.70611      503.74384      5.0352058     -16.508002      35.174925      600.31641     -115.9751      -4.2995995      0.012015224    68359.823      0            
     67200   288.38488      497.96022     -0.18244023    -16.909474      24.766879      598.79408     -104.75026     -3.7585652      0.011754363    69876.911      0            
     67300   292.31947      496.96471      0.99424677    -17.157347      32.023684      605.45173     -118.32926     -6.0183375      0.01151373     71337.318      0            
     67400   321.98342      509.3305       4.9409393     -15.150271      31.4275        597.17626     -104.36195     -4.7019781      0.011299863    72687.485      0            
     67500   328.23792      510.27549      3.6693377     -15.570117      30.881205      606.8378      -111.43308     -4.1096606      0.011145107    73696.787      0            
     67600   309.38078      501.77824      4.3153072     -15.915502      31.346705      612.44079     -124.02918     -6.3798786      0.010886674    75446.238      0            
     67700   275.44879      501.29416      3.3876959     -16.648935      27.484895      597.84644     -106.77199     -4.0039492      0.010699236    76767.967      0            
     67800   276.37748      500.75915     -2.2038043     -15.68786       26.359952      601.4325      -105.45295     -3.688691       0.010459152    78530.135      0            
     67900   344.98061      493.00827      2.9847336     -16.187642      27.083658      598.66027     -115.22916     -4.3035872      0.010357042    79304.36       0            
     68000   350.87072      506.06846      1.4862925     -16.805721      32.851527      603.22149     -109.97233     -4.7128069      0.010299151    79750.129      0            
     68100   385.71556      513.6906      -0.032887645   -18.840839      35.206098      595.79845     -96.012206     -2.4280148      0.010153599    80893.346      0            
     68200   374.11126      500.13004      2.7913948     -16.482914      28.61648       606.40396     -117.42836     -3.7705139      0.010018295    81985.864      0            
     68300   288.82858      506.47401      2.1098295     -15.924941      28.840897      601.09618     -105.52293     -4.1250239      0.0099306117   82709.77       0            
     68400   305.75211      495.44821     -3.3293345     -17.175781      27.550502      598.17819     -105.48945     -4.2859272      0.009885242    83089.378      0            
     68500   281.63025      499.28262      3.040235      -16.388173      31.035879      596.17245     -110.00945     -4.5683206      0.0098127675   83703.054      0            
     68600   296.83135      497.0603      -0.017266293   -18.335898      26.55345       615.14328     -121.49484     -4.7884284      0.0098156447   83678.519      0            
     68700   323.61168      503.57045      0.94759871    -18.383121      32.956432      597.35572     -105.79026     -3.5159236      0.009732558    84392.881      0            
     68800   313.05773      510.94585      0.18602079    -16.817271      40.748219      603.63426     -111.76828     -5.0371032      0.0096527811   85090.359      0            
     68900   302.84572      500.89902     -2.4799915     -17.672545      35.104396      612.46727     -121.27478     -5.2453283      0.0096053384   85510.637      0            
     69000   266.19632      496.59012      3.4069036     -16.881393      27.391915      590.65854     -104.11046     -3.8753841      0.009593978    85611.892      0            
     69100   265.11095      500.13228     -1.9664823     -18.484225      30.004464      610.52116     -114.92641     -5.0162242      0.0095507789   85999.123      0            
     69200   338.8455       492.11006      1.2941311     -18.764174      29.325318      588.45218     -103.82128     -4.3761137      0.009568696    85838.093      0            
     69300   294.84805      509.25304      5.9296003     -16.604372      35.001345      599.64251     -109.27464     -5.4413917      0.0095158449   86314.838      0            
     69400   302.72019      504.66299     -0.59372218    -17.172663      29.141         604.15187     -105.83644     -5.0270587      0.0094344941   87059.105      0            
     69500   294.13578      489.38182     -1.085559      -16.353534      23.674872      594.0192      -105.56692     -5.3062414      0.0094039048   87342.293      0            
     69600   233.09373      502.22801     -0.28228663    -15.635727      34.645679      601.51416     -113.66118     -4.3526313      0.0093745823   87615.489      0            
     69700   292.27132      499.59233     -1.2440667     -15.332666      24.462603      614.55203     -117.93274     -4.912819       0.0093293982   88039.827      0            
     69800   326.45245      499.89236      0.50834003    -16.832762      27.71257       610.37068     -116.04666     -5.8198136      0.0093023881   88295.457      0            
     69900   345.35316      496.22571     -2.6515047     -14.096354      27.508274      592.56884     -104.12732     -2.9762288      0.0092620551   88679.953      0            
     70000   296.98285      503.52977      1.6290525     -15.930441      29.904578      605.54251     -112.59839     -5.0175491      0.0091979906   89297.614      0            
     70100   299.09219      493.50356      1.0579433     -17.973686      26.800785      596.81799     -110.74437     -2.4550953      0.0091663685   89605.672      0            
     70200   265.28094      489.17677      0.6336396     -17.266484      28.812099      578.89455     -98.475864     -3.4211713      0.0091658029   89611.201      0            
     70300   252.42856      500.36467      3.0628651     -15.551072      35.896697      591.83806     -110.94951     -3.932376       0.0090985564   90273.508      0            
     70400   280.8867       504.03515      0.12387505    -17.259502      31.962775      604.93271     -112.62261     -3.1020969      0.0090352482   90906.037      0            
     70500   278.55177      509.08364     -0.87438899    -16.916983      37.309282      602.30313     -110.01112     -2.7262782      0.0089931213   91331.873      0            
     70600   316.46853      501.10754      1.2039017     -15.820146      37.418167      586.14082     -102.95218     -4.883019       0.008920924    92071.024      0            
     70700   285.53754      502.54739      5.4981338     -15.578197      30.228867      608.36784     -122.9895      -2.9797493      0.0088442541   92869.179      0            
     70800   252.03959      498.28094     -1.2428311     -15.807694      25.157794      598.09297     -103.93153     -3.987768       0.0088293001   93026.468      0            
     70900   256.10752      497.80709      0.082646358   -15.711388      35.836685      583.37199     -102.87948     -2.8933651      0.0087133182   94264.733      0            
     71000   310.37018      500.82584      1.8474627     -16.82322       30.79541       603.04696     -112.08585     -5.9549125      0.0086438088   95022.765      0            
     71100   278.51374      509.47167      0.22651295    -18.24955       38.556792      604.20018     -110.86177     -4.400499       0.0085424768   96149.937      0            
     71200   258.05247      512.02008      0.8038723     -17.752782      38.374176      597.57788     -103.3638      -3.6192632      0.0084774366   96887.615      0            
     71300   287.88832      493.81155     -0.25236669    -22.237611      28.770523      605.49587     -111.73783     -6.2270438      0.0084253287   97486.833      0            
     71400   248.40913      498.60255      2.7432363     -18.633893      28.781745      602.28729     -112.2642      -4.311638       0.0083458285   98415.467      0            
     71500   253.66897      501.39334      0.51762755    -16.124732      32.892092      602.39773     -114.11795     -4.1714229      0.0082311669   99786.412      0            
     71600   323.73783      500.38922      2.43994       -19.797035      39.330536      588.47518     -106.49068     -3.5687215      0.008131211    101013.07      0            
     71700   304.84503      515.10562      4.5781601     -10.954027      39.251161      596.4616      -109.93488     -4.2964042      0.0080075623   102572.86      0            
     71800   301.2796       506.0554       1.0082566     -12.099522      35.771798      595.76453     -110.24097     -4.1486978      0.0078549878   104565.23      0            
     71900   256.88086      499.91334      2.1651738     -17.903234      32.616949      586.82275     -99.726461     -4.0618334      0.007737641    106151.04      0            
     72000   264.82178      495.72468     -0.33954821    -21.41746       31.207856      596.20502     -106.33349     -3.5976933      0.0076024977   108037.99      0            
     72100   292.00704      502.81952      0.14211595    -21.088432      28.030149      600.29303     -101.51015     -3.0471911      0.0074572251   110142.66      0            
     72200   329.60751      517.9497      -1.0601901     -11.487609      34.739952      602.67776     -102.93433     -3.9858842      0.0072701335   112977.1       0            
     72300   308.75908      511.08633      2.117722      -14.492114      31.782248      594.61005     -99.274335     -3.6572421      0.0071393958   115045.96      0            
     72400   279.35309      506.03746      0.027334572   -12.702458      26.761402      603.56802     -107.48965     -4.127186       0.0069620048   117977.31      0            
     72500   264.30329      503.11736      1.6673051     -15.536682      36.567133      599.57716     -114.12055     -5.0370016      0.0067934521   120904.45      0            
     72600   273.01287      507.76337      1.683207      -12.990013      40.023187      599.07633     -115.09168     -4.9376592      0.0066261306   123957.5       0            
     72700   357.58808      499.31796     -1.7418105     -19.580444      28.006761      597.30493     -101.33018     -3.3412988      0.0064589213   127166.53      0            
     72800   348.90747      500.25489      1.1433659     -21.888868      32.187903      615.6345      -120.80198     -6.0200355      0.0063264177   129829.97      0            
     72900   334.16132      496.14557      0.89434539    -19.154315      30.06504       602.01608     -113.02749     -4.6480866      0.0061884708   132724         0            
     73000   303.43284      498.34617     -0.89976717    -18.611658      31.51481       589.65365     -98.60395      -4.7069108      0.0060452371   135868.72      0            
     73100   290.73208      502.31326      1.02065       -16.72374       37.444403      606.57897     -120.85504     -5.1519845      0.0059078008   139029.5       0            
     73200   288.48914      501.3819       0.67594582    -16.527861      29.127652      606.74931     -113.44334     -5.1998026      0.0058268463   140961.09      0            
     73300   288.87908      508.87127      0.16436044    -15.871639      37.09716       599.51012     -106.63867     -5.3900535      0.0056891034   144374         0            
     73400   319.70051      511.4272      -0.21238472    -15.210273      31.07018       613.44824     -112.32607     -5.3424911      0.0056009164   146647.18      0            
     73500   310.3878       506.08204      1.6987332     -19.799         40.563125      608.40571     -119.89365     -4.8928814      0.0055072081   149142.47      0            
     73600   288.47367      497.8389       1.9385361     -17.653172      30.434417      596.54924     -108.42959     -5.0005379      0.0054192581   151562.92      0            
     73700   278.4414       498.19324     -0.7546025     -17.150177      34.797786      591.27934     -104.95296     -5.026138       0.0053223295   154323.14      0            
     73800   287.53891      500.87719      2.3147988     -15.123085      22.81509       603.94891     -108.37749     -4.7010367      0.0052384403   156794.5       0            
     73900   286.88718      511.90639     -0.76696228    -14.071436      40.885325      604.6838      -113.84642     -4.9779183      0.005178039    158623.49      0            
     74000   332.3846       508.10906      1.8147696     -17.171758      27.404981      607.2451      -105.29221     -5.8918271      0.0050882026   161424.12      0            
     74100   367.81265      503.18568      2.8145525     -19.985259      30.211809      612.82093     -117.54076     -5.1355937      0.0050025798   164187.01      0            
     74200   298.36439      503.7631       0.4185514     -19.148873      31.050832      622.65017     -125.52147     -5.6861102      0.004847255    169448.19      0            
     74300   298.68224      497.10042     -1.2429269     -15.331779      29.658398      591.73071     -102.7574      -4.9565842      0.0046752088   175683.84      0            
     74400   327.19798      490.88196     -0.88056466    -16.266088      33.261847      582.42886     -103.83994     -3.8221487      0.0045146173   181933.16      0            
     74500   297.99942      505.03737     -0.64388314    -13.902006      34.699958      603.95815     -113.46271     -5.6121471      0.0043530104   188687.49      0            
     74600   361.11928      501.53195      0.84722722    -19.262526      34.763007      622.17769     -131.18161     -5.8118325      0.0042060992   195277.99      0            
     74700   334.75004      508.47192      4.0707439     -17.83428       39.434477      593.07423     -105.22336     -5.0498923      0.0041454012   198137.3       0            
     74800   328.95816      500.87074      0.4517422     -19.47501       30.937869      620.99606     -126.42823     -5.6116996      0.0040799274   201316.97      0            
     74900   302.27968      505.60431      5.6204674     -16.716384      34.285926      593.64068     -107.72874     -3.4976508      0.0040252762   204050.25      0            
     75000   283.89203      504.49843      2.654991      -17.717838      33.426031      602.79937     -110.16224     -6.5018724      0.004019619    204337.43      0            
     75100   265.31855      506.69865     -0.0076981784  -14.631826      37.244291      591.52583     -103.46602     -3.9659215      0.0039889111   205910.48      0            
     75200   282.65599      503.00831      3.5177206     -14.430829      31.651705      603.57551     -116.37851     -4.927289       0.0039897871   205865.27      0            
     75300   330.37173      501.18369     -1.0424726     -18.755796      32.958561      593.19464     -102.04521     -3.1260274      0.0039539222   207732.62      0            
     75400   347.99036      505.14796     -0.050954453   -16.84234       40.432573      597.30084     -109.0256      -6.6665603      0.0039343208   208767.58      0            
     75500   296.74641      510.38212     -0.75644825    -16.47297       39.005403      612.79671     -119.14439     -5.0461861      0.0039527      207796.85      0            
     75600   264.16709      502.91628      4.4567181     -19.114488      30.483092      605.11171     -112.67993     -5.3408229      0.0039768826   206533.28      0            
     75700   289.62265      498.87469      2.4866925     -18.726641      36.000325      604.36189     -120.75571     -4.4918683      0.0039780361   206473.39      0            
     75800   314.11596      499.85277     -0.92724586    -14.817187      21.356737      610.23843     -110.74813     -5.2498372      0.0039980764   205438.45      0            
     75900   308.89011      507.28845      1.7293669     -16.969294      30.124347      609.08778     -112.20842     -4.4753295      0.0040338712   203615.48      0            
     76000   281.88058      508.38775      2.128036      -20.791151      33.941189      609.68655     -111.32562     -5.251256       0.0040954405   200554.4       0            
     76100   259.2893       501.83746      3.1215323     -18.216317      28.264109      606.0666      -110.69384     -6.7046262      0.004140646    198364.85      0            
     76200   254.14162      497.63779      3.0081032     -16.453622      27.181892      587.32906     -100.63323     -2.7944144      0.0041877564   196133.33      0            
     76300   302.50149      496.08674      0.61519117    -19.350362      35.540278      605.5316      -121.22845     -5.021514       0.0042119908   195004.85      0            
     76400   298.52107      508.57734      2.1496378     -17.371116      43.646006      587.20068     -103.1137      -3.9341721      0.0042510426   193213.45      0            
     76500   327.1886       502.46872      1.2613333     -16.150366      35.313898      596.867       -109.74145     -5.0817024      0.0043029291   190883.6       0            
     76600   332.02406      497.40903     -1.1521606     -16.937283      29.552192      602.22515     -112.89538     -3.3834847      0.0043640483   188210.25      0            
     76700   262.59558      501.25463     -0.32006663    -15.133388      34.50339       602.05489     -114.92004     -4.9301559      0.0044254686   185598.11      0            
     76800   244.78994      494.99918      0.76008613    -18.523198      30.572727      597.38958     -110.89088     -4.3091305      0.0045065367   182259.39      0            
     76900   251.32668      503.62022     -0.81637507    -16.717358      35.572095      602.39139     -112.41138     -4.3981503      0.0045604414   180105.07      0            
     77000   285.34851      502.96391      2.1290466     -19.680768      27.501107      619.17209     -121.26447     -4.8930944      0.0046422261   176932.05      0            
     77100   297.64902      506.25778      3.7946759     -19.245651      34.819689      595.54671     -106.49459     -2.1630407      0.0046961464   174900.55      0            
     77200   336.23696      505.17904      4.0995408     -15.620802      33.202291      603.35078     -114.52611     -5.3266588      0.0047115575   174328.47      0            
     77300   333.68414      503.69489      2.4513061     -17.02689       33.100513      599.28782     -110.85661     -3.2612597      0.0047257373   173805.39      0            
     77400   284.47391      497.8022       0.8213843     -17.585834      35.282575      594.18248     -110.35731     -4.541092       0.0047580522   172624.97      0            
     77500   258.81254      499.75179      2.0677732     -17.670979      33.572515      586.48574     -100.97424     -3.7290244      0.0047958967   171262.78      0            
     77600   302.69054      498.54714     -0.99531603    -15.825779      26.676177      599.77391     -106.39616     -4.6856961      0.0048399226   169704.91      0            
     77700   311.08844      504.78231      0.49530197    -17.091787      43.352783      598.78282     -116.0039      -4.7529107      0.0049018369   167561.39      0            
     77800   335.33729      498.72459      2.7262388     -18.439454      31.395817      593.98184     -105.51451     -5.4253446      0.0049876249   164679.31      0            
     77900   300.64007      502.07993      1.7690508     -19.242017      34.769824      597.66229     -109.25172     -3.6274976      0.0050417382   162911.79      0            
     78000   298.31731      500.20819     -1.2033275     -16.685641      28.997278      602.66748     -108.43128     -5.1363129      0.0051225662   160341.24      0            
     78100   244.83591      501.90178     -0.43323698    -17.062594      31.415692      603.27475     -110.96808     -4.3247591      0.0051644371   159041.27      0            
     78200   273.31166      491.99334     -1.516674      -18.538229      28.973072      604.29045     -116.02948     -5.185802       0.0052370014   156837.58      0            
     78300   285.30982      503.3846      -0.28986479    -17.641203      40.338748      593.25547     -107.60697     -4.6715784      0.005300825    154949.2       0            
     78400   295.9972       509.08785      1.294205      -18.439764      29.454229      605.15498     -104.65228     -3.7235127      0.0053867539   152477.47      0            
     78500   275.66591      516.28377     -0.87726642    -17.087963      44.617514      615.47446     -121.26817     -4.5747974      0.0054477847   150769.29      0            
     78600   314.44448      501.24398      6.0875015     -16.203865      30.322515      585.94527     -100.15301     -4.7544297      0.0055417769   148212.14      0            
     78700   258.10839      502.33197      2.5648438     -17.360967      32.975081      602.41617     -113.82558     -4.4375844      0.0056191082   146172.41      0            
     78800   258.14086      499.77533     -0.23872963    -16.100223      39.394243      598.49495     -116.86354     -4.911365       0.005698689    144131.15      0            
     78900   299.86898      504.72111      1.2789423     -18.279571      35.61533       603.14084     -112.2776      -4.7568379      0.0057855285   141967.78      0            
     79000   291.86887      514.43559      0.28637848    -17.723775      29.600924      622.48122     -114.35632     -5.8528343      0.0058641682   140063.96      0            
     79100   321.23988      503.36063      2.8694802     -18.320221      33.340359      596.3531      -106.36079     -4.5213047      0.0059772537   137414.05      0            
     79200   268.59663      505.57927     -3.1266326     -18.357947      39.10395       607.51444     -114.56006     -4.994479       0.0060807955   135074.2       0            
     79300   297.05601      493.40575      4.0898503     -18.325749      29.287915      588.74167     -105.9579      -4.4300301      0.0062282305   131876.72      0            
     79400   280.44762      503.89612      1.1951076     -17.501596      34.243284      603.70723     -113.18494     -4.5629715      0.0063517818   129311.53      0            
     79500   313.25612      513.89463      1.5691414     -19.35332       33.324456      613.52707     -111.08144     -4.0912745      0.0065169298   126034.59      0            
     79600   318.71317      510.50988      3.9846439     -16.479665      37.915945      600.64861     -110.7049      -4.8547488      0.0066148293   124169.28      0            
     79700   295.55991      503.54338      4.7299738     -15.986044      37.307533      585.14926     -103.49722     -4.1601239      0.0067531942   121625.2       0            
     79800   308.78405      496.01996      1.1040975     -16.052954      25.152274      603.28527     -113.59538     -3.8733427      0.0069274387   118565.99      0            
     79900   324.9398       497.25013      1.9196354     -14.563374      28.052184      588.13968     -102.80076     -3.4972361      0.007105468    115595.29      0            
     80000   305.99091      506.05816     -1.6440377     -15.523326      35.044758      613.30443     -119.84716     -5.2765021      0.0073077846   112395.02      0            
     80100   361.79055      512.6943       1.7244916     -15.031891      39.656559      607.8501      -116.05929     -5.4456607      0.0074823995   109772.09      0            
     80200   338.76346      521.93407      4.900598      -17.198573      37.283025      591.81675     -92.750666     -2.1170652      0.007685359    106873.16      0            
     80300   299.1841       514.77821     -0.52356632    -17.226601      48.138938      606.64036     -115.65596     -6.5949638      0.0078154065   105094.8       0            
     80400   296.73448      507.05775      0.87835641    -16.466209      34.145269      598.32064     -106.35263     -3.4676737      0.0080271184   102322.97      0            
     80500   310.27595      498.84463      5.0079621     -13.245111      27.676945      597.88685     -112.77153     -5.7104826      0.0081448228   100844.26      0            
     80600   320.13938      492.18643      1.5082638     -17.467013      28.505098      596.68149     -111.50845     -5.5329623      0.0082968383   98996.579      0            
     80700   275.40152      509.8433       1.4106772     -17.97556       35.185379      602.97611     -107.40045     -4.352851       0.0085164469   96443.813      0            
     80800   335.51704      512.00591     -0.48791585    -17.759419      41.217266      595.57393     -101.96677     -4.5711779      0.0087201192   94191.214      0            
     80900   300.50993      515.03064      0.31873793    -15.272435      32.689044      617.6617      -116.51315     -3.8532651      0.008864245    92659.737      0            
     81000   279.23938      507.96171      6.485318      -15.849484      30.817323      606.75183     -113.93197     -6.3113048      0.0091196472   90064.735      0            
     81100   274.5534       506.30668      2.2756019     -17.789923      35.44219       607.50088     -116.40486     -4.7172116      0.0093207136   88121.859      0            
     81200   299.56344      504.32146      4.490298      -15.144977      35.426422      587.95434     -104.78079     -3.6238373      0.0094949859   86504.458      0            
     81300   305.1577       506.31857      0.91764516    -18.608423      41.422445      611.00338     -123.64649     -4.7699911      0.0096675727   84960.169      0            
     81400   337.06305      512.47615     -2.101859      -15.773262      31.026532      604.18515     -101.16403     -3.6963818      0.0098217859   83626.198      0            
     81500   399.43042      503.14774      2.7917687     -16.453271      44.89098       583.34733     -105.9868      -5.4422631      0.010021913    81956.269      0            
     81600   312.28381      503.65585      2.2371238     -16.858031      28.77509       607.75916     -112.02584     -6.2316533      0.010257474    80074.158      0            
     81700   326.51019      493.79042      0.54149706    -17.63541       31.993924      591.5664      -108.45249     -4.2235036      0.010500171    78223.354      0            
     81800   267.90962      507.32626      2.5393648     -18.741491      32.851351      614.10919     -117.38662     -6.0455422      0.010724192    76589.321      0            
     81900   336.84504      497.52088     -0.10071017    -17.962277      35.937931      584.49991     -101.84425     -3.0097202      0.010915715    75245.517      0            
     82000   292.01915      519.09304      2.9122723     -16.905839      42.233736      607.09018     -110.42814     -5.8091748      0.011152073    73650.759      0            
     82100   372.01196      505.02764      6.4101135     -16.918576      29.184515      593.44293     -103.14366     -3.9476768      0.011359011    72308.987      0            
     82200   268.2837       509.86595     -2.7466637     -17.703188      39.649066      614.03111     -117.6606      -5.7037779      0.011603161    70787.486      0            
     82300   296.28454      497.6302       3.5239157     -17.962408      33.457079      592.5481      -109.01582     -4.9206633      0.011868608    69204.291      0            
     82400   308.699        498.04983      4.0970137     -15.282436      31.267662      589.58338     -107.63008     -3.9857158      0.012112667    67809.89       0            
     82500   352.2695       497.16017     -0.29761776    -16.177555      33.590604      608.02054     -123.21357     -4.7622337      0.012366318    66419.011      0            
     82600   313.0555       515.97397     -1.1151162     -15.967771      32.290445      607.29836     -104.28869     -2.2432477      0.012553599    65428.138      0            
     82700   332.77565      507.31154      3.2551615     -16.351133      41.400159      602.25583     -117.81406     -5.4344169      0.012812891    64104.082      0            
     82800   260.23772      503.5643       3.2368918     -16.469738      40.807598      607.86509     -127.17566     -4.6998816      0.013059694    62892.641      0            
     82900   284.31463      497.43103      0.56102023    -16.945766      28.923323      600.34031     -111.77031     -3.6775505      0.013359877    61479.504      0            
     83000   280.18569      507.85893      4.1437917     -17.526116      34.235742      609.91233     -118.01344     -4.8933797      0.013586102    60455.796      0            
     83100   313.27185      509.94943      2.5003927     -17.37124       30.775012      618.2486      -118.22371     -5.9796334      0.013825459    59409.139      0            
     83200   322.4234       507.05762     -0.66554261    -16.910074      40.400406      597.89577     -109.46012     -4.2028203      0.014071863    58368.862      0            
     83300   289.24912      500.21219      0.77938774    -16.948615      25.071188      600.49373     -104.7726      -4.4108963      0.014320149    57356.85       0            
     83400   243.62094      499.98767      1.0748763     -17.79209       36.408031      593.19394     -108.9779      -3.9191843      0.014464535    56784.308      0            
     83500   275.64817      499.27368      1.0743424     -16.767417      32.494544      604.47763     -116.54817     -5.4572524      0.014718966    55802.737      0            
     83600   293.13691      506.57813     -0.28208437    -18.99583       27.359692      613.56855     -110.61828     -4.4539176      0.014933899    54999.61       0            
     83700   293.83297      511.70054     -0.15996012    -16.896005      38.077415      595.43619     -100.46815     -4.2889487      0.015204366    54021.235      0            
     83800   279.97292      512.49671      5.3419075     -17.735693      28.750934      624.40655     -122.52474     -5.7422497      0.015501398    52986.1        0            
     83900   271.95041      499.84655      1.209757      -15.603008      26.050407      600.82033     -108.32639     -4.3045439      0.015710362    52281.331      0            
     84000   262.98114      496.83228      2.3234998     -18.067063      26.731169      594.66538     -104.03526     -4.7854436      0.015946831    51506.07       0            
     84100   318.46005      491.92277     -0.16108665    -17.680072      29.903191      609.47347     -124.30803     -5.3047006      0.016152666    50849.725      0            
     84200   285.4647       506.63359     -1.9990325     -16.450612      33.408521      598.31945     -102.65165     -3.9930841      0.016395822    50095.606      0            
     84300   338.97997      497.23859      3.3271394     -18.21114       28.43628       594.99036     -106.61231     -4.6917354      0.016677374    49249.876      0            
     84400   295.1559       506.0959       1.1289443     -18.309629      39.476943      595.85591     -108.28048     -3.7757791      0.01697008     48400.397      0            
     84500   271.40466      505.64791     -1.5260234     -17.881682      39.209652      605.34987     -114.76351     -4.740398       0.017236466    47652.38       0            
     84600   264.82708      495.52008      4.6443967     -17.219821      30.097447      585.1982      -102.85159     -4.3485518      0.017621619    46610.848      0            
     84700   288.90449      490.56779     -1.2237165     -18.25769       32.643606      590.4334      -108.74448     -4.2833369      0.017956268    45742.166      0            
     84800   277.13188      509.38346      0.93930119    -16.270221      31.206669      611.93251     -114.16623     -4.2585743      0.018415636    44601.152      0            
     84900   319.23643      502.79443      2.8024786     -17.021419      31.325999      598.47661     -109.18342     -3.6058136      0.018873734    43518.608      0            
     85000   288.15814      508.89756      0.16577376    -17.762867      39.47997       602.61992     -110.68028     -4.9249453      0.019484938    42153.515      0            
     85100   277.11055      504.96512      0.36762559    -16.549486      29.197859      603.01681     -106.97204     -4.0956489      0.020121871    40819.198      0            
     85200   284.35087      492.62582      1.6646624     -17.188321      28.954561      590.37577     -107.23839     -3.9424622      0.020896708    39305.646      0            
     85300   266.47252      493.11534      0.7058227     -16.849458      26.246076      599.86833     -110.95345     -5.9019765      0.021731582    37795.62       0            
     85400   297.92668      503.11248     -0.78945734    -17.960977      29.658293      599.63416     -103.64075     -3.788789       0.02267353     36225.441      0            
     85500   333.7524       501.03861      2.2376217     -16.9266        37.739658      598.17063     -114.97691     -5.2057856      0.023758884    34570.589      0            
     85600   304.39161      503.5837       3.8090322     -17.822231      30.246723      600.71532     -108.24234     -5.1228062      0.024792566    33129.229      0            
     85700   266.87586      504.02587      0.79883655    -18.348629      37.228766      589.55246     -100.68123     -4.5243291      0.025989116    31603.945      0            
     85800   288.14626      492.84568      2.9557186     -19.601933      28.628187      602.2552      -116.06813     -5.3233638      0.027133124    30271.436      0            
     85900   238.49152      506.95723      3.6655665     -17.50231       40.294663      593.01017     -107.34948     -5.1613689      0.028211374    29114.449      0            
     86000   349.21565      498.5036       1.0430953     -16.978754      26.706171      595.9995      -104.15496     -4.1114468      0.029182613    28145.478      0            
     86100   313.38205      510.61442      5.3961379     -16.636506      41.908741      602.49933     -116.68896     -5.8643129      0.030056766    27326.912      0            
     86200   306.44171      502.24994      4.1720014     -17.313531      34.253671      599.35629     -112.6631      -5.5553872      0.030825226    26645.664      0            
     86300   297.6544       495.17771      0.16367451    -17.698324      36.606669      598.77458     -116.3233      -6.3455931      0.031308118    26234.684      0            
     86400   301.84874      493.90499     -1.0379292     -16.504909      27.485043      593.9129      -106.33658     -3.6135316      0.031866483    25775.001      0            
     86500   277.77543      504.15486      0.024982824   -17.123402      31.405214      607.93348     -112.94986     -5.1355654      0.032484684    25284.488      0            
     86600   292.73438      505.65292      4.894165      -17.418258      35.823852      610.33335     -121.79959     -6.1805961      0.032858635    24996.736      0            
     86700   322.64766      501.56105      3.0382529     -15.772538      26.957502      592.65943     -100.84152     -4.4800807      0.032934346    24939.272      0            
     86800   301.98504      504.73402      0.22801877    -16.601602      37.618335      599.78039     -112.50862     -3.7825047      0.033149158    24777.661      0            
     86900   272.32834      504.37898      0.57116733    -16.979398      32.933424      610.76149     -117.70175     -5.2059507      0.03307624     24832.285      0            
     87000   274.49618      499.606        1.7939041     -16.897444      37.863796      595.86741     -113.17297     -5.8486859      0.033168106    24763.507      0            
     87100   288.64898      502.38976      0.94868013    -15.006685      34.224906      599.94268     -112.7995      -4.9203238      0.033116868    24801.82       0            
     87200   359.87309      498.15065      2.0562555     -15.489257      22.157162      606.12506     -111.5694      -5.1291703      0.032992385    24895.4        0            
     87300   341.7639       504.20121     -1.8435588     -17.51985       34.809844      605.02549     -111.38477     -4.8859483      0.033097671    24816.205      0            
     87400   286.98581      505.54878      7.5110364     -17.808286      36.155777      597.57111     -112.00281     -5.878051       0.033140153    24784.394      0            
     87500   288.73352      495.91222      0.65069226    -15.612167      22.291877      596.7519      -104.45138     -3.7187041      0.032896531    24967.94       0            
     87600   257.12834      504.27593     -1.665066      -14.90016       28.635861      601.0468      -104.65026     -4.1912479      0.032734747    25091.338      0            
     87700   331.34862      495.47571      5.4179254     -16.542427      37.470486      594.24314     -119.52159     -5.5918184      0.032676137    25136.344      0            
     87800   304.28291      509.21016      3.2459435     -16.936834      29.661065      605.5144      -105.16131     -7.113097       0.032497316    25274.66       0            
     87900   300.07426      506.6296       2.5918427     -19.303544      32.683265      614.73561     -119.08056     -4.9970167      0.032166619    25534.502      0            
     88000   285.20319      496.12368      3.6500002     -17.869145      33.583765      600.44769     -118.79896     -4.8896638      0.031913949    25736.665      0            
     88100   305.61563      486.66808     -0.029371226   -17.914683      26.340479      591.17455     -108.30315     -4.5997424      0.031524478    26054.63       0            
     88200   251.94701      507.70584      0.05386109    -17.597838      40.139196      605.50734     -115.45604     -4.940682       0.03123197     26298.648      0            
     88300   285.21697      509.80791      3.5839422     -14.202507      35.296251      597.71665     -107.85592     -4.7305012      0.030855817    26619.247      0            
     88400   333.22341      496.44137      1.8039234     -18.007061      27.195743      601.88459     -112.92119     -3.5146318      0.030472758    26953.865      0            
     88500   305.15216      499.07152     -0.14060717    -18.344246      28.036831      603.94996     -109.64717     -4.7832455      0.029900399    27469.821      0            
     88600   288.91078      497.32975      1.3438781     -15.94953       30.666156      593.08435     -106.15518     -5.6599241      0.029310285    28022.88       0            
     88700   276.47905      491.41204      0.02029488    -15.602956      28.165382      609.96031     -123.78384     -7.3471542      0.028565655    28753.362      0            
     88800   234.19269      505.08848     -0.48197775    -16.675976      36.744311      596.53572     -107.13124     -3.9023631      0.028057719    29273.891      0            
     88900   326.29316      497.84272     -0.63577557    -16.791507      39.409934      590.8231      -110.36205     -4.6009738      0.027437671    29935.435      0            
     89000   355.86592      496.47435      2.3681204     -17.957227      30.113614      598.99077     -110.16283     -6.8781068      0.026778791    30671.982      0            
     89100   319.65248      499.86481      1.0627926     -18.020729      34.328707      595.98004     -109.31956     -4.1664375      0.02602567     31559.557      0            
     89200   264.72091      500.75566      0.9270783     -19.356096      36.003093      600.02576     -112.33708     -4.5071016      0.025295992    32469.911      0            
     89300   267.42316      496.85549      4.7641827     -16.406341      34.992041      593.47899     -116.02631     -3.9470752      0.024547333    33460.198      0            
     89400   287.75846      507.17984      1.3188572     -15.097048      32.789741      603.83721     -109.43804     -6.2308713      0.023737224    34602.134      0            
     89500   323.64626      507.52338     -0.7207361     -17.917583      35.674967      601.85921     -107.06658     -4.3058924      0.022923822    35829.915      0            
     89600   263.49291      515.30485      4.1545265     -17.841848      40.601799      599.59622     -106.83818     -4.3676678      0.022146196    37088.021      0            
     89700   290.34395      499.18024      0.7426601     -17.829207      34.375814      594.35641     -106.59476     -5.8706758      0.021355049    38462.034      0            
     89800   277.58342      498.1207      -1.0190711     -17.481434      26.848585      617.89242     -122.02724     -6.0925654      0.020653372    39768.741      0            
     89900   321.37732      494.30098      2.1119772     -16.820579      29.731825      578.96879     -96.618303     -3.0727319      0.020148557    40765.134      0            
     90000   295.97167      516.03802      4.1065763     -19.862051      40.514986      619.91931     -121.84582     -6.7949903      0.01968357     41728.133      0            
     90100   364.26929      500.57506      0.62422615    -16.491676      39.563606      602.97437     -120.4815      -5.6139673      0.019227926    42716.963      0            
     90200   288.05822      507.71458      4.0932846     -15.796139      34.285063      588.47735     -98.841289     -4.5036948      0.018955596    43330.667      0            
     90300   306.61195      498.58383      2.5543168     -17.101772      32.148047      605.281       -119.36086     -4.936891       0.018656386    44025.6        0            
     90400   311.18377      497.28968      4.4092716     -16.628623      28.595696      601.99778     -116.2656      -4.8188491      0.018408978    44617.284      0            
     90500   267.74093      510.39834      5.7634698     -16.149852      31.821398      604.31528     -109.52135     -5.8306161      0.018151784    45249.469      0            
     90600   287.55548      509.07836      2.3735786     -16.026639      36.571631      597.44924     -107.31499     -3.9744687      0.0180569      45487.244      0            
     90700   350.59933      512.6922       0.93528358    -15.493967      36.223876      613.28236     -117.27263     -4.982731       0.017865911    45973.509      0            
     90800   396.43778      503.21248      4.2294531     -16.517435      32.458734      609.47011     -121.38791     -5.0404773      0.017796226    46153.527      0            
     90900   326.89272      500.4186       3.8050799     -16.588792      27.960074      584.65025     -94.633468     -4.7745431      0.017696781    46412.883      0            
     91000   293.77076      501.92225      6.5962634     -15.101253      34.281692      601.35729     -119.67904     -5.5327083      0.017535864    46838.788      0            
     91100   292.80378      498.21439      2.5548573     -17.39937       30.385674      607.68742     -119.12487     -5.8893261      0.017430739    47121.274      0            
     91200   294.81483      503.70099      8.3975833     -16.458055      30.860767      588.65337     -103.20355     -4.5491308      0.017357895    47319.022      0            
     91300   374.01447      501.49045      5.5132147     -18.307239      36.186141      597.89573     -113.31236     -6.4850348      0.017224493    47685.502      0            
     91400   299.66032      516.50853      3.7303828     -15.238325      45.364768      599.66718     -111.95879     -5.056689       0.017020273    48257.665      0            
     91500   283.85238      507.86074      8.8775927     -18.000067      36.706288      601.97868     -116.13692     -5.5648314      0.016899535    48602.439      0            
     91600   270.36795      507.27421      2.641197      -16.049888      39.342574      584.39422     -98.405631     -4.6482683      0.01674209     49059.502      0            
     91700   278.60908      507.48918      3.5601844     -14.319547      38.993569      593.58163     -109.01461     -5.3120393      0.016656273    49312.269      0            
     91800   300.38632      507.93238      5.1346667     -15.096932      33.196771      612.60707     -121.40706     -6.5021338      0.016529667    49689.967      0            
     91900   303.98322      507.28806      0.24606263    -15.39107       29.681961      603.21282     -106.09625     -4.3654669      0.016437378    49968.957      0            
     92000   309.82089      495.70319      1.1865389     -17.062835      32.177653      604.43671     -119.13924     -5.8956413      0.016311738    50353.836      0            
     92100   263.65595      497.79863      4.2068354     -13.714607      33.077862      602.33405     -121.7911      -6.3144117      0.01623939     50578.17       0            
     92200   255.55319      506.56182      6.0572026     -15.983648      32.804535      591.61933     -103.8442      -4.0913976      0.016133267    50910.868      0            
     92300   319.94982      502.8727       3.5209572     -15.753006      30.847006      593.2838      -106.03428     -2.9917741      0.015970312    51430.344      0            
     92400   295.70014      507.7209       5.3463631     -15.789484      31.486784      608.22299     -116.12059     -5.4251624      0.015856797    51798.521      0            
     92500   284.69116      507.18009      8.2576853     -16.138065      35.352245      603.72911     -118.14544     -5.8754493      0.015589697    52685.991      0            
     92600   279.87862      500.14319      0.66008398    -17.575671      30.532322      603.7381      -112.7973      -4.4143396      0.015315898    53627.847      0            
     92700   259.48693      495.70231      1.3247744     -15.357257      27.911302      607.89789     -120.97415     -5.1002449      0.015088808    54434.956      0            
     92800   266.7562       493.84295      2.465922      -16.408184      27.686121      597.93312     -112.54783     -5.286198       0.014942692    54967.243      0            
     92900   279.99981      506.22877      3.2222379     -16.087974      36.453473      591.69317     -104.56933     -4.4828082      0.014757547    55656.85       0            
     93000   299.00782      508.34971      3.3299639     -17.96998       38.257845      611.15693     -120.94336     -5.481689       0.014669852    55989.564      0            
     93100   284.3371       511.69148      4.4236231     -15.131829      35.554801      601.15834     -108.54365     -5.7698081      0.014251246    57634.163      0            
     93200   271.08433      505.9673       2.2197797     -17.153902      32.122736      595.72413     -103.44521     -3.5002377      0.014032143    58534.082      0            
     93300   251.10084      502.36503     -0.19881394    -15.2396        34.297682      610.29886     -120.6333      -6.1598015      0.013668323    60092.129      0            
     93400   256.79068      497.97611      4.0449728     -16.32147       35.39148       590.57166     -110.91682     -4.7937102      0.013413678    61232.917      0            
     93500   318.41217      498.08066      0.81301211    -17.711047      29.41289       604.37153     -113.72366     -5.0820624      0.013074665    62820.625      0            
     93600   291.85022      513.62769      4.7001205     -14.316456      39.702681      595.33716     -107.525       -4.2708133      0.012764874    64345.217      0            
     93700   312.12558      510.12305      2.3618111     -16.037595      33.922803      626.26951     -130.75322     -5.6402582      0.012429011    66083.988      0            
     93800   276.99747      510.53508     -0.49322273    -14.174009      31.48695       603.68941     -104.91377     -5.0602812      0.012022627    68317.732      0            
     93900   295.47949      490.92133     -0.10798342    -18.095994      27.7179        591.79905     -106.53915     -3.8524888      0.011572301    70976.256      0            
     94000   262.59298      497.65839      5.605945      -14.37266       26.927721      604.61325     -119.29601     -5.8198516      0.011129558    73799.749      0            
     94100   340.18197      495.62598      3.6025215     -19.470108      24.677055      593.7222      -103.64851     -3.2571751      0.010629891    77268.77       0            
     94200   317.14773      507.08471     -2.2816004     -16.8217        34.86146       597.85272     -101.52344     -5.0027361      0.010209537    80450.133      0            
     94300   323.1309       501.75819      7.4817111     -19.655501      26.640695      605.76707     -113.5155      -4.9602823      0.0097969872   83837.878      0            
     94400   284.00947      501.05221      1.7675872     -17.559776      25.691446      600.10963     -105.30423     -3.6524373      0.0094514257   86903.144      0            
     94500   287.40013      497.3044       1.9355573     -17.745588      34.381617      594.04214     -111.27873     -4.030599       0.0091682098   89587.676      0            
     94600   264.10573      509.60409     -0.50450528    -16.867199      33.255905      606.57766     -107.68601     -5.1717576      0.0089413524   91860.669      0            
     94700   341.22661      508.5073       3.1535215     -16.959137      30.222769      601.21391     -106.47963     -2.6441428      0.0087344944   94036.194      0            
     94800   352.32985      501.11294      1.6435349     -17.428968      31.954639      615.97009     -124.89447     -6.1318827      0.0085102498   96514.042      0            
     94900   293.46839      503.86046      1.5162358     -15.631373      28.859237      599.55779     -105.59724     -4.844184       0.008312005    98815.943      0            
     95000   246.93194      509.78792      1.9351538     -16.238814      39.04571       593.95972     -104.46938     -4.4444748      0.0081068181   101317.01      0            
     95100   276.97744      505.26606     -0.15662801    -15.404097      30.080737      601.85626     -107.1298      -3.9804176      0.0079643163   103129.83      0            
     95200   293.88214      502.77761      1.2544275     -16.674096      34.56049       597.64845     -109.22101     -4.790653       0.0078965909   104014.33      0            
     95300   282.22783      508.50697      5.2197216     -18.261433      30.596587      603.00673     -106.99999     -5.0546449      0.007837429    104799.5       0            
     95400   312.19457      506.35559      4.0162153     -17.271474      31.306244      601.22742     -108.99813     -3.924686       0.0077839709   105519.23      0            
     95500   336.00738      511.44205      3.7804016     -16.818052      38.955364      606.52142     -116.09889     -4.8981963      0.0077556376   105904.72      0            
     95600   338.55079      518.60014      6.139889      -17.128867      29.414366      600.94616     -95.232012     -5.5394007      0.0077507012   105972.17      0            
     95700   328.23782      504.40836      2.781667      -14.275974      32.713541      599.45451     -112.77283     -3.4925475      0.0076919562   106781.5       0            
     95800   276.32659      507.43368      1.8829613     -14.764652      29.524452      611.78232     -114.92051     -6.0708887      0.0077159208   106449.85      0            
     95900   291.98064      502.50086      5.6200828     -16.704618      32.673282      595.4641      -110.22375     -4.3282309      0.0077219832   106366.28      0            
     96000   306.10066      503.34006     -0.099854583   -15.132178      33.085613      613.06856     -120.03514     -7.5469444      0.0077372759   106156.05      0            
     96100   324.11494      508.60104      2.4186741     -16.94587       39.823069      617.23115     -128.35964     -5.566346       0.0077397995   106121.43      0            
     96200   339.85681      513.9628       6.8763357     -13.297466      33.36903       598.90013     -107.09175     -4.7934788      0.0077370679   106158.9       0            
     96300   322.8164       504.40982      0.86322888    -15.442695      28.884267      612.28534     -117.89053     -4.2897798      0.0077029271   106629.41      0            
     96400   280.59733      500.49075      4.692214      -17.234301      30.016127      598.13699     -110.36127     -4.7590083      0.0077410651   106104.08      0            
     96500   306.62978      497.09988      4.6421339     -15.598467      29.813706      603.76259     -120.5079      -5.0121893      0.0077506492   105972.88      0            
     96600   331.94136      500.71623      1.5654241     -14.835227      26.204562      600.07688     -107.6673      -4.6281045      0.0077117762   106507.06      0            
     96700   334.99628      508.54981      2.6836276     -14.195331      26.614822      588.61122     -93.388493     -1.7760376      0.0077237436   106342.03      0            
     96800   294.84411      513.55749      4.7002397     -17.566335      36.97062       613.53076     -117.68385     -6.3939415      0.0078041586   105246.27      0            
     96900   292.71735      493.15155      3.4542233     -16.449825      23.786734      588.17903     -101.72284     -4.0957704      0.0077594492   105852.7       0            
     97000   263.16347      499.95341      1.6447285     -16.516503      32.508246      600.15824     -112.27599     -5.5653075      0.0077747003   105645.05      0            
     97100   331.25043      496.47165      0.18744145    -15.997168      32.086347      595.65346     -109.72253     -5.7359054      0.0078357398   104822.09      0            
     97200   302.75321      509.23246      2.3168986     -18.981137      34.800344      596.9826      -101.20781     -4.6784297      0.0078847511   104170.52      0            
     97300   320.23335      506.79553      3.120076      -14.595346      31.395769      602.61031     -110.5475      -5.1877776      0.0079588278   103200.95      0            
     97400   286.33366      501.7892       4.1063409     -17.251677      32.815948      617.74738     -130.12042     -5.5083644      0.0079910573   102784.72      0            
     97500   256.6653       494.95384      1.7356022     -18.172439      21.052095      603.76787     -108.36154     -5.0677403      0.0080347277   102226.07      0            
     97600   266.4961       498.72743     -0.12040734    -16.855419      31.894784      604.24938     -115.89845     -4.5424527      0.0080458133   102085.22      0            
     97700   276.86179      504.66913      3.8046149     -16.131087      30.121927      618.7593      -127.22525     -4.6603717      0.0081524362   100750.08      0            
     97800   313.45164      502.75774      4.4870954     -17.852685      34.297704      589.20063     -102.56969     -4.8053152      0.0081911147   100274.34      0            
     97900   313.99194      503.53368     -3.0204095     -17.732257      31.483033      596.79528     -100.15804     -3.833918       0.0083018573   98936.73       0            
     98000   266.66517      510.33631      4.3252956     -17.706996      39.660195      606.06199     -116.51173     -5.4924362      0.0084514489   97185.538      0            
     98100   272.35247      497.63218      5.7076072     -16.58719       23.68338       597.99454     -108.10719     -5.0589732      0.0085560391   95997.528      0            
     98200   278.17224      495.7418      -0.74404862    -15.091099      26.072749      597.24685     -107.08636     -4.6562906      0.0086881826   94537.448      0            
     98300   286.69713      506.16937      1.1318929     -16.307711      35.87462       605.32687     -113.37743     -6.4788819      0.0088963868   92324.966      0            
     98400   299.3674       509.00456      1.5660556     -16.031138      37.848605      603.63518     -111.91118     -6.1029502      0.0090670765   90586.928      0            
     98500   305.00706      505.64552     -1.4915418     -14.16732       30.090661      600.70102     -105.37645     -4.1108511      0.0092900125   88413.079      0            
     98600   303.0741       502.03222      2.4843703     -14.597873      31.927191      598.65414     -111.65173     -4.7838774      0.0095802664   85734.423      0            
     98700   285.64711      498.05246      1.5885197     -18.123514      32.714948      596.30188     -109.20273     -5.2266458      0.0098599423   83302.578      0            
     98800   298.00738      493.59101      1.8456211     -15.715855      32.743127      606.17403     -126.72451     -4.7314039      0.010195494    80560.947      0            
     98900   300.68273      506.65097      4.2382703     -13.638995      31.283493      599.06984     -111.58137     -2.7202688      0.010494956    78262.223      0            
     99000   348.72618      504.92358     -1.0423141     -13.180041      30.092458      601.59384     -107.05203     -5.4883435      0.01082236     75894.594      0            
     99100   306.88631      509.22053     -0.88368474    -15.711623      44.243089      586.80801     -101.34312     -3.8921369      0.011160516    73595.04       0            
     99200   265.23668      501.16413      2.68184       -18.403549      32.561716      602.66876     -113.39821     -4.9464274      0.011587328    70884.213      0            
     99300   251.75911      502.62087     -0.36163309    -17.240307      35.737066      589.31195     -101.51955     -3.3066561      0.011945647    68757.986      0            
     99400   295.97828      496.54146     -0.13991179    -20.113562      29.561591      599.3686      -107.40283     -4.7324236      0.012330717    66610.775      0            
     99500   285.69444      507.56321      2.2214292     -16.16479       39.826401      602.73834     -116.00803     -5.0501449      0.01272128     64565.721      0            
     99600   335.86616      505.31147     -0.62268826    -13.436724      32.197091      601.72439     -110.92282     -3.6277827      0.013076931    62809.736      0            
     99700   313.82266      512.74578      0.65704637    -14.160856      36.198465      598.81771     -104.67486     -4.0917328      0.013462276    61011.869      0            
     99800   314.55592      508.80098      1.375517      -15.580954      37.559647      592.24638     -103.07942     -3.7201945      0.013860154    59260.423      0            
     99900   262.38937      507.60924     -0.64648367    -16.280523      37.581274      604.81553     -111.67572     -6.1848317      0.014243713    57664.643      0            
    100000   275.80193      498.50537      3.2074795     -18.350471      33.118035      593.39514     -109.94423     -2.9205786      0.014672966    55977.679      0            
    100100   296.38652      499.73748      1.2076108     -17.613709      27.60182       594.73594     -103.09957     -3.0946159      0.015058782    54543.494      0            
    100200   382.38829      494.52582     -0.8529809     -17.307856      33.184914      594.13263     -109.4619      -5.1689859      0.015262531    53815.36       0            
    100300   291.08653      514.70969      1.192616      -15.647985      41.151163      603.0505      -109.82977     -5.2068309      0.015526629    52899.994      0            
    100400   302.2665       506.57127     -1.6720303     -14.613443      32.564272      594.2335      -99.60042      -4.3406096      0.01575242     52141.74       0            
    100500   282.1946       506.86398      0.87673606    -15.115181      37.20235       603.52967     -114.58952     -5.0400883      0.016095001    51031.908      0            
    100600   311.76219      498.06348      3.9609186     -19.062179      33.745084      594.68567     -110.86544     -4.4005724      0.01650916     49751.691      0            
    100700   322.20393      502.40654      3.4352551     -18.892989      30.356393      606.87559     -113.74909     -5.618616       0.01685227     48738.752      0            
    100800   366.83909      504.04404      0.74442077    -15.589359      37.528632      609.73168     -122.65953     -5.7118005      0.017104471    48020.113      0            
    100900   292.7587       512.56439     -0.13666105    -16.500224      34.991524      595.3816      -98.544384     -2.6274628      0.017295043    47490.984      0            
    101000   300.10025      498.35809      0.66765461    -16.842421      32.475724      591.66291     -105.18941     -4.4163674      0.017627678    46594.827      0            
    101100   289.82362      498.96278      3.5162537     -16.501503      29.732368      602.9184      -114.1003      -6.6024317      0.017880472    45936.07       0            
    101200   332.3038       495.02509     -0.24382835    -17.915331      35.353714      595.36835     -113.27346     -4.2643493      0.018160226    45228.434      0            
    101300   331.16787      511.96656      0.27391211    -14.424311      37.258243      599.07813     -106.52587     -3.6935513      0.018530439    44324.833      0            
    101400   380.56125      512.28846      3.256725      -14.519722      36.394164      619.39436     -125.71665     -6.5204198      0.018744535    43818.563      0            
    101500   279.26408      518.83966      0.94188592    -16.224715      42.216009      609.7226      -113.7231      -4.0930219      0.018973959    43288.73       0            
    101600   315.47374      504.23271      0.96520006    -17.16924       34.534291      601.37489     -111.55926     -3.9131728      0.019246557    42675.613      0            
    101700   319.88653      499.43838     -0.28528044    -16.348602      36.146416      603.02864     -119.54338     -3.5594127      0.019464684    42197.377      0            
    101800   261.31167      506.18297      3.5823586     -15.774357      34.500191      600.06466     -111.76557     -4.4243195      0.019739071    41610.803      0            
    101900   273.44923      499.05805      4.8325642     -17.428086      36.581422      588.1787      -108.58413     -4.5224236      0.019952592    41165.51       0            
    102000   287.96182      500.40009      1.6857972     -16.465095      32.542206      593.0715      -106.94065     -3.4936745      0.020012042    41043.219      0            
    102100   300.80744      508.80066      3.5221005     -19.326702      33.677472      605.5818      -109.32535     -5.3286549      0.020269154    40522.59       0            
    102200   334.01781      507.46668      1.6675669     -16.362952      36.211595      593.84317     -103.6735      -4.2192079      0.020407979    40246.935      0            
    102300   311.88775      501.81098      0.78210964    -16.196309      35.567208      592.98564     -107.06135     -4.2663141      0.020608184    39855.944      0            
    102400   276.82674      501.0234       1.7609067     -15.857303      30.177332      596.16523     -106.35023     -4.8725374      0.020909016    39282.509      0            
    102500   287.95622      498.52581      1.7274063     -18.423567      33.995262      587.60623     -103.61159     -2.7679215      0.021175739    38787.72       0            
    102600   319.7898       497.47821      0.68760327    -16.548968      31.698735      597.03254     -110.37355     -5.0181558      0.021471852    38252.807      0            
    102700   318.86897      501.69312     -0.12108894    -17.031879      29.174971      607.34353     -114.77871     -2.8936974      0.021821651    37639.619      0            
    102800   312.51409      515.32967      2.2674761     -15.896911      42.281939      596.51832     -106.30858     -3.5325669      0.022197561    37002.2        0            
    102900   386.04814      511.50096      2.6108903     -17.392443      29.698832      596.90791     -97.387477     -2.9367517      0.022671784    36228.23       0            
    103000   329.51348      507.09124      1.9779248     -14.947608      35.284457      610.73421     -120.80203     -5.1557139      0.02296479     35765.996      0            
    103100   311.28718      501.30947      2.2294601     -16.074413      23.494517      592.88566     -98.15556      -3.0701932      0.023403439    35095.637      0            
    103200   295.62456      499.89982      1.6080657     -15.462709      26.892146      594.70736     -104.77591     -3.0691371      0.023748236    34586.089      0            
    103300   285.92572      500.8571       2.5906335     -14.210091      27.395746      595.76478     -106.44991     -4.2340489      0.024205223    33933.115      0            
    103400   300.80418      504.71084      1.0205237     -14.290626      32.256393      601.0403      -110.27589     -5.0398645      0.024761794    33170.4        0            
    103500   352.09546      505.7421      -0.59643296    -16.976793      29.543948      599.60533     -102.52576     -3.3081885      0.025595605    32089.83       0            
    103600   357.95365      505.47532      2.06602       -13.710184      32.325797      602.34905     -112.71052     -4.8448447      0.026503383    30990.708      0            
    103700   307.90557      503.55814     -0.51861769    -14.378842      32.286683      606.02354     -114.15888     -5.6957442      0.027372821    30006.356      0            
    103800   274.18872      511.42046      0.39112965    -12.633514      32.467364      596.45556     -101.26098     -3.9990957      0.028385875    28935.469      0            
    103900   280.6896       509.18348      7.0252273     -14.434302      37.915937      604.59533     -119.6544      -6.2643128      0.029429493    27909.37       0            
    104000   306.90255      504.06177      1.5450609     -15.394107      31.879288      601.94988     -111.64114     -4.2772135      0.030262403    27141.222      0            
    104100   341.03899      500.21433      3.2843436     -13.205171      27.699069      593.43703     -105.21823     -5.7827037      0.031355334    26195.179      0            
    104200   341.64864      496.52009      0.39017337    -17.241908      40.445459      591.07992     -112.46973     -5.6838126      0.032133044    25561.183      0            
    104300   328.33122      498.97101      1.4645035     -11.162081      25.605354      604.39698     -116.54041     -4.7933315      0.033052583    24850.058      0            
    104400   297.97952      498.0786       0.84822976    -10.999725      30.904275      584.09101     -103.34797     -3.417225       0.034028189    24137.594      0            
    104500   274.98595      504.07995     -0.74288528    -13.929594      38.63784       590.42495     -105.72005     -4.5903072      0.034961591    23493.17       0            
    104600   317.42476      512.12814      4.8157642     -11.355568      34.302176      604.71783     -114.52806     -5.8239951      0.035860547    22904.241      0            
    104700   296.67412      519.10127     -1.9783932     -11.363268      44.020616      583.25606     -92.687933     -2.1458137      0.036739084    22356.535      0            
    104800   275.30939      515.37736     -0.80526407    -11.44141       37.11623       595.3072      -99.656088     -5.1433127      0.037629662    21827.424      0            
    104900   280.45773      509.29882      3.3486419     -9.9028807      41.134271      596.68137     -117.57996     -4.382623       0.03840333     21387.692      0            
    105000   297.3246       501.38428     -0.63465556    -13.926497      35.310644      589.76598     -105.37169     -3.7594972      0.039183443    20961.88       0            
    105100   306.66997      496.037        1.1260918     -20.280033      37.324234      591.04725     -109.02048     -4.1600587      0.03992858     20570.694      0            
    105200   306.75983      497.02831     -0.736053      -21.030501      35.685826      603.92399     -115.39061     -5.4243329      0.040685185    20188.15       0            
    105300   303.33754      506.46859      1.4735061     -14.13923       32.635526      588.75678     -96.91123      -5.346762       0.041474737    19803.829      0            
    105400   295.84262      510.4689       0.60581618    -17.194074      35.644766      604.04646     -106.94927     -5.6848026      0.042244881    19442.796      0            
    105500   294.42738      507.98169      0.28141311    -14.227332      39.826327      605.69855     -117.70993     -5.8873367      0.042910879    19141.035      0            
    105600   303.95233      492.86942      0.36057113    -16.808984      31.496252      591.58618     -109.69021     -4.0743816      0.043568061    18852.311      0            
    105700   294.73275      492.64808      2.1625953     -16.230544      35.880704      586.05868     -109.98267     -5.2406802      0.044379624    18507.561      0            
    105800   300.4611       500.04993     -0.62015272    -15.170618      33.953105      610.85493     -121.96551     -7.0018243      0.04470906     18371.189      0            
    105900   335.94518      507.16301      2.7675823     -15.875541      36.38008       601.85273     -113.7498      -4.2120328      0.045258776    18148.052      0            
    106000   333.51611      501.0292       0.98292153    -17.964187      25.914298      583.4841      -87.350497     -4.0374349      0.045354633    18109.696      0            
    106100   315.37125      498.11432     -4.8587018     -14.201819      38.155766      599.17809     -113.97944     -6.1795782      0.045036949    18237.439      0            
    106200   317.69628      491.6358      -1.0096359     -16.073552      28.930616      596.09297     -110.82337     -5.481229       0.044760763    18349.969      0            
    106300   268.39526      505.06047     -3.4250626     -15.274632      35.912518      597.11003     -105.21911     -4.0432778      0.044409222    18495.226      0            
    106400   352.09594      494.30467      1.0653014     -15.60246       26.379703      589.78576     -103.65432     -3.6693218      0.04441025     18494.798      0            
    106500   376.04367      504.44842      1.9676088     -15.932925      30.388612      603.98977     -110.66336     -5.3012902      0.044031634    18653.83       0            
    106600   317.27452      507.37607      3.1092868     -19.978996      42.439655      588.94947     -103.24859     -3.8947507      0.043709109    18791.474      0            
    106700   337.04219      492.65488      2.8579428     -17.913159      29.707536      591.71929     -110.0022      -3.7145392      0.043102895    19055.764      0            
    106800   304.03318      499.57824     -1.5006502     -13.714636      27.398547      597.68114     -105.7935      -4.4926589      0.042282779    19425.369      0            
    106900   300.88738      493.13276     -1.085521      -21.001462      27.233525      597.85272     -106.11074     -3.7557583      0.041581874    19752.804      0            
    107000   287.24373      508.72355      1.5064273     -13.638447      40.875619      594.50741     -110.87862     -3.6488385      0.041305088    19885.168      0            
    107100   321.89506      511.81655      1.3674167     -18.467002      36.226766      603.40223     -105.41287     -5.2999885      0.040636912    20212.132      0            
    107200   320.74935      506.00144      0.75302029    -17.080468      34.094321      605.02587     -110.37522     -6.4160963      0.040236345    20413.35       0            
    107300   285.48207      501.26208      2.4179096     -14.246992      31.445316      595.53927     -108.7067      -5.1867278      0.039604881    20738.823      0            
    107400   266.06636      506.25977      4.7478657     -15.026159      35.070964      601.55182     -114.32569     -5.7590314      0.039054938    21030.852      0            
    107500   300.13117      499.70892      0.89381186    -19.448537      34.519451      602.26117     -114.71034     -3.8066309      0.038272068    21461.046      0            
    107600   323.87315      503.62488      6.8386187     -18.397003      35.476354      598.67509     -113.84835     -5.1198332      0.037485151    21911.573      0            
    107700   365.17456      493.92637      3.5126512     -19.650185      26.106298      607.84699     -117.01477     -6.8746208      0.036402659    22563.149      0            
    107800   287.2017       500.72335     -0.99639226    -17.713598      29.405003      611.75441     -117.14292     -4.5831525      0.035377388    23217.051      0            
    107900   256.91734      500.26677      5.9032721     -18.391664      27.273751      608.32794     -117.64709     -5.199432       0.034499074    23808.135      0            
    108000   295.55921      499.08368      2.1543205     -17.494086      31.173471      608.32458     -120.46443     -4.6101754      0.033366838    24616.016      0            
    108100   315.78442      508.9639      -0.81889683    -14.901084      39.51097       612.59998     -121.54771     -5.879366       0.032284298    25441.427      0            
    108200   332.41377      500.21577      1.8086756     -19.107414      28.684079      602.35787     -108.95389     -4.5735591      0.031199708    26325.843      0            
    108300   267.79161      504.04521      0.10560873    -19.248649      32.614634      603.93298     -108.79093     -4.5684287      0.030393769    27023.914      0            
    108400   277.64869      500.65636      1.1003472     -18.308465      32.344131      591.9904      -102.1856      -4.2844533      0.02921159     28117.559      0            
    108500   282.70341      502.64397      1.2948373     -19.157802      33.481988      598.84634     -106.49419     -5.3271969      0.028411332    28909.543      0            
    108600   318.14811      499.46814     -0.096399513   -19.596061      30.393913      601.13966     -107.6512      -4.7217662      0.027651783    29703.641      0            
    108700   329.00664      504.46898      1.8341776     -18.701515      30.490489      604.15028     -108.94211     -4.3623373      0.0270797      30331.156      0            
    108800   261.52616      517.16818      4.9623411     -17.819965      44.721302      603.30847     -111.80534     -6.1986249      0.026403932    31107.435      0            
    108900   290.32024      498.77472     -1.2611332     -16.615728      30.49644       603.95023     -110.7558      -7.0392873      0.025659812    32009.533      0            
    109000   276.2055       496.5167       1.2974721     -14.960156      25.190612      603.51965     -114.26733     -4.2635497      0.024871497    33024.092      0            
    109100   297.23318      500.31851      3.9272383     -15.411983      26.805992      606.30452     -115.65599     -5.6512698      0.024192204    33951.376      0            
    109200   308.70167      505.33973      1.9565509     -17.510486      33.437276      597.13152     -104.54451     -5.1306217      0.023355031    35168.38       0            
    109300   311.5564       504.75934      1.7252384     -14.93652       30.681626      607.08738     -114.28747     -5.510913       0.02268841     36201.683      0            
    109400   314.36145      501.72124      1.0046524     -14.527995      32.308732      593.05907     -106.29222     -3.8310033      0.021978543    37370.931      0            
    109500   276.07067      504.99835      0.98097672    -14.241782      32.76138       588.79655     -98.903299     -4.3954755      0.021595112    38034.468      0            
    109600   261.95008      495.44914      2.7832938     -16.094424      33.447973      596.42322     -115.50913     -5.6017897      0.021164073    38809.1        0            
    109700   271.02097      494.63203      1.9075801     -16.326824      36.302358      583.25321     -105.96266     -4.5416355      0.020740523    39601.634      0            
    109800   296.75515      503.46283      3.3811318     -16.966551      30.344104      609.08357     -115.88965     -6.4897786      0.020359818    40342.139      0            
    109900   312.04809      503.63121      2.9010043     -18.297449      32.560977      587.29161     -97.206154     -3.6187782      0.019958892    41152.515      0            
    110000   288.13696      507.81955      4.238426      -18.026144      40.804298      611.18154     -125.45776     -4.9208053      0.019642424    41815.541      0            
    110100   283.86847      505.79258      2.2023665     -14.762958      26.120529      598.31171     -101.89316     -4.1859011      0.019168739    42848.859      0            
    110200   279.00321      498.20188     -0.29964025    -17.237101      27.155524      604.54833     -111.42807     -4.5371647      0.018720967    43873.729      0            
    110300   255.44812      503.19292      2.8611458     -15.796155      36.049321      607.02598     -122.26101     -4.686352       0.018532597    44319.671      0            
    110400   308.12963      499.81525      1.6132738     -17.641525      29.853405      603.36601     -112.82913     -4.5467752      0.018405425    44625.898      0            
    110500   333.13067      505.55999      1.5220673     -17.110304      32.10791       605.00523     -111.11553     -4.849381       0.018178038    45184.119      0            
    110600   340.43163      504.79759      6.6786058     -13.733556      30.688585      597.53598     -111.75008     -4.6219477      0.017991402    45652.842      0            
    110700   291.40512      500.83394      2.941368      -15.740341      31.329577      594.49418     -107.79863     -4.3922129      0.017604288    46656.736      0            
    110800   293.97596      489.79308      2.1762314     -17.324324      29.013975      582.063       -102.70202     -3.4337754      0.017267761    47566.017      0            
    110900   294.8409       497.12915      3.8304002     -16.500553      31.178736      596.4817      -112.24502     -5.6161095      0.016969189    48402.937      0            
    111000   285.37437      507.33013      2.6680282     -16.529322      36.094667      605.42587     -115.435       -4.8941109      0.016624228    49407.324      0            
    111100   290.84022      509.86052      1.284919      -15.566611      29.370622      608.17604     -106.76857     -6.6358906      0.016429831    49991.909      0            
    111200   293.33101      512.13273      3.2390201     -15.180247      38.785606      606.87788     -117.51919     -4.0703411      0.016258804    50517.776      0            
    111300   328.32344      502.85817     -0.19887322    -15.08432       36.483642      613.91856     -126.4374      -5.8234355      0.016059735    51143.971      0            
    111400   282.97393      498.79432      3.496598      -17.573453      32.913425      595.28183     -109.83949     -5.484585       0.016022134    51263.997      0            
    111500   248.63091      495.90957      4.8561897     -16.991003      35.437664      588.4525      -111.43452     -4.4112618      0.015903463    51646.524      0            
    111600   277.12979      498.21709      5.326656      -15.015238      31.942717      595.60288     -114.00443     -5.6355026      0.015794094    52004.162      0            
    111700   310.37319      500.027        1.3734748     -15.178091      30.60075       602.46405     -114.39473     -4.8384497      0.015607337    52626.442      0            
    111800   348.69576      496.16805      2.7953248     -14.452491      31.998065      587.0146      -107.18126     -4.0061895      0.015446852    53173.204      0            
    111900   322.61788      503.22135      3.0446731     -14.623967      33.479567      585.37541     -99.285284     -4.7690505      0.015146358    54228.127      0            
    112000   266.00302      514.30253     -2.0369826     -14.287747      37.796858      609.38849     -111.96535     -4.5927443      0.014965631    54882.993      0            
    112100   281.69456      501.87137      2.0790491     -14.888511      29.570025      597.37345     -107.85525     -4.4073933      0.014906947    55099.048      0            
    112200   256.22274      502.93548     -0.6434423     -15.681013      39.250889      593.07019     -108.11397     -4.9471815      0.014767941    55617.68       0            
    112300   335.62294      492.68139      0.22549323    -17.389098      31.710798      597.11453     -113.81589     -5.164442       0.014704923    55856.03       0            
    112400   344.47836      505.85478      5.3196213     -15.724656      28.925524      600.98922     -109.53811     -4.1168206      0.014638984    56107.626      0            
    112500   355.93899      499.10853      2.8056871     -17.189293      28.309389      587.48262     -98.734644     -3.5652298      0.014453764    56826.625      0            
    112600   289.55039      505.74773     -1.2659117     -16.886284      34.353919      598.40405     -104.65913     -4.1989138      0.014233182    57707.308      0            
    112700   322.18587      497.34839     -1.252233      -16.105676      34.796261      598.82844     -113.7642      -5.1542087      0.014085201    58313.59       0            
    112800   298.31964      503.27819      0.19650743    -16.153103      24.35706       604.74838     -106.17205     -3.6986043      0.014025206    58563.033      0            
    112900   298.14571      506.26576     -0.76494774    -16.183619      45.32264       594.12261     -110.59036     -5.6405634      0.01384067     59343.846      0            
    113000   355.23138      499.69725     -0.28126324    -16.409743      31.395367      591.53956     -102.71843     -3.8282383      0.013738408    59785.575      0            
    113100   378.39856      504.6424       2.3302134     -17.204805      31.099126      606.26811     -112.1429      -5.707336       0.013587178    60451.008      0            
    113200   341.15112      505.94873      4.9356121     -15.62803       31.930182      597.8177      -107.26978     -5.8369543      0.013398105    61304.087      0            
    113300   297.25098      501.97962     -1.3098173     -14.463645      30.787004      595.2932      -102.84415     -5.4829795      0.013168693    62372.069      0            
    113400   274.7641       505.08691      1.8045002     -15.248501      33.302634      606.15698     -115.15284     -5.7758638      0.012927873    63533.933      0            
    113500   283.00543      508.88852      3.0383353     -15.526563      42.588985      600.08823     -116.04172     -5.2587526      0.01265819     64887.527      0            
    113600   322.07821      511.88434      2.4268358     -13.896297      32.293414      598.71312     -101.86923     -5.7834941      0.012315675    66692.13       0            
    113700   376.93651      509.99411      4.2853832     -14.719783      36.298503      606.95768     -116.97523     -5.8524367      0.012065952    68072.423      0            
    113800   333.41609      515.08249      1.0363265     -15.089782      31.534908      613.40666     -110.87032     -4.9352991      0.01165932     70446.525      0            
    113900   302.89205      504.36031      1.1411951     -15.748638      36.460109      600.56771     -113.31353     -4.7465334      0.011331651    72483.579      0            
    114000   281.27279      505.65735      0.83182446    -13.925153      30.840912      603.1907      -108.72341     -6.557526       0.011030329    74463.656      0            
    114100   301.52015      499.16177      0.26338352    -15.871952      28.207454      596.08514     -104.4704      -5.0518467      0.010673552    76952.7        0            
    114200   316.48928      504.98626      0.0033079909  -15.521197      39.351182      605.15787     -119.02113     -4.9837761      0.01032866     79522.283      0            
    114300   331.84699      512.06686      2.9312577     -16.896072      32.92719       595.51176     -97.142861     -5.2644123      0.010022987    81947.489      0            
    114400   327.48011      513.019        4.2230007     -17.568793      38.200264      602.79262     -110.3096      -4.3184895      0.0096214513   85367.434      0            
    114500   288.97403      501.0756       1.8849676     -16.993149      27.096701      595.23295     -101.39469     -4.7511742      0.0092768219   88538.793      0            
    114600   291.1747       498.92473      0.75483836    -16.708786      32.597345      595.27957     -109.81993     -3.178304       0.0089689762   91577.744      0            
    114700   293.32882      503.93112      2.1058345     -17.212808      31.41269       595.74366     -103.51483     -4.6034207      0.008664807    94792.487      0            
    114800   311.76547      510.33541      0.2471512     -14.896167      42.514748      597.21625     -111.89713     -2.8494358      0.0083231349   98683.804      0            
    114900   331.71397      507.55909      4.6165811     -16.065802      28.119806      603.19669     -108.03877     -4.269421       0.0080388596   102173.52      0            
    115000   300.63084      500.08332      0.52103778    -16.239145      33.083803      602.29954     -115.09451     -4.4874108      0.0078086286   105186.03      0            
    115100   263.20362      498.70243      3.8241551     -15.888398      26.192734      590.50032     -101.32458     -4.6018078      0.0075922489   108183.84      0            
    115200   268.5233       502.32315      2.2492694     -18.11895       39.554274      599.58928     -116.22917     -4.7215521      0.0074032354   110945.9       0            
    115300   335.74731      497.99982      0.43578901    -16.734136      31.324426      594.19245     -106.12736     -5.0913409      0.0072998433   112517.29      0            
    115400   324.77499      505.47112      2.5726273     -16.975474      32.27298       600.99701     -109.07578     -4.3202458      0.0071745432   114482.36      0            
    115500   285.2143       508.04462      6.2876344     -17.347275      30.323746      621.56114     -126.71968     -6.0609423      0.0071003664   115678.34      0            
    115600   265.35748      498.61792      3.2769413     -17.444004      29.947849      593.91492     -106.96636     -4.1114251      0.0070393791   116680.55      0            
    115700   281.0645       492.01751      3.1259012     -17.259584      33.939634      591.86824     -113.25204     -6.4046309      0.006991411    117481.09      0            
    115800   308.01635      499.92135      3.3701973     -16.480145      29.761658      590.13797     -102.43615     -4.4321799      0.0069526384   118136.25      0            
    115900   335.73048      504.27079      3.7305398     -15.689344      31.654515      606.95601     -117.24239     -5.1385444      0.0069294786   118531.08      0            
    116000   319.47232      505.40137      4.8395176     -16.372787      32.552577      598.49215     -109.67712     -4.4329646      0.0069837446   117610.06      0            
    116100   306.33426      500.80766      4.6102704     -17.575189      31.42522       601.20881     -112.72797     -6.1334848      0.0069780007   117706.87      0            
    116200   271.99029      501.81055      6.6546708     -16.181061      35.773601      614.85792     -131.87875     -7.4158264      0.0068919028   119177.33      0            
    116300   261.09753      500.37953     -0.53650705    -15.85141       29.388705      597.24009     -105.78648     -4.0748666      0.0068100201   120610.31      0            
    116400   285.49316      504.28905      0.78498192    -15.810535      33.660124      610.6707      -119.05414     -5.9620738      0.0068510252   119888.42      0            
    116500   272.11583      519.44524      3.9059944     -18.9988        46.127082      600.72972     -108.5973      -3.7214594      0.0068672314   119605.49      0            
    116600   270.87838      520.40617      3.5237636     -16.748082      44.147769      606.8332      -111.47736     -5.8731151      0.0069026196   118992.3       0            
    116700   271.89439      507.15688      1.5799286     -17.899192      33.807055      595.43141     -101.70231     -4.0600182      0.0068799856   119383.77      0            
    116800   278.08895      496.42005     -0.48642853    -16.588256      28.79335       600.11263     -110.05609     -5.3551562      0.0068673561   119603.32      0            
    116900   275.47557      499.27228      3.2028895     -16.560713      32.542821      593.26878     -109.28732     -3.8941716      0.0068753659   119463.99      0            
    117000   284.3347       504.48903      6.5095069     -13.703974      30.132781      595.92981     -108.80219     -5.5769023      0.0068902279   119206.31      0            
    117100   336.12414      497.94011      0.78407942    -14.840222      28.070066      594.88839     -106.04073     -4.9214774      0.0068856162   119286.14      0            
    117200   299.95572      507.79817      0.84922024    -16.141101      40.724294      614.74042     -127.29629     -5.0783762      0.0069669145   117894.17      0            
    117300   328.61803      503.20644      2.6644383     -13.568304      34.081873      587.40064     -103.38763     -3.9845851      0.0069939442   117438.54      0            
    117400   286.02484      500.71378     -0.0031513584  -13.554209      29.274834      594.98866     -104.75355     -5.2388037      0.0070530095   116455.05      0            
    117500   265.37601      500.74017      1.2710537     -14.380896      28.990813      594.40333     -105.69334     -3.850786       0.0071309472   115182.26      0            
    117600   290.7442       505.61473      0.91984445    -15.999497      34.336054      604.93028     -113.99561     -4.5763428      0.0071973691   114119.28      0            
    117700   333.82824      506.36696      2.848612      -14.46213       32.873761      598.19355     -107.76814     -5.3186848      0.007252206    113256.38      0            
    117800   330.83095      503.71623      5.5585153     -15.350169      30.67786       593.39533     -105.97726     -4.5880498      0.0073547327   111677.56      0            
    117900   323.47879      496.63824     -2.1127435     -15.456271      28.368198      608.87006     -118.01912     -5.0118792      0.007472729    109914.14      0            
    118000   276.6049       500.89247      5.508119      -15.626942      29.23494       595.61379     -108.70304     -5.134389       0.0076194039   107798.28      0            
    118100   277.55419      501.3769       4.638654      -14.446056      30.000119      594.54346     -107.99092     -5.3683636      0.007806855    105209.92      0            
    118200   284.67295      514.64051      3.0513439     -14.503236      37.726856      600.30548     -106.87528     -5.064645       0.0080142247   102487.59      0            
    118300   358.76086      505.48809      0.43424546    -16.204696      35.546151      603.47506     -112.30529     -5.4573792      0.0082765774   99238.921      0            
    118400   290.32206      511.31845      0.024089375   -16.166035      37.091688      590.66854     -95.779389     -4.5204457      0.0086111387   95383.275      0            
    118500   286.89668      501.35609      3.3517495     -16.180924      32.055356      601.53299     -113.27061     -6.1324742      0.0090673077   90584.618      0            
    118600   283.28841      501.35822      1.4899286     -17.234232      32.362372      611.77956     -121.75499     -5.2844173      0.0095521093   85987.146      0            
    118700   337.99163      496.6882       3.1929735     -15.584926      26.412516      591.41913     -104.03481     -4.7166822      0.010180699    80678.014      0            
    118800   359.74678      502.6959      -1.5505393     -14.158483      34.024607      592.33883     -103.73018     -4.2283415      0.010810987    75974.434      0            
    118900   409.56295      511.91113      0.54503878    -14.343443      38.320874      610.38622     -117.65355     -5.344013       0.011479231    71551.709      0            
    119000   391.64284      511.22295      2.4372889     -14.529049      39.888257      609.61712     -120.69598     -5.4946892      0.012210887    67264.453      0            
    119100   328.49005      507.45342     -0.69525481    -13.916378      32.731417      598.16628     -103.90168     -4.9309604      0.012734533    64498.528      0            
    119200   315.14264      502.24195      3.7096179     -16.04619       26.776065      602.53235     -109.55778     -5.1721099      0.013234853    62060.274      0            
    119300   284.78153      502.78375      3.2103636     -17.748949      37.870826      598.94727     -113.58247     -5.9132889      0.013620075    60305.001      0            
    119400   276.96677      504.85204      1.8095099     -15.898998      44.085516      581.12312     -101.45899     -4.808117       0.013952148    58869.69       0            
    119500   311.48528      503.64108      1.2073515     -16.13968       32.915097      589.73096     -100.61695     -3.4557026      0.014229277    57723.145      0            
    119600   309.54642      515.91999      1.2283805     -16.239402      38.617988      619.91116     -122.53248     -5.0656495      0.014516355    56581.602      0            
    119700   328.32807      513.02984      3.8301694     -16.179127      32.832427      596.14193     -101.06521     -2.530353       0.014706779    55848.981      0            
    119800   280.95843      506.05109      2.3899714     -15.591374      40.636928      586.28089     -102.29131     -5.3740144      0.014835317    55365.088      0            
    119900   274.39673      501.71395      2.2286234     -16.570897      28.564208      607.09939     -116.52863     -3.0787431      0.014894859    55143.767      0            
    120000   318.78066      497.31799      2.6216816     -15.706862      33.578016      594.49243     -112.38886     -5.2784255      0.015014792    54703.296      0            
    120100   278.26321      513.59579      0.65959693    -16.022423      40.059251      589.11064     -95.895375     -4.3159064      0.015079794    54467.495      0            
    120200   356.5895       505.10257      2.9868106     -15.106392      38.553893      596.42297     -111.69788     -6.0568343      0.015259096    53827.475      0            
    120300   326.87539      508.84674      6.9055649     -14.914941      34.155946      604.45889     -116.71226     -5.0464648      0.015470507    53091.899      0            
    120400   305.67946      499.25381      4.1917698     -14.853081      31.060169      584.6591      -102.28452     -3.5196296      0.015575054    52735.522      0            
    120500   243.90083      508.16374      5.1315868     -14.925583      39.349826      590.96713     -106.15966     -6.1995651      0.015782929    52040.95       0            
    120600   279.95841      507.33675      0.53553329    -15.069975      40.015233      585.12076     -99.79439      -3.4704033      0.015931456    51555.779      0            
    120700   319.84714      509.3445      -0.16643875    -14.892129      33.898564      603.04315     -107.745       -4.7936444      0.016103941    51003.579      0            
    120800   315.33585      510.15831      6.6073696     -16.560174      36.858331      601.49158     -113.13533     -5.1034692      0.01636044     50203.943      0            
    120900   302.78967      503.03575      4.5452742     -16.369328      35.492665      598.25943     -112.61662     -6.2756655      0.016562718    49590.81       0            
    121000   272.40624      505.15013     -0.0072352174  -15.880402      34.969465      602.04409     -112.22641     -3.7493645      0.016658991    49304.223      0            
    121100   321.83038      496.74332      3.2867968     -15.949656      29.655271      591.42424     -107.05999     -4.6133437      0.016828138    48808.645      0            
    121200   317.71611      502.28403     -0.20017202    -15.742804      32.794904      604.20134     -112.52416     -6.2450731      0.016891684    48625.027      0            
    121300   331.93958      503.11682      3.8532204     -15.970977      38.755302      588.48496     -107.21531     -4.7903746      0.017014592    48273.777      0            
    121400   302.01564      509.06875      3.7463535     -15.009667      31.95757       597.76447     -105.64479     -3.7451807      0.017162124    47858.796      0            
    121500   293.54713      501.60005      0.69479637    -14.616228      31.217309      593.74026     -104.90133     -4.5347606      0.017169603    47837.951      0            
    121600   277.82303      497.40147     -0.11975541    -14.735226      31.075115      592.97926     -107.97916     -3.8187638      0.017273006    47551.572      0            
    121700   271.27677      504.65542      0.42798193    -15.898785      31.206862      600.74797     -106.71537     -5.1132423      0.017408026    47182.755      0            
    121800   277.42478      518.67184      3.7035503     -17.452224      39.82427       612.04783     -115.4777      -3.9738805      0.017513091    46899.695      0            
    121900   299.25826      513.32621      1.6875306     -15.811251      29.944711      612.5157      -108.96106     -6.0494095      0.017683359    46448.109      0            
    122000   313.14136      501.87002      1.7059596     -15.215994      38.696068      580.75492     -99.87631      -4.194628       0.017803428    46134.858      0            
    122100   304.71854      495.08934      0.4470554     -15.54473       21.9104        625.76727     -131.04667     -6.4439904      0.017978873    45684.654      0            
    122200   289.67141      498.57603     -1.4642415     -15.348881      36.842074      586.51092     -104.33552     -3.6283209      0.018190136    45154.068      0            
    122300   357.47499      504.52809      2.224254      -18.014176      36.020113      597.8089      -107.73037     -5.7806387      0.018459774    44494.51       0            
    122400   355.95379      509.73449      2.2161371     -15.300464      41.094707      606.80024     -119.57132     -5.504806       0.018668606    43996.784      0            
    122500   348.28163      498.40077      0.69696673    -16.432511      23.852545      601.35348     -106.14681     -4.9229039      0.018968429    43301.352      0            
    122600   277.92225      505.12677      4.2665525     -16.556464      38.131712      590.35428     -106.46613     -4.6031754      0.019228928    42714.738      0            
    122700   286.475        502.97347      1.2127628     -13.883396      36.132319      590.96691     -106.75375     -4.70138        0.019421733    42290.696      0            
    122800   284.18349      506.6931      -4.5387816     -15.10251       40.914922      612.78697     -122.11251     -5.2549968      0.019604096    41897.295      0            
    122900   324.8867       514.71587     -1.0431959     -15.186791      27.804003      605.36348     -97.083766     -5.1378555      0.019980748    41107.501      0            
    123000   346.48518      507.27427      1.4775651     -17.458196      38.550765      589.64914     -100.80899     -4.1360122      0.020420207    40222.835      0            
    123100   310.40853      505.41596      0.097952186   -13.493153      38.616262      605.88138     -120.74332     -4.943166       0.020703629    39672.205      0            
    123200   304.41645      501.44208      3.4908086     -15.979098      31.266041      587.44113     -100.82347     -3.9533292      0.021207523    38729.587      0            
    123300   257.537        513.24952      0.59170975    -14.515506      38.874946      599.64326     -105.88918     -5.4557134      0.02154178     38128.632      0            
    123400   316.88945      504.10274      1.8535648     -16.285551      33.303496      607.97426     -117.09796     -5.6450729      0.022046891    37255.076      0            
    123500   317.89971      514.7355      -0.81088082    -18.015294      40.460488      614.20956     -115.17426     -5.9341032      0.022664324    36240.155      0            
    123600   336.68784      516.11245      3.606667      -14.739934      35.522912      601.94183     -104.09078     -6.1282536      0.023325767    35212.501      0            
    123700   310.84772      502.37489      2.3781502     -16.995883      27.033119      609.64787     -113.7426      -5.9457715      0.02408646     34100.429      0            
    123800   278.51242      505.30837     -0.47411467    -15.491647      39.190038      604.44857     -117.53601     -4.8284665      0.024642841    33330.516      0            
    123900   269.58215      507.9979       5.0350614     -15.332271      37.497984      592.41068     -104.9092      -6.704355       0.025407248    32327.729      0            
    124000   312.32414      505.43241      0.8359302     -14.450681      37.132164      593.86275     -107.52766     -4.4201001      0.026016942    31570.144      0            
    124100   367.89301      506.06345     -0.056231996   -16.011249      36.415747      608.05827     -116.82784     -5.5152489      0.026667367    30800.139      0            
    124200   333.04562      513.53658      1.4487626     -15.525648      37.075372      594.90817     -99.517444     -4.852633       0.027164943    30235.978      0            
    124300   289.88609      503.31155      0.58463523    -15.659994      41.035056      590.64727     -109.84619     -3.4492283      0.02771689     29633.866      0            
    124400   288.456        500.39165      2.6630492     -15.45366       27.594394      595.93759     -105.72611     -4.6236147      0.028145415    29182.678      0            
    124500   279.15533      507.06168     -0.96896413    -14.878983      38.091024      592.30072     -103.32866     -4.1534624      0.028555608    28763.478      0            
    124600   318.48104      507.5455      -1.0176176     -15.363117      38.571665      590.96071     -103.30624     -2.2999007      0.028867993    28452.225      0            
    124700   333.47987      508.03402     -0.12933282    -14.699047      30.606379      597.65585     -100.93105     -4.468776       0.029253322    28077.448      0            
    124800   238.94634      511.84102      2.4540064     -14.382574      40.261354      597.72181     -109.93353     -4.2800462      0.029686905    27667.371      0            
    124900   271.94643      499.2908       1.0265316     -13.887499      26.384441      608.97        -117.95562     -5.2470494      0.029995132    27383.064      0            
    125000   283.30224      504.58384      1.356602      -14.909876      37.085241      588.97134     -104.18556     -3.7339074      0.030395338    27022.519      0            
    125100   291.39047      512.86611      2.1511667     -13.432336      26.728915      608.67409     -107.13807     -4.1176588      0.030767556    26695.608      0            
    125200   315.34561      506.55881      0.96791457    -15.237826      37.923379      605.57848     -117.90717     -4.7659655      0.031106707    26404.55       0            
    125300   309.69217      501.00137     -0.76216591    -14.862732      36.640531      582.17787     -98.278343     -3.9137881      0.031501049    26074.008      0            
    125400   263.22244      506.28549      1.9850427     -15.664179      40.967508      593.59964     -110.18016     -4.42236        0.031915558    25735.367      0            
    125500   241.78766      500.61293      2.43893       -15.78045       27.24103       604.63915     -111.81271     -6.1130192      0.032375715    25369.59       0            
    125600   226.4929       495.3376       3.319946      -16.400191      32.916577      590.44027     -108.90579     -6.0332073      0.032724596    25099.121      0            
    125700   264.15165      498.92391      3.8894064     -16.575274      28.061228      598.46932     -109.80574     -5.1150385      0.033063175    24842.097      0            
    125800   298.90525      501.78525      3.2189779     -15.484074      28.819522      597.83303     -107.50673     -5.0954794      0.033317499    24652.469      0            
    125900   300.96633      506.91247     -1.3939324     -17.445336      36.523935      606.05142     -111.25083     -5.5727811      0.033460722    24546.948      0            
    126000   320.34879      503.10558      0.6000644     -16.529039      39.160042      597.20846     -111.87036     -5.46359        0.033598058    24446.609      0            
    126100   265.46805      502.14458     -0.21768416    -17.70449       38.132155      595.32777     -108.58597     -4.807198       0.033583693    24457.067      0            
    126200   255.11048      495.5549      -0.63411282    -19.73947       30.839937      605.09106     -116.41409     -3.5884275      0.033880435    24242.859      0            
    126300   286.9978       496.77865      3.1690306     -16.575972      36.465023      584.80016     -106.5617      -4.5178912      0.034257834    23975.79       0            
    126400   329.87058      503.86853      1.4228938     -17.377196      35.431787      611.28974     -121.85722     -5.0414801      0.034656327    23700.105      0            
    126500   309.65804      506.05433      4.162346      -16.387119      32.028588      600.68886     -109.35911     -5.0792395      0.034803431    23599.932      0            
    126600   276.68623      505.41438     -0.13199076    -17.760359      33.244406      595.6506      -102.18441     -3.4038602      0.035069147    23421.117      0            
    126700   275.49743      499.46425     -0.90662426    -15.290481      35.980828      597.79523     -111.86351     -6.2511903      0.035004796    23464.173      0            
    126800   284.86606      499.0616      -1.3829665     -16.2856        28.960422      601.68131     -109.15407     -4.7574907      0.035567577    23092.903      0            
    126900   318.16129      510.05328      1.4743357     -16.939849      42.535375      603.23076     -116.88473     -3.3626112      0.036295456    22629.792      0            
    127000   308.1346       513.99399      5.8439116     -16.553623      38.033373      607.29471     -115.56746     -5.0569262      0.036764328    22341.184      0            
    127100   328.04973      502.48567      3.6713456     -17.904774      38.053285      604.18279     -119.66281     -5.8541776      0.037030193    22180.781      0            
    127200   296.34139      503.65619      3.6010606     -14.530927      35.607684      587.28491     -104.48631     -3.8202276      0.037090572    22144.674      0            
    127300   283.96869      504.01866      4.1029969     -16.079003      32.946566      598.65637     -110.04608     -5.5621793      0.037289254    22026.684      0            
    127400   333.15667      491.88378      5.1144424     -17.319622      29.37232       597.61132     -117.43794     -5.4567461      0.037285459    22028.926      0            
    127500   295.26602      500.80254      3.8412634     -17.819546      31.23452       597.828       -109.55374     -4.7279539      0.037545753    21876.206      0            
    127600   298.05324      503.1081       0.356286      -15.785536      30.189708      611.35288     -117.96729     -5.0379491      0.037506541    21899.077      0            
    127700   321.96486      498.53475     -0.75118638    -16.517248      36.052119      603.06515     -117.86371     -5.4503786      0.037525499    21888.013      0            
    127800   320.00231      498.09754      0.3791817     -19.858988      26.301438      611.20308     -116.06173     -3.8654464      0.03789913     21672.229      0            
    127900   289.40919      503.86114      2.5136038     -15.284244      30.805014      604.89847     -114.86722     -4.2044893      0.037911368    21665.233      0            
    128000   269.00956      497.31955      6.2595362     -16.610548      31.846244      590.76835     -110.22817     -4.7158627      0.038085857    21565.974      0            
    128100   262.14119      493.85691      2.6511305     -17.680202      26.604314      599.63203     -113.23615     -4.114207       0.037838732    21706.822      0            
    128200   313.48031      496.90562      3.256143      -17.389551      27.786831      596.82051     -109.24266     -4.3256566      0.037388943    21967.955      0            
    128300   298.58996      509.58277      0.26547225    -16.429529      36.025107      606.49802     -112.86857     -3.9077328      0.036952224    22227.582      0            
    128400   287.93059      506.70554      2.2802223     -15.988582      26.70212       611.98196     -112.95546     -5.3147235      0.036891327    22264.274      0            
    128500   244.73826      508.87083      1.9053161     -17.85068       35.810436      607.2794      -113.45969     -4.8139475      0.036506906    22498.719      0            
    128600   293.67589      496.65747      1.4600039     -16.910926      28.709415      594.26814     -106.26556     -4.6035934      0.03616403     22712.032      0            
    128700   294.39313      506.25695      0.039000892   -15.902518      37.48188       592.73026     -104.49305     -3.5986234      0.03551474     23127.26       0            
    128800   322.07401      510.93467     -0.63597387    -14.565348      27.619831      619.01841     -115.33658     -5.1656624      0.034811988    23594.131      0            
    128900   335.92184      500.89691      4.2195782     -15.89923       30.717072      589.49903     -103.1534      -4.4861415      0.034346796    23913.69       0            
    129000   302.25564      498.0441       5.2554572     -12.275336      30.956342      594.02599     -114.95707     -4.9612841      0.033592125    24450.928      0            
    129100   320.00516      493.15642      2.156364      -13.238052      28.375315      599.0696      -117.87663     -5.3301732      0.032540983    25240.744      0            
    129200   296.80888      501.51583      3.1082918     -15.082248      35.039368      590.65609     -107.45749     -4.7481795      0.031535562    26045.473      0            
    129300   297.71316      505.70574      2.4165839     -14.597849      31.919482      619.01877     -127.61189     -5.4393581      0.030330017    27080.717      0            
    129400   268.62002      515.2148       2.1567048     -14.956396      47.356753      598.01428     -110.63908     -6.7174546      0.029199458    28129.242      0            
    129500   306.82501      508.7673       3.0224567     -15.429683      36.411448      609.14204     -118.96364     -5.4153208      0.027928004    29409.857      0            
    129600   295.05505      500.04305      4.6637892     -16.483063      29.464999      608.21166     -120.1699      -5.6444309      0.027012058    30407.11       0            
    129700   251.06669      499.13789     -0.19437503    -17.399137      33.777122      596.79622     -109.08487     -4.7570754      0.025902864    31709.181      0            
    129800   286.34259      495.98163      2.8578497     -16.342191      23.935432      606.88263     -114.59879     -6.7533045      0.024913475    32968.449      0            
    129900   308.59141      503.66951      2.2062144     -17.316388      32.726162      601.52432     -110.25479     -5.2160166      0.024132249    34035.726      0            
    130000   296.55355      509.78331      1.1842398     -17.661664      26.436642      607.38786     -103.48202     -4.0817551      0.023272903    35292.486      0            
    130100   285.27965      510.07263      1.5578575     -17.410366      32.88341       610.58005     -112.74521     -4.7931132      0.022692625    36194.957      0            
    130200   268.5071       503.97369      0.96844602    -14.674358      38.361366      595.34381     -109.82896     -6.1966165      0.022122865    37127.135      0            
    130300   259.6559       493.69407      0.67600207    -14.756569      31.967858      585.77915     -106.39861     -3.5737664      0.021711462    37830.645      0            
    130400   287.28101      493.84383      2.5930492     -14.681082      28.029733      593.82536     -110.47627     -5.4469559      0.0213058      38550.94       0            
    130500   295.54111      500.70911      0.66209818    -14.709115      22.841832      609.39859     -112.17638     -5.3079133      0.020967401    39173.124      0            
    130600   304.36348      506.15473      0.46070752    -15.010344      32.584328      609.77382     -117.47322     -4.1805578      0.020613622    39845.429      0            
    130700   275.5761       515.75044     -2.1894704     -15.596212      33.594656      605.78407     -102.01599     -3.8266102      0.020441243    40181.441      0            
    130800   304.27988      502.13995      2.1909209     -15.571501      36.707604      595.02705     -110.95387     -5.2602581      0.020140568    40781.304      0            
    130900   267.80822      495.55349      3.3156418     -15.178656      29.200437      600.26957     -116.11816     -5.935332       0.019888466    41298.238      0            
    131000   266.56302      499.24026      0.62966237    -16.440841      31.252808      591.86389     -103.33834     -4.7269212      0.019603811    41897.904      0            
    131100   280.10104      505.63825      0.54152904    -16.99461       26.862374      605.38172     -105.55776     -4.595009       0.019249362    42669.394      0            
    131200   277.74668      512.39206     -0.83978571    -15.223475      37.868644      606.61282     -110.75819     -5.2679541      0.018972399    43292.291      0            
    131300   339.02646      500.10747     -1.0946        -16.860395      28.071762      597.96602     -104.25358     -3.7217322      0.01866988     43993.781      0            
    131400   323.57383      496.34893      3.0392727     -17.78681       33.812374      595.67183     -113.22815     -5.1595884      0.018354762    44749.074      0            
    131500   267.82447      495.10258      3.6866049     -15.371497      32.970969      588.70682     -110.03831     -4.8520079      0.017933193    45801.026      0            
    131600   268.57125      493.52828     -1.1818463     -15.657384      25.896032      595.59161     -107.08422     -4.0359186      0.01752302     46873.12       0            
    131700   285.52938      497.61217      3.6484113     -17.874921      26.344848      587.37106     -98.412395     -3.4648316      0.017244247    47630.877      0            
    131800   289.38056      503.22812     -0.088548408   -17.149835      35.306607      595.44709     -105.04272     -5.2444744      0.016906838    48581.443      0            
    131900   293.85603      510.97436      1.1708746     -16.581391      38.094052      616.95813     -123.32374     -5.3435599      0.016789983    48919.562      0            
    132000   298.39621      510.62905      2.4610181     -17.701135      34.444164      600.60557     -104.35866     -4.8219136      0.016611342    49445.651      0            
    132100   302.18776      502.97083      0.18638467    -17.290327      35.341167      598.51181     -107.86243     -5.9157743      0.016434985    49976.232      0            
    132200   233.22484      507.09245      2.8845631     -16.739024      37.507167      606.38827     -117.49734     -5.4511898      0.016190927    50729.562      0            
    132300   242.52568      504.1128       2.8746824     -15.59361       28.624876      601.85006     -108.15928     -5.4839201      0.015886659    51701.156      0            
    132400   308.73789      500.23193      0.38803676    -17.005891      34.898474      608.98971     -121.19857     -5.8398323      0.015544165    52840.316      0            
    132500   284.20396      510.97698      0.84138887    -15.302561      36.525321      601.28356     -107.41955     -4.9511767      0.015261817    53817.878      0            
    132600   315.70875      505.07463      4.6309111     -15.899255      33.936499      604.86458     -117.13483     -5.3232774      0.01510512     54376.171      0            
    132700   327.99804      496.51289      0.082146228   -16.946076      29.604075      600.01465     -110.93029     -5.3116182      0.014886474    55174.827      0            
    132800   252.6441       503.82259      2.3190935     -17.68987       36.872358      597.48226     -109.28118     -5.880077       0.01463485     56123.473      0            
    132900   289.36364      489.86106      4.4090646     -18.909663      32.359295      594.1286      -116.60919     -5.5170394      0.014252085    57630.769      0            
    133000   280.72408      498.156        0.30189921    -16.201559      30.626776      602.66142     -115.17617     -4.0563654      0.013938379    58927.842      0            
    133100   269.63193      516.69509      2.0695713     -15.279929      34.71311       595.7323      -97.311102     -3.2288536      0.013682882    60028.186      0            
    133200   313.1033       511.57591      0.38502269    -15.774017      42.520149      601.60923     -112.50218     -4.6622919      0.013485591    60906.386      0            
    133300   270.97392      512.95287      6.0405886     -17.720203      30.866796      604.36739     -106.57841     -4.0232929      0.013359975    61479.052      0            
    133400   285.0607       499.72682      4.536539      -15.421717      33.40753       584.09345     -103.19835     -3.690635       0.013114253    62630.988      0            
    133500   268.60144      499.96084      2.0423672     -16.784189      29.348995      608.62973     -118.09433     -5.1817376      0.012863866    63850.058      0            
    133600   287.57836      510.65617      6.7475723     -15.417128      32.67488       595.82812     -104.78814     -4.389128       0.012618164    65093.354      0            
    133700   310.72213      518.04457      1.7018177     -15.220528      33.650082      625.87441     -121.78462     -6.1765848      0.012387494    66305.47       0            
    133800   299.49259      507.51964      1.1875802     -17.508185      29.727693      617.3794      -117.13557     -6.1312791      0.012186529    67398.895      0            
    133900   270.48257      505.7726       8.0141326     -14.229632      33.473549      600.37459     -116.76174     -5.0983008      0.011933265    68829.326      0            
    134000   267.26512      505.29362      1.6616954     -17.252683      28.992748      623.15132     -124.47104     -6.7884128      0.011622863    70667.496      0            
    134100   303.66402      510.19282      3.3528951     -15.923829      35.489862      593.14414     -102.27705     -3.593196       0.011378056    72187.957      0            
    134200   361.88567      502.00371      4.4981012     -18.242518      37.012261      599.48914     -115.72054     -5.0327296      0.011207965    73283.471      0            
    134300   321.33481      503.17948      1.0734318     -14.745201      38.656871      593.54867     -110.98462     -4.3696677      0.010955035    74975.443      0            
    134400   318.52857      499.99693      2.485412      -16.896318      28.503835      598.51187     -106.26633     -6.3415378      0.010763503    76309.6        0            
    134500   305.56016      499.69643      0.94572919    -17.095034      30.475203      604.20281     -113.8481      -4.9841744      0.010487506    78317.821      0            
    134600   270.90588      510.36238      1.6643332     -14.376768      37.289721      599.05703     -109.91138     -3.3605595      0.010274755    79939.482      0            
    134700   357.44755      510.31429     -0.76131175    -14.666218      36.879943      596.48778     -101.66499     -5.9609125      0.0099996339   82138.868      0            
    134800   334.48659      515.4733       5.4187988     -15.690208      38.555739      594.94496     -103.24196     -4.5140365      0.0098915483   83036.405      0            
    134900   309.39326      504.83012      2.1918423     -17.756217      33.107259      596.42065     -105.55673     -3.5766861      0.0097231217   84474.785      0            
    135000   310.21044      498.88196      5.4594479     -17.114691      35.109219      590.54836     -110.41573     -4.7046431      0.0095614234   85903.382      0            
    135100   293.82101      500.59707      2.403562      -15.719567      28.910136      603.23927     -113.07718     -5.1591567      0.0094027554   87352.97       0            
    135200   306.29893      503.69332      1.0768338     -12.732688      32.560819      602.09899     -113.86029     -5.4503335      0.0092424875   88867.701      0            
    135300   343.27454      508.89467      4.2160954     -17.324056      31.163111      608.63878     -112.47772     -5.3215457      0.0091542553   89724.241      0            
    135400   291.43175      521.73467     -2.9602292     -15.957016      45.29195       617.9851      -117.57836     -5.0467709      0.0089911119   91352.284      0            
    135500   300.33473      508.25185      6.7304671     -17.725901      30.118476      615.2042      -119.69548     -6.3799106      0.0088007622   93328.123      0            
    135600   296.21107      503.92652      2.3530078     -16.962916      34.266308      593.53862     -104.66288     -4.6056307      0.008615101    95339.406      0            
    135700   305.99518      500.61698      1.0882841     -14.75965       33.667359      595.59368     -109.78519     -5.1874983      0.0084289518   97444.929      0            
    135800   286.74124      505.17246      5.8519789     -17.409282      42.244683      592.3807      -114.09476     -3.8008628      0.0082455225   99612.682      0            
    135900   292.0087       511.81552      0.93665056    -13.738551      33.843159      606.99032     -110.61169     -5.6043593      0.008065727    101833.18      0            
    136000   360.0883       510.05775      1.8809657     -16.995421      27.356247      596.11829     -94.534155     -3.7681698      0.0079506927   103306.55      0            
    136100   339.24421      508.50154     -0.16706224    -17.478015      36.093074      615.10513     -120.18498     -4.8666105      0.0078353794   104826.91      0            
    136200   311.0578       499.4182       2.3461404     -19.80908       31.127265      588.51138     -100.10012     -2.6573779      0.0077531376   105938.87      0            
    136300   314.2634       496.67086      1.2744606     -16.787885      30.386199      587.09973     -100.29986     -5.0017831      0.007592987    108173.32      0            
    136400   277.60411      509.81474      0.0039029535  -16.209312      33.955679      607.53552     -110.48847     -4.9825815      0.0075132713   109321.04      0            
    136500   310.36574      506.45778     -0.11504359    -16.18276       34.432154      595.14005     -103.94724     -2.8693779      0.0074143277   110779.92      0            
    136600   339.31208      511.03093      0.16930502    -15.482554      35.74344       602.78344     -107.90578     -4.2769301      0.0072876892   112704.94      0            
    136700   372.25964      507.40763      1.8374972     -14.584685      31.73936       617.36756     -123.43013     -5.5219715      0.0071859988   114299.85      0            
    136800   286.14251      506.35315      2.9078319     -15.74208       35.277247      600.13041     -110.83819     -5.3820668      0.0070835693   115952.65      0            
    136900   290.69552      499.0153       2.8965917     -19.155406      28.762729      602.93229     -112.91743     -3.5034691      0.0070060847   117235.04      0            
    137000   281.83638      506.25805      0.6346257     -15.701009      33.781666      602.95903     -111.77217     -3.644092       0.0068836467   119320.27      0            
    137100   336.01707      505.12844      3.4641719     -16.205193      35.222383      600.21196     -112.64415     -4.9207225      0.0067949882   120877.12      0            
    137200   370.52751      504.64717      4.8613352     -17.853809      46.549773      591.73732     -115.51271     -5.1347306      0.006715018    122316.67      0            
    137300   355.15123      509.5738       2.975938      -16.990855      37.792951      606.07655     -114.41014     -5.8706358      0.0066388381   123720.23      0            
    137400   295.72789      506.96281      0.64471855    -17.478402      35.216539      612.00423     -118.08352     -5.3407498      0.0065124784   126120.74      0            
    137500   266.58234      503.11561      4.1542584     -16.140921      31.414795      587.03414     -99.168361     -4.17831        0.0063921201   128495.49      0            
    137600   285.76325      500.74166      1.7087994     -18.859114      32.818442      610.09134     -119.84159     -5.1762156      0.006294788    130482.33      0            
    137700   320.98115      500.72801      2.2161422     -17.73936       36.2816        597.44073     -113.06057     -4.4105287      0.0062057074   132355.36      0            
    137800   368.80228      502.6871       2.249166      -18.205147      34.86377       586.99067     -100.58242     -2.6289429      0.006101694    134611.57      0            
    137900   317.17593      510.60571      0.54187182    -16.02987       31.202351      616.96313     -116.85231     -5.2194725      0.0059834244   137272.33      0            
    138000   264.61068      503.23157     -0.98062398    -17.302978      39.312409      605.00667     -118.37859     -4.4253137      0.0058715086   139888.85      0            
    138100   292.07313      498.27417      1.9942726     -18.57749       22.602847      608.70972     -111.7784      -4.6767783      0.0057815862   142064.58      0            
    138200   292.04061      509.8146       2.9946276     -16.339856      36.788227      603.84355     -112.86464     -4.6073029      0.0056390452   145655.62      0            
    138300   322.72886      510.19601     -0.51924934    -16.058613      31.022641      616.98252     -116.15312     -5.0781633      0.0055075095   149134.31      0            
    138400   289.62927      512.18983      1.3850737     -17.90056       33.515765      594.91564     -95.007547     -4.7185414      0.0053150538   154534.39      0            
    138500   256.56346      501.46404      0.8143042     -18.300493      28.496275      612.94387     -116.71381     -5.7761075      0.0051166259   160527.39      0            
    138600   255.63377      501.39403     -0.58627453    -15.641604      35.540291      590.3768      -103.25798     -5.0372072      0.0048944335   167814.85      0            
    138700   288.07312      502.11756      0.43303895    -17.226507      28.538569      604.70841     -109.24972     -5.086223       0.0046962123   174898.1       0            
    138800   298.15121      506.53134      2.1308392     -18.128866      35.986782      606.60405     -114.18616     -5.8753025      0.0045077805   182209.1       0            
    138900   299.08537      510.10455      3.7259395     -19.768229      33.090672      610.66809     -111.92272     -5.6891992      0.0043038846   190841.22      0            
    139000   326.9836       502.57724     -0.67993352    -17.848369      42.800889      589.90616     -107.05204     -4.54946        0.0041046439   200104.72      0            
    139100   284.8538       495.53083      0.60955244    -16.037645      30.659653      594.04763     -107.80427     -5.9440899      0.0039126664   209922.99      0            
    139200   275.19601      494.84553      1.8872475     -17.645541      33.189345      586.07776     -103.83149     -4.8317928      0.0037734381   217668.5       0            
    139300   276.92332      502.66803     -0.45219348    -16.914226      33.949663      605.71496     -113.87817     -5.7519947      0.0036576649   224558.19      0            
    139400   328.51777      501.11561      2.4942607     -16.565953      36.700627      594.7862      -111.38112     -4.9184013      0.003563514    230491.2       0            
    139500   312.78211      505.37158      2.8099408     -16.036825      35.702181      602.00512     -113.44517     -5.6636635      0.0034951745   234997.88      0            
    139600   304.91149      503.04027     -0.40073871    -17.891322      33.121717      614.9651      -121.54623     -5.2082567      0.0034388821   238844.66      0            
    139700   317.39957      493.04975      3.6999059     -17.165919      29.282613      592.9254      -112.0786      -3.6136448      0.0033855787   242605.09      0            
    139800   260.22587      492.7773      -0.14772092    -16.484981      27.258963      603.86343     -115.49624     -6.2161457      0.0033403439   245890.43      0            
    139900   311.63451      487.72571      0.52120893    -17.552865      26.919866      595.26621     -112.68293     -4.7457726      0.0033235526   247132.72      0            
    140000   300.96951      500.97077      4.1877748     -18.081505      36.394549      599.73266     -115.79938     -5.4633326      0.0033123514   247968.44      0            
    140100   307.36485      505.74136      1.2060184     -14.539247      31.478241      600.16142     -108.78959     -3.7754794      0.0033024716   248710.28      0            
    140200   277.85062      517.65758      1.4114827     -14.096286      31.640977      617.05572     -113.78075     -4.573565       0.003305036    248517.29      0            
    140300   318.96292      507.74687      8.0238274     -16.165333      26.131479      597.95675     -102.62038     -5.5794728      0.0033305879   246610.7       0            
    140400   312.91609      499.66421      1.6692522     -17.446311      31.050572      601.27593     -110.57879     -6.3064441      0.00334651     245437.37      0            
    140500   277.98782      497.59149      0.56247377    -16.054445      32.342334      608.39391     -122.43727     -5.2155129      0.0033571972   244656.05      0            
    140600   250.10214      503.20676      2.793599      -17.059233      33.254318      587.49767     -99.574116     -3.7054775      0.0033982951   241697.26      0            
    140700   290.57226      508.96656      3.5597743     -18.518417      33.809676      625.33191     -127.95666     -7.2597159      0.0034105722   240827.22      0            
    140800   320.31854      508.53466      1.8104215     -14.716882      33.041513      607.49273     -114.34959     -4.7435288      0.003476595    236253.75      0            
    140900   335.93158      501.83102      7.9383828     -15.293807      29.846904      597.70783     -113.5197      -4.8485925      0.0035236354   233099.77      0            
    141000   286.83572      506.2489      -0.62832863    -17.472871      35.967162      614.15279     -119.78226     -5.9875917      0.003566769    230280.85      0            
    141100   283.58093      498.75641      1.523582      -18.182562      27.164853      607.34211     -114.60495     -4.4866164      0.0036180019   227019.95      0            
    141200   245.88607      500.93238      0.21755115    -15.828449      24.356791      602.99045     -106.77412     -4.0298356      0.0036794224   223230.31      0            
    141300   264.12889      500.53326      3.0766361     -16.812078      37.553778      602.18317     -119.50593     -5.962314       0.0037331371   220018.33      0            
    141400   315.08834      503.22009      0.18560089    -16.827938      29.552219      600.18252     -106.47521     -3.3970992      0.0038255758   214701.96      0            
    141500   300.37509      510.10081      1.2429365     -18.598948      34.568605      610.85424     -113.77554     -4.1904805      0.0039308918   208949.69      0            
    141600   298.19986      509.11886      1.944142      -15.026733      32.38896       590.73782     -96.457868     -4.467467       0.00401153     204749.46      0            
    141700   288.92961      499.15361      1.2344712     -18.726226      29.236203      600.3929      -108.56941     -4.4143228      0.0041099373   199846.99      0            
    141800   258.17861      495.9517      -0.053200759   -16.755562      35.174348      603.19426     -121.38003     -4.2281121      0.0042122782   194991.54      0            
    141900   250.15529      502.51053      2.2289946     -16.797399      25.708752      596.85608     -100.36195     -5.1239559      0.0043348878   189476.32      0            
    142000   307.92279      507.43384      0.2952447     -17.334224      34.67809       601.5923      -107.40605     -4.3915262      0.00443937     185016.93      0            
    142100   292.16202      510.81221      1.5037151     -16.349048      30.942685      604.70123     -106.30852     -3.6778474      0.0046036775   178413.58      0            
    142200   296.77605      505.56052      2.3059927     -16.164494      34.313498      596.6929      -106.76961     -4.8177657      0.0047285688   173701.31      0            
    142300   290.66599      497.80325      0.45187313    -17.75481       22.567457      608.69031     -111.15354     -4.9980388      0.0049003166   167613.38      0            
    142400   255.26104      506.35806      1.7650581     -16.901933      32.203845      609.41715     -116.75668     -3.3693803      0.0050602724   162315.1       0            
    142500   297.80239      514.27388      6.2285727     -17.345531      41.580116      604.10202     -114.53376     -5.7575365      0.0051831457   158467.21      0            
    142600   349.63823      506.90902      3.1028881     -19.30216       38.753632      591.81761     -103.06457     -4.3983753      0.005332608    154025.69      0            
    142700   311.01541      506.74971      2.7225841     -16.723398      30.107089      614.66731     -117.52508     -6.4988002      0.0054437694   150880.49      0            
    142800   296.33877      501.22613      2.9967034     -16.581268      31.920957      596.01796     -108.25037     -4.8778544      0.005523057    148714.49      0            
    142900   281.38814      503.19848     -0.19982674    -16.417113      27.672918      600.50401     -103.98133     -4.3801839      0.0056326738   145820.38      0            
    143000   278.92703      508.1312       3.4111536     -15.062014      32.524306      607.66777     -114.47904     -5.9309764      0.0057419618   143044.95      0            
    143100   285.2912       507.58862      3.5472559     -18.029825      30.649754      613.15491     -116.05933     -5.6741467      0.005818689    141158.71      0            
    143200   278.05063      511.75858      1.932441      -15.219924      38.948279      609.7915      -117.91198     -5.7817381      0.0059584201   137848.39      0            
    143300   276.81797      511.45411     -0.85246165    -16.825452      42.172617      604.07754     -113.17711     -3.9410249      0.00606081     135519.61      0            
    143400   269.23648      509.32813      2.4558274     -14.501637      36.645093      605.97224     -115.83382     -5.4095736      0.0062054692   132360.44      0            
    143500   258.5662       507.80266      3.6589877     -17.396835      37.161096      608.54323     -118.22704     -5.9367814      0.0063095835   130176.36      0            
    143600   280.25022      507.03785      3.2484753     -16.381927      34.985607      598.09886     -108.66838     -4.2447838      0.0064041066   128254.99      0            
    143700   305.81473      513.27452     -1.020821      -14.824883      29.225165      614.34133     -109.87443     -4.5718425      0.0064254085   127829.79      0            
    143800   345.82396      506.86786      2.3986552     -16.507594      31.678814      603.22672     -108.21445     -5.7142774      0.006545402    125486.35      0            
    143900   284.26083      505.94788      0.47403573    -16.233552      37.756882      594.99036     -106.46609     -4.5737651      0.0066330225   123828.71      0            
    144000   285.96763      494.39728     -0.91752846    -19.150966      26.972628      614.65111     -121.58311     -5.57485        0.0067754886   121225         0            
    144100   284.76623      499.22175      5.2720658     -16.806653      24.380551      590.85471     -100.90067     -3.5782499      0.0068868331   119265.07      0            
    144200   300.20529      508.67006      1.9306699     -17.864999      39.315394      604.30259     -113.66313     -5.3504634      0.0069951909   117417.61      0            
    144300   334.44759      504.27479      4.9850571     -16.304244      30.306751      595.18379     -104.38156     -5.5150016      0.0070488415   116523.92      0            
    144400   305.23886      507.08087      1.7064514     -16.583028      34.451461      615.71664     -122.15112     -6.0595353      0.0071243408   115289.07      0            
    144500   299.40368      504.78823      2.3758706     -15.210065      28.395219      589.01625     -97.348336     -2.4407065      0.007242834    113402.93      0            
    144600   324.00477      497.03937      2.2575721     -17.584472      36.075242      594.71109     -111.89863     -6.5214235      0.0073676159   111482.28      0            
    144700   319.42994      499.09965      3.5030718     -18.129886      31.714128      601.00162     -114.31108     -4.6782075      0.0075293875   109087.04      0            
    144800   272.03094      510.06493      3.7680021     -16.136931      41.853561      594.19042     -110.26947     -3.3406531      0.0076171674   107829.93      0            
    144900   276.78175      509.45958     -0.96181297    -15.563686      33.674126      616.57492     -119.73958     -4.524395       0.0077293992   106264.22      0            
    145000   302.07312      503.16488      1.6964692     -14.410738      34.269187      593.1332      -106.78163     -4.7416209      0.0078034699   105255.56      0            
    145100   291.07395      507.30899      2.8053237     -17.62479       36.194712      617.52063     -124.90177     -6.6851259      0.0079599708   103186.13      0            
    145200   307.91592      509.82135      1.070225      -17.032288      39.363509      597.00582     -106.25096     -4.3349593      0.0080576474   101935.29      0            
    145300   314.2819       511.214        2.5957476     -15.98269       38.303144      619.02511     -126.74986     -5.977462       0.008174274    100480.92      0            
    145400   306.0746       503.86968      3.3254741     -16.859585      30.969868      596.72273     -106.99722     -3.2915928      0.0083114492   98822.55       0            
    145500   259.64023      502.42413      2.1827852     -16.478635      30.110781      606.57838     -114.36607     -5.6030999      0.0084025325   97751.316      0            
    145600   297.18573      496.30398      4.0855665     -16.700227      32.293137      593.05043     -112.91019     -3.5147359      0.0085459278   96111.11       0            
    145700   274.25571      511.18049      0.15711159    -16.075613      27.314463      603.20989     -99.261548     -4.1638177      0.0086483346   94973.038      0            
    145800   280.15156      516.5125       1.6695594     -15.962728      42.69926       602.09398     -110.08736     -3.9002113      0.0087751265   93600.771      0            
    145900   323.23022      502.85814      1.4081428     -18.416513      36.228953      595.61732     -104.13078     -7.8489779      0.0088700733   92598.853      0            
    146000   303.29477      502.37234      0.89224881    -16.50171       34.917523      591.94726     -104.93373     -3.9492488      0.0090189166   91070.651      0            
    146100   261.88219      506.93049     -0.075608185   -17.577207      32.4803        604.61341     -108.40097     -4.1094342      0.0091437685   89827.144      0            
    146200   285.91047      502.46316      2.392459      -15.291557      38.088636      594.88421     -112.52627     -5.0843212      0.009258479    88714.206      0            
    146300   278.01399      512.15342      3.5826117     -16.819252      42.328047      598.38814     -109.3385      -5.9876387      0.0093718523   87641.011      0            
    146400   338.35726      507.90707      0.61429575    -17.443823      40.283294      594.3632      -106.04793     -3.8619693      0.0094293676   87106.437      0            
    146500   305.24273      512.74675      2.0361146     -16.883574      41.192773      602.52437     -111.20323     -4.9197122      0.0094824807   86618.538      0            
    146600   292.07822      500.98517      0.78708466    -16.182296      31.734686      598.67304     -108.57549     -5.4518545      0.0095657479   85864.547      0            
    146700   297.86134      497.10606      0.40504903    -16.69785       29.999755      600.84708     -112.75713     -4.6908492      0.0096434182   85172.974      0            
    146800   306.3811       499.95203      0.82695113    -16.511693      34.783719      601.28551     -115.51435     -4.9181123      0.0097138162   84555.708      0            
    146900   308.09128      504.87418      3.5791248     -17.930702      38.150494      586.64364     -101.52814     -4.0402468      0.0098157183   83677.892      0            
    147000   285.63148      514.68326      0.83061912    -17.967141      41.886421      608.15821     -113.1959      -5.0289445      0.0098768123   83160.294      0            
    147100   356.22581      501.70882      0.32332519    -18.255516      36.255413      606.57478     -117.37446     -5.8147231      0.0099353435   82670.379      0            
    147200   305.62042      505.0246       1.0953243     -17.734022      40.100385      590.40808     -105.18207     -3.6631065      0.0099723486   82363.608      0            
    147300   280.05338      500.62977      0.026193795   -16.335653      28.213271      609.46843     -114.97268     -5.7697998      0.010005954    82086.983      0            
    147400   274.89993      499.38296      4.0298733     -17.37576       33.17195       603.54107     -118.19332     -5.7908606      0.010075042    81524.084      0            
    147500   299.23037      503.71368     -2.2896248     -17.333914      29.072168      607.01242     -106.83964     -5.9077175      0.010158462    80854.622      0            
    147600   348.92151      506.33394      1.0145245     -15.829413      36.738423      593.68073     -105.78594     -3.4843853      0.010206309    80475.576      0            
    147700   295.82357      515.21105      5.2111634     -16.117119      28.6067        620.60973     -116.53666     -6.5627681      0.010256517    80081.632      0            
    147800   304.5778       504.91671      3.8756242     -17.147539      47.370378      581.01233     -106.89204     -3.3020453      0.010300049    79743.171      0            
    147900   307.99327      501.25419      0.340342      -16.590236      35.794033      596.12845     -109.68005     -4.7383496      0.010368545    79216.383      0            
    148000   313.13801      498.65829      2.321512      -18.201866      33.396692      602.61901     -117.23004     -4.2470213      0.010410631    78896.14       0            
    148100   287.14981      507.17556      2.3485937     -17.713174      35.425026      603.46088     -110.8519      -5.4938654      0.010452701    78578.599      0            
    148200   311.98892      515.11612     -0.32592912    -15.968263      44.61152       602.5761      -110.54666     -5.2306522      0.010425219    78785.738      0            
    148300   360.07743      506.97584     -0.89755288    -16.791511      28.966764      616.13512     -115.24985     -5.1871329      0.010491566    78287.516      0            
    148400   295.41963      506.46419      3.3314977     -17.493067      32.447122      605.74017     -113.42703     -4.134506       0.010567557    77724.548      0            
    148500   308.26033      496.50341      0.30326905    -17.361511      35.594226      593.60728     -110.70967     -4.9301937      0.010604646    77452.715      0            
    148600   283.08531      503.37152      0.010364738   -15.546067      44.699041      594.49205     -114.81308     -5.4707938      0.010653159    77100.005      0            
    148700   290.4926       506.22044      2.3568962     -18.192717      34.590144      606.52784     -113.1633      -5.8984294      0.010784583    76160.442      0            
    148800   362.32032      506.87352      1.1256419     -18.410094      30.119644      600.50937     -102.29781     -4.1732211      0.010879064    75499.015      0            
    148900   392.69427      509.74584      1.653837      -13.854555      34.040587      600.881       -108.06731     -4.9077221      0.010936403    75103.178      0            
    149000   345.87233      501.31887      5.4051392     -16.675714      29.977396      612.52855     -124.12835     -5.7881533      0.011044054    74371.114      0            
    149100   317.60822      500.40624      1.5973377     -17.04124       27.455378      586.97446     -96.1372       -2.4424935      0.011089964    74063.237      0            
    149200   276.4776       505.13954      0.19593156    -18.055653      31.198825      605.60121     -109.33992     -4.4608488      0.011174712    73501.547      0            
    149300   289.38146      500.97606      5.0599167     -17.520983      29.98063       612.73702     -122.93513     -6.3453837      0.011269       72886.558      0            
    149400   310.52189      499.91303      1.3800861     -17.069695      25.510836      594.94351     -100.90379     -3.9479139      0.011355584    72330.812      0            
    149500   309.2073       509.89456      4.6081728     -17.478479      29.496834      603.54705     -107.11119     -3.1678272      0.011500603    71418.745      0            
    149600   306.5699       517.13294      1.0991046     -16.154806      34.589659      623.72789     -120.71772     -5.4111961      0.011678604    70330.205      0            
    149700   309.74886      504.79226     -0.16101085    -16.901021      23.168712      603.78174     -99.700908     -5.3952518      0.011906041    68986.711      0            
    149800   260.10924      504.32839      3.1234912     -16.937502      30.183703      596.01334     -103.2508      -4.8038379      0.012165796    67513.756      0            
    149900   268.44902      505.41803      3.6225223     -16.508373      30.709167      602.99368     -111.18036     -4.2186119      0.012463516    65901.034      0            
    150000   321.11193      503.88498      2.7166139     -15.151436      25.820157      599.91514     -104.46456     -4.9509315      0.012722868    64557.66       0            
    150100   273.17283      519.40748      0.32880999    -17.67662       38.504861      619.26711     -115.67292     -5.3437621      0.013017309    63097.418      0            
    150200   358.73355      506.12866      3.2713826     -15.549854      29.075741      617.63047     -121.33516     -6.9639251      0.013555539    60592.104      0            
    150300   295.0591       505.18744     -0.27397925    -17.990295      38.538983      599.76396     -110.76445     -4.0867762      0.014021272    58579.463      0            
    150400   275.54018      501.01301      0.15577943    -17.037123      33.168852      606.18746     -116.70692     -4.7550295      0.014552315    56441.784      0            
    150500   278.03658      500.55923      4.4842971     -18.053808      28.264817      606.97198     -115.37776     -5.7302982      0.015071036    54499.147      0            
    150600   319.22951      501.90295      1.5153498     -17.291473      38.570591      600.86946     -117.00461     -4.7563643      0.01562013     52583.34       0            
    150700   321.18513      509.7777       1.7399362     -17.623909      32.883952      603.93538     -105.53139     -5.6262743      0.01627934     50454.048      0            
    150800   285.54344      512.94084      2.3154698     -18.714279      40.772304      596.92882     -104.19714     -4.1643419      0.016954324    48445.375      0            
    150900   292.97172      506.63834      3.5807742     -16.69514       33.084833      621.73962     -127.20534     -7.8664018      0.017521107    46878.237      0            
    151000   335.04697      496.52586      0.81331815    -15.562989      39.798035      596.171       -118.32436     -6.3691501      0.017959341    45734.339      0            
    151100   289.71356      503.0036       2.1321434     -18.878522      37.19964       590.66849     -103.12927     -4.9888779      0.018493292    44413.868      0            
    151200   301.09028      503.0049       4.8467283     -13.939047      37.717272      589.60786     -110.14485     -5.0830578      0.019005388    43217.146      0            
    151300   310.43951      502.79361      0.17076304    -16.225625      37.970604      600.45347     -113.96024     -5.6153691      0.019315433    42523.438      0            
    151400   348.65324      499.93125      0.32535469    -16.97499       31.514558      592.53164     -103.75662     -3.7086995      0.019821837    41437.058      0            
    151500   342.70071      502.63885      1.6046899     -17.576248      35.152243      600.14459     -110.34849     -6.3379343      0.020236928    40587.119      0            
    151600   269.08252      508.84477      1.9513014     -13.657841      39.391592      595.80858     -110.49488     -4.1539845      0.020518316    40030.508      0            
    151700   262.64843      503.77343      3.6822063     -13.455209      29.229173      606.76859     -116.92859     -5.5227437      0.021008544    39096.408      0            
    151800   309.49843      496.35816      5.0843465     -17.48024       26.722763      605.71745     -117.29364     -6.3925166      0.021320495    38524.369      0            
    151900   309.02389      501.05698      3.5502851     -19.47769       33.01891       600.25209     -111.58843     -4.6981902      0.021486808    38226.181      0            
    152000   347.90558      492.14855      7.4402501     -21.358056      24.343946      604.64672     -118.1661      -4.7582032      0.021758742    37748.443      0            
    152100   303.30093      502.54149      6.0638345     -17.652573      38.159758      581.2052      -100.9915      -4.243226       0.021849365    37591.876      0            
    152200   298.64614      502.28211     -0.15583482    -14.774112      28.678103      601.67052     -108.6546      -4.4819697      0.022041255    37264.602      0            
    152300   283.75404      501.79501      1.848995      -13.403059      34.984708      602.18002     -118.61601     -5.1996396      0.022229505    36949.028      0            
    152400   276.61579      494.24324      3.2007142     -16.282255      27.105331      587.923       -103.92421     -3.7793496      0.02242311     36630.004      0            
    152500   286.37256      497.63358      2.7720611     -17.421025      23.446226      605.86594     -110.49084     -6.5387833      0.022678851    36216.941      0            
    152600   351.58329      492.91478      0.2678413     -20.9988        29.38567       600.19594     -111.77933     -4.1565431      0.022949909    35789.188      0            
    152700   296.73559      512.24325      5.5719406     -16.108945      33.048554      601.61273     -107.9147      -3.9663236      0.023260854    35310.767      0            
    152800   288.42888      508.23082      1.1084526     -12.144085      27.307845      605.00406     -108.16435     -4.8810971      0.023411636    35083.35       0            
    152900   243.49476      501.48371      0.25854764    -17.999557      31.597646      612.39147     -118.72521     -6.0391821      0.023578118    34835.63       0            
    153000   244.40247      490.18353      0.74780355    -21.154851      26.713687      602.58166     -112.45256     -6.2522115      0.023785172    34532.381      0            
    153100   265.8728       494.20253      0.32828644    -22.392166      30.054173      594.97802     -105.53537     -3.2304124      0.02397052     34265.364      0            
    153200   317.19399      497.32501      3.9200622     -22.51777       24.703666      599.2091      -103.14031     -4.8497403      0.024361474    33715.473      0            
    153300   307.13588      508.06037      5.8017101     -18.697957      35.193712      592.61933     -102.07817     -4.7782476      0.0246357      33340.177      0            
    153400   313.00899      498.07483      4.404496      -22.738884      38.935413      595.58253     -113.80297     -4.3057473      0.024849405    33053.452      0            
    153500   269.92423      493.73509      1.2339291     -23.470397      25.708472      593.41209     -98.713856     -4.4351547      0.025157462    32648.707      0            
    153600   290.94765      494.05414      0.99122927    -18.526442      31.399555      594.86526     -111.01707     -3.6583959      0.025552855    32143.516      0            
    153700   292.09892      506.17681      2.229499      -14.056966      28.866294      617.68124     -122.09015     -6.4531071      0.026017713    31569.209      0            
    153800   358.2361       508.5542       2.5429167     -14.498152      33.616755      598.92569     -108.21827     -3.8147363      0.026579064    30902.466      0            
    153900   361.08172      504.7245       2.973889      -12.172839      25.528906      601.72373     -107.94484     -5.3843409      0.026878263    30558.47       0            
    154000   311.38375      498.64717     -0.87842867    -15.779193      37.410027      587.98258     -105.3628      -4.7250067      0.027089402    30320.294      0            
    154100   297.80234      496.10786      1.2426617     -16.343213      35.656063      590.78726     -110.38255     -4.8523664      0.027338942    30043.54       0            
    154200   314.42581      494.75013      1.6143174     -17.468785      27.068173      599.42316     -111.52981     -4.3569238      0.02777655     29570.217      0            
    154300   328.45194      501.97931      0.22851493    -15.970666      34.530875      595.74404     -108.23793     -4.3155269      0.028253465    29071.076      0            
    154400   358.67858      511.29942      2.4817076     -15.633603      40.528702      595.56422     -107.76187     -3.8797272      0.028648928    28669.785      0            
    154500   329.17757      506.47481      0.34303582    -15.117519      30.614386      624.58435     -126.76222     -7.1872343      0.029131188    28195.163      0            
    154600   305.36874      504.49255      0.98049053    -12.277793      25.323734      592.84436     -98.952926     -3.4253136      0.029450533    27889.431      0            
    154700   318.09737      496.70608      0.58366756    -13.815713      28.586912      604.07245     -115.9106      -6.8106413      0.030052573    27330.725      0            
    154800   313.95233      492.43208      1.0170328     -14.448163      25.221068      599.01362     -112.76897     -5.6025101      0.030757712    26704.152      0            
    154900   255.54051      496.15319      0.46508018    -19.535392      20.983841      609.54116     -110.98467     -4.3168223      0.031537133    26044.175      0            
    155000   278.4174       485.33218     -1.9035397     -16.645711      31.062502      585.51431     -107.5189      -5.1764802      0.032051979    25625.831      0            
    155100   261.02919      490.87159     -0.27741403    -18.549336      27.298216      596.58947     -109.15974     -5.0296039      0.032465793    25299.2        0            
    155200   325.10316      492.22996     -5.0535255     -18.680406      31.7687        616.98271     -126.61979     -6.1677363      0.03261632     25182.443      0            
    155300   304.2662       498.68298     -2.1494949     -19.553823      30.725025      602.56215     -106.41537     -6.4855059      0.032942977    24932.738      0            
    155400   323.34403      490.20039     -3.4819508     -20.169154      33.993867      600.67394     -115.78873     -5.0275834      0.033340193    24635.688      0            
    155500   298.01435      487.27988     -1.2078381     -18.827125      26.32558       599.63235     -114.74035     -3.9027389      0.033875889    24246.112      0            
    155600   264.51587      490.55506     -2.3405741     -18.057444      25.721021      603.99526     -113.81273     -4.9504765      0.034591747    23744.352      0            
    155700   315.60481      490.27973     -1.4655739     -19.594776      31.384826      588.324       -103.66246     -4.7062922      0.035397252    23204.022      0            
    155800   339.31852      495.49678     -3.0735254     -18.843422      30.08825       612.13926     -119.89733     -4.9164456      0.03633981     22602.171      0            
    155900   295.16997      501.27013     -1.886223      -17.263539      34.168109      600.30209     -109.46386     -4.5864429      0.037189253    22085.913      0            
    156000   322.92435      488.37948     -3.1004793     -17.213751      27.996034      603.37437     -117.85684     -4.819862       0.038306733    21441.625      0            
    156100   269.706        492.35556     -4.3053719     -16.871452      32.212096      600.92493     -113.74072     -5.8639237      0.039157912    20975.547      0            
    156200   283.25028      480.84852     -4.65155       -19.730041      25.40242       598.81516     -115.01339     -3.9740852      0.040118433    20473.347      0            
    156300   258.71778      483.16014     -3.1181301     -20.370154      29.599041      587.95085     -106.66186     -4.2396073      0.041257404    19908.15       0            
    156400   307.42577      491.14518     -4.8363286     -17.937107      26.116358      603.54694     -110.42342     -5.3212567      0.04227097     19430.796      0            
    156500   302.55311      498.72509     -5.4078161     -19.788876      32.403844      603.94255     -108.69762     -3.726991       0.043277684    18978.802      0            
    156600   310.75457      498.45094     -1.4672801     -15.843803      28.352807      593.68715     -102.46375     -3.8141801      0.044410991    18494.489      0            
    156700   278.37918      497.47014     -5.6353003     -17.018998      29.422997      601.79481     -106.78766     -4.3057086      0.045990683    17859.239      0            
    156800   260.87907      487.54996     -5.2832873     -19.480542      32.958489      598.27231     -114.16482     -4.7521874      0.047632072    17243.815      0            
    156900   296.34858      479.59036     -5.1648498     -19.125575      25.957074      593.23045     -109.63708     -5.6696536      0.049299304    16660.653      0            
    157000   288.37852      493.297       -2.9345384     -18.965404      29.105843      590.41221     -101.91305     -2.40805        0.050933897    16125.972      0            
    157100   316.92197      493.92713     -6.3576595     -17.242479      30.950405      605.27922     -112.35379     -6.3485699      0.05279122     15558.621      0            
    157200   302.25489      492.5823      -6.0221966     -18.149085      29.884024      602.50574     -111.42913     -4.207059       0.054800076    14988.275      0            
    157300   258.35101      498.79366     -3.6500237     -14.441477      31.120194      608.325       -116.97118     -5.5888463      0.056450187    14550.149      0            
    157400   281.85153      492.55417     -2.9729678     -17.536307      30.53116       612.44641     -124.96432     -4.9498028      0.058379154    14069.382      0            
    157500   309.55732      498.00989     -0.81078198    -18.603773      25.794441      614.19883     -117.43481     -5.1340099      0.059958228    13698.847      0            
    157600   349.31884      499.98822     -5.0402485     -15.037159      36.614271      600.72757     -112.16067     -5.1155465      0.06096736     13472.104      0            
    157700   323.40486      503.02653     -2.6189986     -14.103696      45.595662      590.54139     -110.87376     -5.514068       0.062668566    13106.389      0            
    157800   299.05304      494.85148     -0.44008179    -16.33201       27.633008      609.14922     -120.18067     -4.9779832      0.064581676    12718.137      0            
    157900   282.80417      495.11786     -2.8854188     -16.994265      29.393506      601.95497     -111.63156     -4.7193683      0.065939391    12456.266      0            
    158000   296.88394      496.25844     -4.9559138     -14.294478      42.252538      582.5099      -105.38897     -3.864635       0.067552606    12158.8        0            
    158100   275.36321      506.59292     -0.41934873    -15.689507      33.66931       606.2672      -111.66013     -5.5746135      0.069721992    11780.481      0            
    158200   308.10902      503.36572     -3.5295737     -14.633795      34.702518      601.49908     -109.84315     -4.8293639      0.07168534     11457.832      0            
    158300   308.75837      493.75279     -4.9581036     -17.771525      32.742066      586.23324     -98.506301     -3.9865953      0.072903654    11266.357      0            
    158400   267.84612      492.29622     -4.7834554     -15.098175      28.71987       595.96993     -107.94721     -4.564742       0.07417002     11073.997      0            
    158500   280.54661      487.09712     -4.2362176     -18.438583      34.293056      585.63997     -105.72159     -4.4395069      0.074547581    11017.911      0            
    158600   307.80715      499.2921      -4.8453635     -12.799337      29.449783      594.48746     -103.10153     -3.8989112      0.075415185    10891.157      0            
    158700   331.79943      494.56192     -3.0407965     -16.385998      36.256334      592.66914     -109.86073     -5.0760268      0.076140041    10787.473      0            
    158800   263.53195      505.43141     -0.85996547    -18.838088      23.468133      617.00381     -110.53406     -4.8084224      0.076696822    10709.161      0            
    158900   270.5928       498.51595     -2.326094      -18.989772      34.654962      594.72844     -106.03639     -3.5151943      0.076672976    10712.492      0            
    159000   249.84446      499.51749     -1.1606398     -14.117325      33.502619      592.83122     -107.25531     -4.2830811      0.076269681    10769.137      0            
    159100   245.01627      490.98773     -2.4785469     -14.344119      37.306338      583.92308     -110.14368     -3.275339       0.075580929    10867.273      0            
    159200   255.24182      495.61169     -2.5523657     -14.136928      25.47439       594.38625     -102.69572     -4.8639311      0.075391172    10894.626      0            
    159300   282.34236      499.07867     -4.7278183     -17.447549      31.501647      604.21769     -111.10598     -3.3593174      0.075202494    10921.96       0            
    159400   300.88153      500.91142     -0.43859857    -17.339161      29.050482      603.10617     -108.47935     -4.988122       0.075178246    10925.482      0            
    159500   319.5861       498.53176     -0.15026078    -19.461338      32.850866      597.04391     -108.24745     -3.5039636      0.075834322    10830.961      0            
    159600   300.92882      500.16897     -1.255443      -16.89418       29.813416      608.13867     -113.85202     -5.7814648      0.075845905    10829.307      0            
    159700   270.45769      494.84326     -0.54561934    -16.163152      34.532533      595.86434     -113.86936     -4.9754864      0.075993814    10808.23       0            
    159800   257.14986      494.4735      -1.727091      -16.916058      32.131904      601.24073     -115.46109     -4.7948898      0.075989084    10808.903      0            
    159900   270.7857       512.39168     -1.9634473     -10.533545      36.095801      598.78146     -105.45336     -4.5352285      0.076401652    10750.535      0            
    160000   321.17501      504.82739     -2.0328553     -15.849871      35.146554      602.74339     -109.99609     -5.1837324      0.076693221    10709.664      0            
    160100   313.67499      145984.03      2011.6237     -20.387071      143546         563.22456     -112.83793     -3.598775       0.077384068    10614.053      1            
    160200   653.75453      458.5279       0.091067098   -31.413215      59.623484      561.07267     -125.9295      -4.916613       0.16389059     5011.6275      1            
    160300   399.94027      399.10929     -3.132838      -25.396994      33.815641      503.45874     -105.84732     -3.7879389      0.16671452     4926.737       1            
    160400   353.35039      402.04605     -2.0122634     -28.464582      26.20891       545.56954     -133.81067     -5.4448932      0.16449377     4993.2505      1            
    160500   275.85284      381.95671      1.2303031     -32.470952      23.656427      503.843       -112.58652     -1.7155393      0.16406697     5006.24        1            
    160600   317.53291      383.43188      7.5109748     -28.655915      22.235638      515.94484     -129.85569     -3.7479702      0.16454177     4991.7938      1            
    160700   275.26429      365.69946      1.3892951     -26.631984      20.572034      509.0659      -135.42755     -3.2682366      0.16437752     4996.782       1            
    160800   289.01695      371.38053     -4.3553279     -32.714439      16.737534      515.56111     -121.9106      -1.9377563      0.1633077      5029.5155      1            
    160900   273.4312       382.67621      6.9355253     -25.299668      22.34113       510.61593     -128.1062      -3.8105147      0.16338684     5027.0793      1            
    161000   272.70969      362.01744     -2.0323062     -26.878589      14.092785      500.79756     -121.29695     -2.6650662      0.16380108     5014.3663      1            
    161100   269.6474       376.05171     -0.37006008    -25.175719      20.437355      504.77737     -119.88546     -3.7317719      0.16335146     5028.1682      1            
    161200   254.1987       366.53282     -0.43920891    -25.422587      22.519924      478.38629     -105.62866     -2.8829346      0.16256666     5052.442       1            
    161300   312.99187      369.37616      0.54509229    -25.245278      17.74646       476.17784     -98.195504     -1.6524519      0.16312916     5035.02        1            
    161400   319.32241      372.89788     -5.8844424     -30.897968      26.565893      504.64908     -120.15874     -1.3759467      0.16134752     5090.618       1            
    161500   302.69495      360.89208     -0.83221205    -31.337497      20.475977      505.293       -128.96223     -3.7449538      0.16224014     5062.6102      1            
    161600   299.52798      371.75291      1.2931471     -23.297403      16.711745      484.81992     -106.64197     -1.1325333      0.16168899     5079.8673      1            
    161700   308.74004      359.94101     -2.459944      -25.346917      15.195896      493.74335     -117.19615     -3.9952212      0.16093224     5103.7542      1            
    161800   287.84558      356.52901      2.2761339     -26.627254      14.669997      490.20493     -120.79905     -3.1957467      0.16147859     5086.4861      1            
    161900   298.59417      359.37517     -1.094414      -26.213222      23.271646      479.9801      -114.44989     -2.1190551      0.15939629     5152.9343      1            
    162000   325.91473      368.94467      3.3869039     -23.709649      21.309509      483.91757     -113.81293     -2.14674        0.15781043     5204.7169      1            
    162100   312.10378      358.49675     -4.0442566     -27.334877      21.243588      490.20909     -118.13581     -3.440987       0.15573024     5274.2397      1            
    162200   262.16223      354.99682      0.14995774    -26.305681      14.555782      493.07033     -121.9394      -4.5341763      0.15461878     5312.1528      1            
    162300   252.94149      356.21407     -3.5582952     -23.776468      19.29854       486.0792      -118.60297     -3.2259432      0.1532497      5359.6098      1            
    162400   316.75409      352.06922     -1.1680777     -24.473548      15.847432      484.19384     -118.41306     -3.9173684      0.15330042     5357.8366      1            
    162500   309.36872      369.47217      2.9793928     -24.018183      20.050349      487.87275     -114.93614     -2.4759979      0.15207642     5400.9597      1            
    162600   311.52691      374.10648     -1.5187118     -22.644953      22.072353      499.73552     -120.15368     -3.3840415      0.1507697      5447.7698      1            
    162700   280.96716      379.17204      4.0671601     -20.295656      12.301011      507.63525     -120.06283     -4.4728947      0.1493794      5498.473       1            
    162800   309.14197      361.06121      0.020714149   -22.744342      15.367642      485.40786     -114.11035     -2.8803117      0.14852347     5530.1606      1            
    162900   264.04896      363.8444      -2.5120811     -21.677085      20.426947      496.70554     -125.10773     -3.9911947      0.14700859     5587.147       1            
    163000   307.80653      363.1946       2.6547272     -22.052087      20.011522      477.37197     -112.47981     -2.3117268      0.1462866      5614.7222      1            
    163100   309.31504      369.0943       2.1211791     -22.823529      19.530865      488.21853     -113.76589     -4.1868563      0.14561419     5640.6497      1            
    163200   324.42076      360.17141      1.1847597     -26.846423      22.737064      487.13946     -121.72958     -2.3138654      0.14349306     5724.0303      1            
    163300   248.04327      353.53255     -0.79598822    -29.794905      20.371301      475.83619     -110.58287     -1.5011798      0.14383663     5710.3578      1            
    163400   282.52707      351.10138      0.036668027   -27.978485      18.575443      491.19316     -126.87126     -3.8541448      0.14260122     5759.8289      1            
    163500   300.79393      360.75395     -5.473194      -24.945431      26.039536      480.03381     -111.84903     -3.051749       0.14203581     5782.7572      1            
    163600   324.79603      357.26214      0.96995636    -28.959568      25.300759      476.79333     -114.6897      -2.1526437      0.14074733     5835.6958      1            
    163700   298.97685      362.43961     -0.59740923    -31.009267      25.39627       497.95725     -125.14818     -4.1590445      0.13825937     5940.7087      1            
    163800   301.15715      360.56211     -4.683535      -25.689698      23.052378      484.72506     -113.56896     -3.2731293      0.13663505     6011.3317      1            
    163900   246.14483      363.35022      0.89220372    -23.268051      20.290824      480.55482     -110.47067     -4.6489092      0.13478702     6093.7516      1            
    164000   296.20364      351.2156      -3.7820272     -27.298631      17.848318      491.0103      -123.15241     -3.4099483      0.1345013      6106.6963      1            
    164100   323.24919      359.94963      1.3762732     -25.844254      22.763049      479.90958     -114.797       -3.4580173      0.1337151      6142.6019      1            
    164200   305.408        364.53287     -1.5300704     -30.459924      22.753761      492.06272     -114.61472     -3.6788935      0.13327343     6162.9582      1            
    164300   318.66558      361.27533     -1.8689942     -22.894073      18.917611      490.94382     -120.38507     -3.4379651      0.1317966      6232.0165      1            
    164400   253.15211      367.92524     -2.6513318     -21.572209      25.168559      485.85093     -114.91962     -3.9510808      0.13153308     6244.502       1            
    164500   282.49619      357.60061     -4.5328971     -26.132254      20.160089      480.1352      -108.67972     -3.3498118      0.13032718     6302.2817      1            
    164600   282.47511      366.69826     -4.5866253     -22.046997      17.115451      496.93915     -117.55879     -3.1639362      0.1302377      6306.6118      1            
    164700   299.08522      359.05043      1.6684831     -27.855733      23.580414      482.12218     -117.97491     -2.4899997      0.12793499     6420.1247      1            
    164800   311.25403      356.08306     -6.8517856     -30.766839      25.749096      491.36128     -120.29068     -3.1180079      0.12517284     6561.7955      1            
    164900   281.59847      363.64823      1.4258263     -27.210079      18.860269      481.52607     -108.37023     -2.5836297      0.12358913     6645.8806      1            
    165000   276.38282      358.69291     -1.7098785     -24.338524      20.173013      491.67687     -123.28734     -3.8212394      0.12134831     6768.6034      1            
    165100   258.43846      363.39042     -3.4777861     -24.15497       29.63983       483.06523     -119.46618     -2.2157161      0.12018526     6834.1042      1            
    165200   309.14012      364.82909     -0.84693271    -27.130834      22.199274      470.16185     -98.170869     -1.3833964      0.11947629     6874.6578      1            
    165300   307.83113      370.67322     -4.350071      -23.045638      22.390014      503.97802     -124.5192      -3.7799107      0.11828216     6944.0619      1            
    165400   306.64685      358.26268      0.81612627    -27.785274      21.396042      482.67026     -116.46176     -2.3727128      0.11786572     6968.5959      1            
    165500   292.041        359.22385     -0.41040908    -25.557301      20.713576      483.82179     -117.12596     -2.2178555      0.11664836     7041.3218      1            
    165600   333.3842       357.54188     -1.2494845     -26.58188       21.504748      492.79015     -124.23804     -4.6836066      0.11526428     7125.8728      1            
    165700   362.90174      363.33292     -3.9111733     -28.474927      19.142962      486.22019     -107.57032     -2.0738084      0.11429339     7186.4051      1            
    165800   332.71334      361.70139     -1.1357103     -25.903418      28.713889      471.94496     -109.30474     -2.6135977      0.11299344     7269.0823      1            
    165900   289.30367      359.06777     -3.6648359     -28.605565      22.69256       491.67907     -118.75116     -4.2823018      0.11201329     7332.6892      1            
    166000   285.46223      362.26484     -1.672263      -26.709271      24.907468      488.10787     -118.70313     -3.6658264      0.11032634     7444.81        1            
    166100   289.45942      367.53489     -1.9574468     -26.499447      18.381349      486.7867      -107.05423     -2.1220322      0.10921525     7520.549       1            
    166200   334.76617      368.92415     -4.6154245     -26.747987      23.051773      502.40374     -121.67341     -3.4945405      0.10722818     7659.9136      1            
    166300   298.69277      368.62322      1.040759      -27.892123      22.272425      491.06052     -115.35501     -2.5033429      0.10630204     7726.6495      1            
    166400   268.17034      358.90412     -4.1564054     -28.057048      24.556689      490.26108     -120.28878     -3.4114147      0.10423314     7880.014       1            
    166500   294.80637      354.84916     -1.574049      -29.392852      19.53953       492.84581     -122.35099     -4.218293       0.10335185     7947.2073      1            
    166600   333.93376      358.45313     -4.7497953     -27.069956      24.208438      485.79414     -116.51666     -3.2130397      0.10157227     8086.4455      1            
    166700   306.32137      365.80402     -3.4068889     -32.093463      25.233473      498.14787     -119.91118     -2.1657893      0.10052726     8170.5066      1            
    166800   295.43046      362.80892     -1.3875402     -29.276032      23.938654      480.7245      -108.82176     -2.3688997      0.098710515    8320.8827      1            
    166900   267.35335      363.06482     -3.4186148     -25.930749      26.971309      493.50848     -124.2958      -3.7698075      0.09767123     8409.4222      1            
    167000   281.66995      358.48281     -5.0268126     -26.282788      24.737437      489.79231     -121.84027     -2.8970671      0.096201508    8537.8975      1            
    167100   311.48452      364.99908      2.0750977     -23.845326      21.343912      482.34616     -113.43817     -3.4825924      0.095280748    8620.4048      1            
    167200   325.3725       371.06061      2.9762735     -25.962479      25.9175        502.97362     -131.35618     -3.4881239      0.093670911    8768.5558      1            
    167300   307.53752      369.73121     -4.1192427     -25.383951      31.305668      484.89259     -113.12079     -3.8430613      0.091869176    8940.5244      1            
    167400   287.94263      364.49095      1.4355683     -23.583341      25.390592      480.26557     -115.8518      -3.1656353      0.090996417    9026.2742      1            
    167500   285.90763      358.25515     -0.62965269    -28.516242      25.375218      498.66641     -132.42801     -4.2125729      0.089614391    9165.4767      1            
    167600   317.76642      359.15497     -2.4910112     -27.019427      19.828719      477.01435     -106.43558     -1.7420858      0.088202243    9312.2191      1            
    167700   360.38383      362.55673      2.0380336     -28.380732      23.130845      483.77172     -115.77294     -2.2301999      0.08779838     9355.0543      1            
    167800   331.49992      363.1456      -4.2381273     -29.561888      31.375363      494.56944     -124.70227     -4.2969067      0.085434361    9613.9141      1            
    167900   303.79701      364.47597     -4.7256426     -26.241086      23.826251      486.20225     -113.02995     -1.5558521      0.085188547    9641.6553      1            
    168000   289.3091       360.02528     -2.2841184     -27.969956      25.785278      485.07819     -118.35264     -2.2314759      0.083784935    9803.1778      1            
    168100   266.48475      368.87123     -3.0234387     -25.520732      31.807353      485.87125     -117.53561     -2.7275897      0.082229072    9988.6645      1            
    168200   334.83605      370.21041     -3.6106429     -26.685442      30.741616      487.6346      -115.72339     -2.1463321      0.081415834    10088.438      1            
    168300   368.24723      366.27134     -2.7946564     -24.625994      32.987759      486.04299     -122.55114     -2.7876298      0.079667337    10309.854      1            
    168400   291.36889      368.54179     -2.7190916     -27.056806      29.661025      481.43385     -109.74595     -3.0312357      0.078481548    10465.627      1            
    168500   305.83165      361.17123     -2.374009      -25.281746      28.527215      478.00323     -115.22599     -2.477481       0.077018863    10664.382      1            
    168600   311.40211      361.70361     -2.7604707     -23.745984      21.412821      482.72441     -114.08871     -1.8384534      0.076045165    10800.931      1            
    168700   301.57833      370.11408     -1.1083368     -24.945883      36.96938       493.11487     -129.25332     -4.6626274      0.074974851    10955.122      1            
    168800   371.58655      372.03595     -4.3348312     -23.698899      32.324144      485.61928     -114.95811     -2.9156386      0.073764917    11134.814      1            
    168900   309.27106      383.30615     -2.2687527     -25.441883      27.96688       492.26449     -105.96574     -3.2488457      0.073230907    11216.01       1            
    169000   303.09951      365.98813     -3.4337733     -26.181305      28.70908       489.01256     -119.39879     -2.7196454      0.071612815    11469.436      1            
    169100   280.96464      366.54165      0.00090243714 -26.676958      29.331821      484.15218     -116.66852     -3.597775       0.070610806    11632.194      1            
    169200   306.80161      363.22918     -3.2013304     -25.228347      19.722244      475.81802     -101.83003     -2.0513793      0.069827015    11762.763      1            
    169300   313.17772      366.09464     -4.9958588     -27.668046      22.562802      499.29134     -120.45838     -2.6372153      0.068984189    11906.476      1            
    169400   327.89352      368.92374     -1.8800115     -24.259935      29.60791       480.88511     -113.10064     -2.3287         0.068381999    12011.328      1            
    169500   297.80459      361.61919     -5.6183196     -25.417734      25.671499      483.44881     -113.71053     -2.7545392      0.067421021    12182.53       1            
    169600   262.58025      360.84859     -4.660925      -25.840377      21.748564      485.68211     -113.82426     -2.256521       0.06664442     12324.492      1            
    169700   308.68242      354.2646      -4.2757325     -26.884072      20.407961      488.50893     -120.43369     -3.058797       0.065316287    12575.096      1            
    169800   315.05776      365.10603     -4.1630857     -24.901875      31.292923      486.14873     -120.13467     -3.1359862      0.063836727    12866.553      1            
    169900   312.37081      366.95906     -4.0058964     -23.862329      27.743354      493.82929     -123.22196     -3.5233907      0.062805887    13077.733      1            
    170000   310.39042      365.98241     -4.6023306     -23.525887      27.815077      501.41118     -130.32738     -4.7882501      0.061662503    13320.228      1            
    170100   280.30438      373.05401     -1.9599116     -23.567096      29.670915      499.95835     -126.50611     -4.5421341      0.060961299    13473.443      1            
    170200   295.14281      368.72503     -2.5728227     -24.738396      26.107823      491.92147     -118.10155     -3.8914923      0.059860039    13721.318      1            
    170300   281.84396      370.11895     -2.4357006     -25.908333      25.484801      488.0131      -111.78389     -3.2510224      0.059332698    13843.271      1            
    170400   298.42966      362.52982     -3.0707547     -26.55881       27.958284      490.23963     -123.28015     -2.7583732      0.058835101    13960.35       1            
    170500   259.7365       368.42749     -3.9711377     -25.238267      20.756899      500.95752     -121.21158     -2.8659518      0.058094687    14138.274      1            
    170600   306.33939      359.56913     -0.80901446    -25.15174       25.897917      477.6753      -115.39085     -2.6524733      0.057422022    14303.896      1            
    170700   318.90495      367.59209     -1.0545206     -24.290422      25.807727      493.24066     -123.08572     -3.0256332      0.056303855    14587.964      1            
    170800   320.88215      370.89571     -4.8848504     -27.166445      28.100919      492.05929     -114.54889     -2.6643134      0.055387606    14829.285      1            
    170900   284.41962      369.20036     -3.0541497     -26.992604      25.856362      485.03551     -108.73758     -2.9071809      0.054167303    15163.365      1            
    171000   254.6922       363.21673     -2.1689018     -27.479275      26.326871      493.31881     -122.86191     -3.918871       0.053399977    15381.254      1            
    171100   279.60922      362.8197      -5.5196995     -24.975289      26.729674      477.13181     -108.64458     -1.9022225      0.052342306    15692.06       1            
    171200   310.01455      364.6819      -0.55160161    -27.212202      29.110717      474.43344     -109.10471     -1.9937312      0.051897826    15826.455      1            
    171300   328.40672      363.18082     -1.8788253     -26.984372      28.116794      490.89891     -124.04243     -2.9292642      0.051205145    16040.549      1            
    171400   293.64243      367.24528     -3.8476006     -25.044411      21.946364      488.63259     -111.02212     -3.4195399      0.050392642    16299.177      1            
    171500   296.42762      366.14561     -3.4471298     -24.623217      28.901152      474.35306     -106.16273     -2.8755222      0.049704904    16524.7        1            
    171600   328.81922      360.083       -3.1295776     -27.000545      27.608725      490.40905     -124.31856     -3.4860984      0.048573433    16909.627      1            
    171700   294.16137      367.73393     -3.786275      -26.56337       29.460981      485.95919     -113.13801     -4.1985781      0.047724481    17210.425      1            
    171800   322.43198      361.06582     -4.4707534     -25.569132      25.465217      485.13912     -115.38565     -4.1129837      0.047025742    17466.149      1            
    171900   270.18691      373.02561     -5.9316367     -24.248752      36.237059      488.36471     -118.03772     -3.3580439      0.046401066    17701.287      1            
    172000   300.29056      364.74972      0.47879606    -27.420427      28.047168      493.56198     -124.98913     -4.9286616      0.045901269    17894.029      1            
    172100   312.778        360.15723     -2.4479158     -27.987392      26.448196      489.04811     -121.1543      -3.7494651      0.045329391    18119.78       1            
    172200   275.57448      367.45382     -0.81451545    -26.466175      26.799841      490.40884     -118.85744     -3.6167299      0.044849528    18313.651      1            
    172300   263.52262      371.03644     -3.5691592     -26.339538      36.11542       491.80932     -124.09325     -2.8863611      0.044178649    18591.755      1            
    172400   323.675        363.09094     -2.2755965     -26.909524      29.160223      483.33873     -116.11815     -4.1047467      0.043320081    18960.228      1            
    172500   330.57055      368.85929     -0.20165034    -26.002389      24.419848      492.84464     -118.05589     -4.1452759      0.042377982    19381.73       1            
    172600   290.14881      377.67219     -3.6159565     -22.599953      29.724729      495.06933     -117.97283     -2.9331389      0.041500177    19791.689      1            
    172700   254.32738      370.33273     -3.9972574     -23.160078      26.627916      488.06056     -113.81295     -3.3854648      0.040883366    20090.288      1            
    172800   244.99113      370.19745     -4.2853912     -23.522878      24.905345      489.54732     -113.6995      -2.7474476      0.039957609    20555.75       1            
    172900   292.69709      368.81506      0.50985672    -24.865856      21.998243      497.82259     -122.62977     -4.0200079      0.039624663    20728.469      1            
    173000   295.23131      372.94552     -4.4604227     -25.804995      35.899384      485.449       -115.88272     -2.254724       0.03881562     21160.518      1            
    173100   291.58028      374.20416     -0.75743295    -24.692861      30.309234      487.85166     -115.66351     -2.8429302      0.038350203    21417.321      1            
    173200   300.12878      368.78431     -3.1761528     -25.367177      25.597635      492.63489     -118.38912     -2.5157683      0.037839503    21706.38       1            
    173300   285.52001      367.05252     -3.3679397     -26.253048      33.451227      500.83149     -134.25392     -3.355291       0.037030193    22180.781      1            
    173400   269.79508      363.63448     -0.62593112    -27.663507      23.430126      483.26905     -111.59871     -3.1765475      0.036771132    22337.05       1            
    173500   264.3438       358.79123     -2.9603293     -26.282089      28.325435      485.52558     -122.90914     -2.9082203      0.036234443    22667.897      1            
    173600   279.49299      362.77134     -3.465222      -26.240953      28.419271      480.97474     -114.21229     -2.7042063      0.035754061    22972.456      1            
    173700   307.37911      369.52425     -2.1878841     -25.562147      28.94571       496.14094     -124.92491     -2.8874612      0.035197859    23335.471      1            
    173800   299.06158      374.06764      0.35225377    -25.447052      33.149475      486.50677     -116.56589     -3.9279283      0.034425118    23859.282      1            
    173900   307.34547      361.35007     -4.2120133     -27.21846       20.976644      491.77036     -116.55298     -3.4134772      0.033724496    24354.956      1            
    174000   282.45383      361.55036     -1.3771697     -24.778233      31.716135      475.58127     -114.43458     -5.1570556      0.033166527    24764.686      1            
    174100   257.13069      361.54479     -2.139671      -27.281104      20.464183      487.51106     -114.83037     -2.1793037      0.032490754    25279.764      1            
    174200   287.64727      367.76895     -2.17298       -27.993638      29.280978      493.16072     -120.30196     -4.20417        0.032021593    25650.148      1            
    174300   342.33181      367.66062     -1.9479587     -26.247787      24.352419      488.09007     -114.54718     -2.038949       0.031649563    25951.657      1            
    174400   348.96507      364.03918     -5.5397228     -25.687958      25.567644      490.50372     -116.89689     -3.9076091      0.03113788     26378.116      1            
    174500   289.93603      366.70255      1.8544839     -26.94357       24.067216      491.07456     -119.52503     -3.8251111      0.030849653    26624.566      1            
    174600   239.81821      371.86422     -2.9101268     -26.11156       30.545115      482.17491     -108.31826     -3.5158566      0.030180694    27214.703      1            
    174700   268.84912      367.17902     -3.1981481     -26.06455       29.656133      483.42677     -114.11577     -2.525407       0.02977824     27582.51       1            
    174800   320.84844      372.54588     -0.2216204     -28.054422      31.408704      486.27943     -113.56642     -3.2997934      0.029218357    28111.047      1            
    174900   346.75173      367.48865     -1.0130145     -30.078262      31.11613       492.07149     -121.72664     -2.8810575      0.02871996     28598.877      1            
    175000   271.02691      377.33996     -2.2862674     -25.17575       30.427049      485.10057     -109.33434     -1.3913023      0.028128639    29200.083      1            
    175100   277.28789      368.23698     -3.5459171     -26.088206      32.630703      490.25105     -122.27944     -2.7312099      0.027454424    29917.168      1            
    175200   296.22707      365.86575     -2.5869293     -24.820131      27.502319      478.80435     -110.53315     -2.5007151      0.027193978    30203.694      1            
    175300   290.18318      366.87429     -3.6547224     -27.697074      31.496331      480.45863     -110.50483     -3.2240549      0.026587419    30892.755      1            
    175400   295.88661      371.01284     -2.4676361     -25.360028      25.283733      490.70556     -113.76653     -3.3822648      0.026275775    31259.158      1            
    175500   290.30936      372.99375      1.1601731     -25.210337      27.75943       489.60382     -117.04333     -3.2760133      0.02576182     31882.787      1            
    175600   300.37501      371.43654     -0.31591567    -26.758209      35.39415       484.1904      -118.32819     -2.7457051      0.025389125    32350.805      1            
    175700   306.41955      368.89027     -2.9314559     -27.221055      26.824569      488.62297     -112.95374     -3.4510207      0.024850187    33052.411      1            
    175800   288.67375      372.92703     -3.536995      -24.761333      30.625259      487.89452     -114.52965     -2.7647729      0.024406912    33652.705      1            
    175900   271.5072       366.156       -2.9566864     -28.252565      21.938484      485.51323     -107.75598     -2.3304877      0.024045068    34159.131      1            
    176000   244.76244      366.71982     -5.233233      -28.102145      35.570578      492.227       -124.25668     -3.4856951      0.023661617    34712.699      1            
    176100   309.63225      362.15636     -0.70597245    -25.385815      21.350507      473.64445     -103.39594     -3.3508745      0.023575541    34839.438      1            
    176200   323.16704      372.43934     -1.8358145     -27.969553      30.315893      488.69268     -114.05935     -2.7045126      0.023202985    35398.834      1            
    176300   323.00095      372.11147     -1.8106596     -26.750851      25.739         496.13335     -118.5957      -2.6036652      0.022718375    36153.934      1            
    176400   289.95149      370.19841     -1.2089992     -28.382876      26.34611       499.14867     -122.42088     -3.2836086      0.022219501    36965.665      1            
    176500   300.26659      363.34034     -4.547987      -25.796741      21.721429      484.35537     -109.54682     -2.8449064      0.021679011    37887.274      1            
    176600   265.56746      371.96663     -2.11137       -24.854464      26.389491      495.58619     -119.48781     -3.5554097      0.021288291    38582.646      1            
    176700   334.60688      374.87961     -2.1481961     -26.180256      27.718387      500.27606     -120.85971     -3.9266734      0.020754888    39574.224      1            
    176800   337.37728      379.26395      1.5643297     -25.313235      32.011649      495.74312     -121.36743     -3.3744811      0.020532375    40003.099      1            
    176900   317.4172       369.63848     -4.6521973     -23.761009      25.993685      493.91069     -118.08405     -3.768645       0.020144077    40774.199      1            
    177000   251.97385      372.76667     -3.4243355     -26.339412      34.11606       502.15405     -128.94303     -4.7966658      0.019931033    41210.037      1            
    177100   263.88414      371.4992      -0.80952712    -26.666447      29.295105      475.60685     -102.59137     -3.3354005      0.019697264    41699.122      1            
    177200   295.14376      371.26663     -3.9690669     -27.782534      27.430599      507.23282     -127.51218     -4.1330099      0.019537988    42039.058      1            
    177300   360.19934      371.87233      5.3048014     -27.599719      35.172263      490.77311     -125.96648     -5.8116424      0.01934137     42466.413      1            
    177400   378.43953      365.97767     -5.1304189     -28.143293      33.45476       489.67214     -120.85047     -3.0250371      0.018793702    43703.928      1            
    177500   330.61233      364.29566     -5.5520759     -26.769368      28.590645      487.88977     -115.42339     -4.4399173      0.018367446    44718.171      1            
    177600   288.58135      368.50923     -5.2079204     -26.33888       29.447179      503.33582     -128.77873     -3.9482344      0.01793639     45792.862      1            
    177700   281.3472       369.5622      -4.011367      -27.027875      29.846111      497.63375     -122.12435     -4.7540654      0.017627121    46596.299      1            
    177800   307.23969      365.2701      -3.5786695     -28.19145       33.727088      479.04328     -112.62515     -3.1049927      0.017355713    47324.971      1            
    177900   349.50489      370.68485     -3.422366      -25.467381      29.572779      488.25735     -114.98586     -3.2696681      0.017066455    48127.079      1            
    178000   333.18658      376.29639     -5.4577742     -29.011942      35.902769      495.86878     -118.37971     -2.6257293      0.016848316    48750.189      1            
    178100   313.73096      364.44344     -0.63589827    -26.148312      28.811555      475.56817     -110.32911     -2.8229597      0.016566751    49578.737      1            
    178200   289.0527       365.57427     -3.5698247     -24.173483      24.665999      485.42241     -114.74163     -2.0292031      0.01633013     50297.126      1            
    178300   301.42003      365.35754     -3.3789878     -25.730904      20.881994      493.30132     -117.26119     -2.4546947      0.016062802    51134.205      1            
    178400   327.81674      365.38551      1.3544377     -27.396814      28.823521      483.47544     -117.49705     -3.3740324      0.015752847    52140.327      1            
    178500   356.20469      367.91216     -2.0131102     -29.738154      33.861371      481.22075     -112.2004      -3.218304       0.015509926    52956.966      1            
    178600   380.97098      366.08047     -3.3289617     -30.465665      23.486926      490.95018     -111.81196     -2.7500454      0.015252442    53850.959      1            
    178700   304.03235      364.80268     -6.3043522     -29.927982      26.821083      496.82835     -119.05187     -3.5625411      0.015082565    54457.489      1            
    178800   268.6342       365.26339     -3.399445      -29.934802      29.892978      490.77387     -116.70878     -5.3604317      0.014815773    55438.122      1            
    178900   306.64059      358.84765     -3.2643872     -29.803305      22.635505      496.54498     -123.14143     -4.12371        0.014739124    55726.419      1            
    179000   293.68285      371.05363     -2.1994299     -30.769487      34.82753       491.17237     -118.30026     -3.6770941      0.014492941    56673.01       1            
    179100   341.72577      370.19772     -3.2614478     -28.878529      23.931047      501.95379     -120.05749     -3.4896487      0.014368242    57164.864      1            
    179200   303.74238      369.04908     -4.6021104     -27.866018      31.317662      494.63675     -120.09808     -4.3391223      0.014065368    58395.812      1            
    179300   255.23678      365.54876     -5.8494381     -28.465123      28.422754      491.84053     -116.09417     -4.3057947      0.013761201    59686.549      1            
    179400   266.92377      366.54289     -6.3117657     -28.358307      25.31958       494.29232     -115.47983     -2.9191094      0.013445534    61087.841      1            
    179500   333.1517       362.28195     -6.2915881     -29.010996      30.756683      484.08315     -113.46809     -3.7872182      0.013124474    62582.212      1            
    179600   302.3366       374.41762     -2.5496793     -28.49487       29.892714      504.27806     -125.37908     -3.3295255      0.012952418    63413.534      1            
    179700   357.35217      357.0373      -2.0072411     -27.989463      30.134429      474.9472      -114.68515     -3.3624763      0.012729765    64522.686      1            
    179800   253.90739      372.73793     -2.5366384     -28.146999      29.614367      502.77656     -126.99249     -1.9768702      0.012479907    65814.48       1            
    179900   264.17734      355.99557     -0.10791401    -27.953886      29.156153      473.84684     -115.55902     -3.3866139      0.012259182    66999.464      1            
    180000   251.38144      359.93089     -6.3129645     -24.609414      24.934795      484.2898      -114.26652     -4.1048044      0.012036826    68237.143      1            
    180100   310.14042      360.72889     -6.9699358     -24.949013      28.535712      486.36349     -120.00638     -2.2449722      0.011845594    69338.742      1            
    180200   331.04167      361.75923     -4.2186178     -29.488419      28.746297      489.11535     -117.99961     -4.3957817      0.011800479    69603.837      1            
    180300   311.83236      367.46342     -4.0457767     -28.942813      28.196022      486.10017     -111.54089     -2.3032919      0.01159824     70817.524      1            
    180400   336.84796      362.10584     -1.0648885     -31.588467      30.215607      477.98139     -108.62148     -4.816319       0.011535384    71203.406      1            
    180500   279.66192      365.68187     -6.7198436     -29.952342      28.609081      492.87246     -116.285       -2.8424903      0.01126567     72908.1        1            
    180600   281.723        357.74318     -5.535818      -28.246922      25.748684      482.49363     -113.69979     -3.0166094      0.011041726    74386.794      1            
    180700   286.04685      361.66154     -3.9859898     -31.105199      27.579059      483.46892     -111.17535     -3.1199086      0.010905011    75319.373      1            
    180800   325.84757      364.53686     -3.8288236     -31.701309      35.058793      492.41293     -124.06796     -3.3367751      0.010643662    77168.798      1            
    180900   286.14608      372.13993     -4.9071455     -30.632022      29.740116      500.41053     -118.72936     -3.7421894      0.010578958    77640.782      1            
    181000   296.84885      367.02254     -2.6315983     -28.90021       28.041569      489.26949     -115.36372     -3.3929955      0.010269701    79978.822      1            
    181100   309.99751      361.73331     -4.4996244     -26.613541      24.030752      487.33957     -115.58026     -2.9435866      0.010178961    80691.794      1            
    181200   272.46805      361.96075     -6.2838445     -25.736066      27.731368      488.67585     -119.74881     -2.6777484      0.0099801333   82299.363      1            
    181300   285.29479      358.55423     -5.5708669     -27.244103      21.354099      504.55197     -129.68622     -4.8506466      0.0098544248   83349.219      1            
    181400   330.82444      362.2674      -3.9755943     -27.957197      29.943016      479.93527     -112.31038     -3.3677158      0.0097957265   83848.667      1            
    181500   312.66872      374.44496     -6.8031011     -24.546369      30.219296      507.63538     -128.14576     -3.914487       0.009639887    85204.174      1            
    181600   330.26005      368.22978     -3.3874188     -26.459341      27.324136      492.48388     -119.19164     -2.5398274      0.0095140214   86331.381      1            
    181700   277.67631      364.39613     -5.6400282     -28.827913      32.815722      491.33521     -121.16747     -4.1193873      0.0093091931   88230.913      1            
    181800   249.87442      361.55689     -5.5390001     -28.940614      29.364594      484.02197     -115.25406     -2.0960005      0.0090638407   90619.268      1            
    181900   268.2266       360.6321      -7.0234202     -29.426629      23.894573      491.18339     -115.62572     -2.3701033      0.0089401545   91872.977      1            
    182000   272.62084      367.94921      0.62496456    -30.602855      28.309342      486.51015     -112.81419     -4.0782055      0.008752455    93843.226      1            
    182100   300.02599      369.00283     -2.9081055     -27.333966      28.321682      487.34952     -113.82834     -2.5979511      0.0086745799   94685.693      1            
    182200   317.08482      369.19904     -2.9855431     -29.081123      25.721654      494.94186     -116.56902     -2.8287948      0.0085323403   96264.164      1            
    182300   301.96722      375.75384     -5.6120121     -27.306854      30.476659      499.77561     -118.28005     -3.2995139      0.0083873933   97927.757      1            
    182400   266.74572      372.91551     -0.84993814    -27.022675      27.472046      499.60144     -121.97997     -4.3053926      0.008271305    99302.179      1            
    182500   258.77248      364.63899     -5.0601744     -27.073211      28.008582      490.04717     -116.20521     -5.0781627      0.0080675042   101810.74      1            
    182600   273.92838      361.62736     -4.3230522     -30.559529      27.45707       490.2181      -117.4149      -3.7503273      0.0079173349   103741.81      1            
    182700   295.01557      370.01578     -2.083729      -29.957967      29.15708       495.34455     -118.93767     -3.5064784      0.0077627635   105807.5       1            
    182800   321.09504      368.24212     -5.3113049     -27.620398      35.394969      477.5033      -108.33787     -3.3865751      0.0075993621   108082.57      1            
    182900   320.96827      363.88978     -2.226951      -29.118822      25.692863      483.39353     -110.99593     -2.854905       0.007546523    108839.34      1            
    183000   278.56816      370.27269     -0.96176879    -27.509295      35.370844      497.34906     -130.26377     -3.7123749      0.0073976698   111029.37      1            
    183100   266.75725      370.01006     -6.0434205     -28.235011      29.056117      476.87248     -99.051897     -2.5882118      0.0073490368   111764.12      1            
    183200   287.74949      371.40296     -1.6834374     -28.274564      31.943033      488.97937     -116.7755      -2.7859423      0.0072457702   113356.98      1            
    183300   325.22477      374.34947     -3.9354655     -26.911981      29.407234      507.17814     -127.62832     -3.7601419      0.0071800948   114393.84      1            
    183400   348.58316      369.85354     -2.6160549     -25.959872      29.80753       484.84939     -112.49192     -3.735529       0.0070968171   115736.19      1            
    183500   304.80784      366.01666     -3.4751979     -28.187587      25.814278      493.61042     -118.55216     -3.1930883      0.0069417029   118322.35      1            
    183600   272.52075      363.22927     -1.652294      -28.134292      25.204723      490.06217     -118.73421     -3.5168248      0.0068669308   119610.73      1            
    183700   321.88308      358.08612     -4.9362331     -27.224102      26.30397       493.38915     -126.56767     -2.8789831      0.0067405462   121853.42      1            
    183800   343.88974      360.44393     -1.9574306     -28.362504      26.189922      483.57714     -115.53021     -3.472993       0.0066871238   122826.89      1            
    183900   343.44815      364.32094     -0.46292359    -28.31582       25.418176      496.06951     -124.64371     -3.7442891      0.0065837495   124755.45      1            
    184000   306.05343      371.22602      0.33483787    -28.611031      32.570508      492.23363     -121.71826     -3.5836679      0.0064894829   126567.65      1            
    184100   281.92948      375.36023     -4.0965628     -28.948131      35.039765      492.80443     -116.26442     -3.1748448      0.0064059531   128218.02      1            
    184200   314.51328      365.29499     -6.536399      -27.302809      25.440959      483.6485      -107.27014     -2.685118       0.0063023422   130325.93      1            
    184300   292.13735      364.68643     -1.896318      -29.024379      33.512995      493.75867     -127.93512     -3.7294167      0.0062239626   131967.15      1            
    184400   285.6128       356.35332     -1.765646      -28.579828      24.362483      472.85191     -107.84331     -2.6722938      0.006150217    133549.53      1            
    184500   248.29626      357.87478     -3.0149941     -29.476001      24.911179      483.21266     -115.43926     -2.318813       0.0060436803   135903.72      1            
    184600   304.77082      358.3277      -1.3601937     -31.719669      23.404452      492.89458     -120.50962     -4.3818456      0.0059736385   137497.21      1            
    184700   307.85074      368.21562     -1.9867462     -28.869582      37.340806      474.68248     -108.9171      -4.034242       0.0058609259   140141.44      1            
    184800   274.14884      379.60253     -4.4589268     -28.970941      29.833905      501.51097     -113.1239      -5.1885755      0.0057501545   142841.14      1            
    184900   275.50257      374.30057     -3.1896276     -31.946207      42.430911      491.44372     -120.73731     -3.7009159      0.005650525    145359.7       1            
    185000   273.82083      365.64433     -3.243216      -30.502005      31.799677      490.81419     -118.75077     -4.4735402      0.0055638325   147624.61      1            
    185100   263.37386      364.55144     -5.0636105     -27.35682       39.668294      483.64337     -122.90523     -3.4345652      0.0054599895   150432.27      1            
    185200   280.83623      365.61335     -1.0921707     -30.173718      36.219538      480.08556     -115.95373     -3.4721389      0.0053972965   152179.63      1            
    185300   321.41636      372.7167      -3.022669      -29.953309      35.475055      499.13889     -124.67528     -4.2459918      0.0052974192   155048.82      1            
    185400   317.84924      373.03798      0.73684978    -28.64643       35.966209      492.16895     -122.63974     -4.5478512      0.005212853    157564.12      1            
    185500   277.91283      374.15931     -3.5685096     -27.298334      34.240373      494.45165     -120.39329     -3.2725752      0.0051238638   160300.63      1            
    185600   264.57378      367.80527     -3.6948017     -28.467881      31.916591      489.87586     -118.06294     -3.7615648      0.0049920456   164533.48      1            
    185700   278.99266      366.01863      0.24667523    -30.557642      34.900869      489.08178     -124.74993     -2.9031246      0.0049106165   167261.81      1            
    185800   315.99865      378.26451     -1.5543911     -30.085393      33.973818      497.15882     -118.23167     -2.996673       0.0048383884   169758.72      1            
    185900   329.50661      373.40403     -2.685766      -29.962274      30.974893      498.58153     -121.32792     -2.1764377      0.0047647727   172381.49      1            
    186000   272.83083      378.5795      -0.14641675    -26.218017      38.524919      490.00309     -119.52813     -4.0559487      0.004684506    175335.16      1            
    186100   300.46991      365.41941     -1.4404568     -27.13663       31.371685      490.38388     -124.61808     -3.140989       0.0046120209   178090.83      1            
    186200   294.91542      365.52845     -2.974386      -29.207968      29.441702      495.30805     -122.81981     -4.2191374      0.004528185    181388.04      1            
    186300   321.23613      372.77798     -2.7506939     -31.235286      35.78755       499.64867     -124.74895     -3.9233166      0.0044299133   185411.89      1            
    186400   367.45003      370.90496     -2.7724025     -31.947906      36.038228      494.07989     -120.21003     -4.28282        0.0043435314   189099.27      1            
    186500   327.39515      371.91782     -3.1662752     -28.810581      39.136436      488.0448      -120.27451     -3.0120452      0.0042771005   192036.31      1            
    186600   334.49908      362.46798     -1.9403466     -27.616757      28.997263      491.43939     -123.18121     -5.2303543      0.0041971153   195695.98      1            
    186700   295.16849      366.01539     -2.5204552     -29.715617      29.746952      481.8103      -110.78735     -2.5184463      0.0041379443   198494.36      1            
    186800   274.30321      372.81766     -4.689561      -28.593867      31.265111      494.59725     -116.47846     -3.2828089      0.0040383265   203390.84      1            
    186900   344.39107      368.63845     -0.64123674    -29.681734      31.464096      492.08429     -121.92655     -2.6604162      0.0039841066   206158.79      1            
    187000   344.71732      379.77053     -3.0871327     -27.276294      35.502472      482.41448     -104.79808     -2.9849118      0.0038866975   211325.58      1            
    187100   302.85698      371.52699     -2.1005709     -31.321457      30.114474      490.16852     -113.31505     -2.0189314      0.0038076354   215713.56      1            
    187200   291.47461      363.10066     -3.711354      -31.194007      30.994423      486.66068     -115.82977     -3.8193052      0.0037276996   220339.27      1            
    187300   257.78673      370.9009      -2.1294398     -30.934516      29.251212      495.08164     -116.61568     -3.7523168      0.0036491062   225084.88      1            
    187400   292.01094      369.99885     -0.9634131     -31.27246       34.595016      488.00578     -116.64333     -3.7227459      0.0035813329   229344.39      1            
    187500   320.24855      373.69805     -1.8886011     -28.49625       23.469843      492.82214     -110.04803     -2.1610507      0.0035200806   233335.17      1            
    187600   331.11286      374.76419     -1.2652743     -29.598158      39.205996      488.73583     -120.0706      -2.243604       0.0034476211   238239.24      1            
    187700   301.01399      369.74322     -3.1330599     -26.936969      30.675758      483.55032     -110.60244     -3.8103916      0.0033882228   242415.76      1            
    187800   266.93248      366.85344     -3.2647734     -27.163067      24.81028       494.81448     -119.59816     -2.7453178      0.0033311922   246565.96      1            
    187900   302.88061      359.19741     -3.8274296     -29.603067      26.230043      487.94886     -116.91161     -4.6393832      0.003301287    248799.52      1            
    188000   332.56095      365.41839     -6.3249435     -27.456149      28.799128      498.07904     -124.11356     -3.565125       0.0032425377   253307.34      1            
    188100   307.08077      377.30666      0.9330545     -28.711853      33.775448      482.75712     -109.29719     -2.1499147      0.0032022927   256490.8       1            
    188200   293.55709      375.82634     -5.5236482     -29.756877      38.229752      503.44892     -126.28568     -4.2861245      0.0031206724   263199.24      1            
    188300   283.35699      374.57018     -1.3075383     -30.385929      39.189747      477.77526     -108.63466     -2.0667002      0.0030758147   267037.74      1            
    188400   292.60197      368.1035      -6.8394873     -29.200146      28.534705      493.28761     -115.06005     -2.6191318      0.0030045867   273368.25      1            
    188500   287.7427       365.26049     -0.45581377    -30.796653      25.765626      490.56947     -115.44136     -4.380784       0.0029668836   276842.21      1            
    188600   283.55934      362.11137     -1.2117788     -30.787569      31.164643      477.58997     -111.81945     -2.8244493      0.0029275091   280565.69      1            
    188700   281.54603      355.67995     -4.63649       -30.503354      20.741204      483.23757     -110.22702     -2.9319659      0.0028758594   285604.58      1            
    188800   283.04948      361.94188      0.25597165    -31.358854      28.44999       486.78407     -119.66428     -2.52501        0.0028376093   289454.44      1            
    188900   329.16105      365.25998     -2.2284963     -29.041559      29.999139      482.66497     -112.82257     -3.3114943      0.0027839363   295034.99      1            
    189000   338.81779      365.49524     -3.1778435     -30.806649      28.703917      478.15076     -105.20122     -2.1737305      0.0027526546   298387.82      1            
    189100   300.46755      373.51955     -4.6307481     -29.759598      34.413041      493.56506     -117.09911     -2.9690951      0.0027219702   301751.51      1            
    189200   280.5584       367.24405     -4.5197785     -31.133727      28.895769      496.9285      -119.01512     -3.9115968      0.0027146966   302560.01      1            
    189300   243.74203      364.02222     -5.9305088     -30.869706      28.676794      483.02678     -108.06095     -2.8201871      0.002713675    302673.91      1            
    189400   271.18277      364.42989      0.67068952    -29.433236      28.113453      485.88246     -117.20181     -3.6016636      0.0027241842   301506.27      1            
    189500   329.56677      363.81873     -2.2958021     -28.953134      29.77316       484.01018     -115.33131     -3.3843691      0.0027174482   302253.64      1            
    189600   303.61285      369.11452     -5.9479161     -31.411912      37.24074       504.71454     -131.64564     -3.8352879      0.0027067859   303444.25      1            
    189700   311.50582      365.66461     -5.6271852     -29.650724      31.577175      482.52387     -110.53352     -2.6250025      0.0026898902   305350.24      1            
    189800   316.64031      360.36588     -4.8107602     -29.015732      29.65403       477.5435      -109.9355      -3.0696575      0.0027005735   304142.29      1            
    189900   272.92743      364.74774     -4.0495063     -30.066554      26.241777      513.32539     -135.54155     -5.1618133      0.0027093232   303160.06      1            
    190000   308.85067      357.35479     -1.8835556     -29.750912      29.86201       477.5946      -114.87278     -3.5945688      0.0027585949   297745.28      1            
    190100   295.46656      372.36034     -1.9198083     -28.13143       34.328745      494.42155     -122.87961     -3.4590988      0.0027987701   293471.27      1            
    190200   314.92964      378.38984     -4.1007402     -26.403027      44.857671      494.09009     -126.55958     -3.4945786      0.0028631722   286870.14      1            
    190300   318.02556      370.64532     -3.6094608     -30.543827      34.582075      489.2764      -115.46141     -3.5984589      0.0029527561   278166.76      1            
    190400   262.98415      368.89976     -6.7690673     -28.554622      35.866987      491.37183     -118.78596     -4.2294151      0.0030272039   271325.83      1            
    190500   281.2095       364.32013     -2.3463918     -28.963953      33.063147      487.18803     -120.71608     -3.9046242      0.0031696306   259133.86      1            
    190600   312.11581      362.33026     -5.6918381     -29.539822      27.624321      490.16398     -115.89288     -4.3335037      0.0033128124   247933.94      1            
    190700   311.06273      368.80245     -5.4658893     -28.801855      29.638381      483.33428     -107.09977     -2.8026997      0.0034965319   234906.65      1            
    190800   346.70768      363.60206      1.6768735     -31.22018       25.612024      490.52696     -119.51686     -3.4767594      0.0036896872   222609.28      1            
    190900   287.32396      366.36762     -4.3473754     -30.216723      25.832577      494.03265     -115.74742     -3.1860822      0.0038519174   213233.7       1            
    191000   262.70079      363.37428     -3.7994017     -30.016476      25.972572      485.91066     -111.79034     -2.9027365      0.0040455119   203029.59      1            
    191100   245.10785      373.31861     -3.3001193     -27.402651      36.524805      484.60269     -114.35628     -2.7498364      0.0042159094   194823.59      1            
    191200   318.53057      370.29359     -2.8279537     -27.686529      27.446928      497.21159     -120.70223     -3.1482072      0.0043987913   186723.71      1            
    191300   296.27747      376.71346     -1.7617783     -27.935664      34.734411      491.59793     -116.02717     -3.8942678      0.0045632563   179993.97      1            
    191400   281.38304      374.15343     -2.2770425     -30.756096      35.512839      496.56764     -121.25683     -3.6370812      0.004706851    174502.78      1            
    191500   288.33643      367.30701     -0.18366906    -28.692115      33.046824      485.88601     -118.56529     -4.1847484      0.0048160461   170546.25      1            
    191600   269.83762      359.35302     -4.8225226     -30.411778      23.343045      485.28809     -110.70586     -3.3379516      0.0049074621   167369.32      1            
    191700   218.47664      361.23007     -3.6989657     -30.346756      27.886186      486.41667     -115.81777     -3.2092893      0.0049776643   165008.84      1            
    191800   280.31542      359.32979     -4.1725553     -28.29146       24.525632      493.88897     -122.93887     -3.6819243      0.0050441404   162834.21      1            
    191900   287.50996      366.91414     -1.9683192     -29.090731      27.299055      490.56245     -116.0729      -3.8154078      0.0051284418   160157.54      1            
    192000   288.5443       373.22605     -3.1030307     -26.82135       28.362719      491.7983      -113.92068     -3.0899095      0.0051843432   158430.6       1            
    192100   312.78293      372.57448     -3.0173582     -28.091362      30.034523      505.93305     -127.17185     -5.1125173      0.0052425053   156672.92      1            
    192200   315.89487      374.66988     -4.4267076     -27.346983      31.840143      502.34766     -124.5569      -3.187324       0.0052938271   155154.03      1            
    192300   269.2871       378.41138     -6.1424186     -26.813042      29.188989      492.44861     -106.89076     -3.3800013      0.0053101024   154678.49      1            
    192400   285.68416      363.3615      -1.7530473     -28.977639      21.749403      501.13723     -125.51611     -3.2783373      0.0053605114   153223.93      1            
    192500   273.49353      366.89932     -3.8627984     -24.626189      26.973717      485.61188     -114.40725     -2.7900403      0.0053853167   152518.16      1            
    192600   314.10156      371.8593      -2.3243671     -25.79235       31.970269      495.25396     -123.74736     -3.5008446      0.0054278698   151322.46      1            
    192700   280.61164      384.65384     -0.9026158     -29.041248      40.922139      510.07364     -131.228       -5.1700687      0.0055044959   149215.95      1            
    192800   308.50986      372.80947     -3.1349941     -28.095964      29.748664      504.27191     -125.9362      -4.0439455      0.0055396858   148268.09      1            
    192900   299.68543      366.66415     -5.152901      -28.134958      25.101484      485.76771     -107.07871     -3.8384706      0.0055901058   146930.78      1            
    193000   283.08507      365.71597     -2.1420604     -30.894302      27.619854      501.40981     -126.2553      -4.0220381      0.0056450827   145499.84      1            
    193100   271.02873      371.50021     -3.6909355     -29.163483      40.867189      483.93387     -115.48607     -4.9603616      0.0056345651   145771.43      1            
    193200   290.32687      387.52652     -3.9281177     -29.109836      32.465452      505.09513     -114.12701     -2.8691044      0.0056692901   144878.56      1            
    193300   335.31683      382.22028     -1.2572936     -27.702271      35.043648      496.48976     -117.02895     -3.3246119      0.0056508057   145352.48      1            
    193400   300.24088      375.64301     -5.5645368     -25.959699      33.045591      492.2654      -114.38938     -3.754367       0.0056983526   144139.66      1            
    193500   286.01754      367.44243     -5.1849722     -29.485333      28.055471      489.99957     -112.07025     -3.8720519      0.0057151966   143714.85      1            
    193600   298.20821      366.12282     -5.3937916     -28.02857       27.889846      484.33647     -109.37417     -3.3069639      0.0057939268   141761.99      1            
    193700   281.17603      373.53366     -4.3974899     -28.130087      39.997501      494.26101     -124.55345     -3.6438276      0.0058373714   140706.93      1            
    193800   271.10508      385.81759     -4.987728      -30.134902      43.142242      499.61186     -118.43218     -3.3817045      0.0058929875   139378.98      1            
    193900   340.93379      370.49434     -3.5803007     -29.391606      34.170178      488.29671     -114.36996     -4.63069        0.0059247515   138631.74      1            
    194000   316.31093      362.21736     -3.8953374     -25.907319      24.757234      490.02374     -119.5133      -3.2476647      0.005904422    139109.06      1            
    194100   277.10241      367.3581      -5.4295987     -25.926806      31.729464      491.61602     -120.65177     -3.9792123      0.0059130129   138906.95      1            
    194200   315.2702       363.20805     -7.2921939     -26.576743      31.382402      487.58137     -117.73699     -4.1497947      0.0059137027   138890.75      1            
    194300   329.26113      366.24408     -4.9514225     -28.303268      34.019036      491.11756     -120.928       -4.7098206      0.0059610061   137788.59      1            
    194400   326.29351      370.92572     -3.1880288     -25.731146      30.629658      493.43863     -120.01188     -4.2115158      0.0060120477   136618.78      1            
    194500   299.86976      365.94209     -2.1218762     -26.31368       33.384456      487.73769     -122.24809     -4.4964021      0.0060405346   135974.49      1            
    194600   244.45562      364.15485     -3.8198581     -29.07674       31.066606      503.38043     -133.91361     -3.4819833      0.0060530519   135693.3       1            
    194700   279.06254      361.68041     -0.69940092    -28.989287      28.116363      482.60959     -116.42698     -2.9298814      0.0060815602   135057.22      1            
    194800   281.34731      375.54934     -7.8605832     -27.089807      37.677455      497.58245     -121.69349     -3.0666932      0.0060857169   134964.97      1            
    194900   297.18415      375.55115     -4.0023131     -29.713482      37.685204      483.62433     -108.57322     -3.4693659      0.0061922578   132642.83      1            
    195000   302.66683      374.25634     -7.1991798     -26.990724      24.093274      510.32737     -121.74629     -4.2281098      0.0062475593   131468.72      1            
    195100   315.68201      357.27724     -4.337433      -29.697477      23.92839       492.32347     -121.91678     -3.022929       0.0063335655   129683.45      1            
    195200   268.23735      359.51292     -1.3289641     -29.965926      28.333886      476.00234     -110.54632     -2.9820954      0.0063732012   128876.93      1            
    195300   235.33213      371.09142     -6.6103405     -29.395809      36.568576      489.47255     -117.12174     -1.8218243      0.0064264003   127810.06      1            
    195400   276.13052      367.7077      -4.4741823     -29.245364      31.392854      476.35001     -103.60793     -2.7076852      0.0064323601   127691.64      1            
    195500   304.05988      370.07197     -3.7490145     -27.251538      28.116751      494.75307     -118.68341     -3.1138846      0.0064582215   127180.31      1            
    195600   328.66827      372.19207     -4.115724      -25.512573      30.570527      482.54722     -108.78224     -2.515144       0.0064771025   126809.57      1            
    195700   366.60577      360.04422     -4.4316932     -26.758428      25.986633      488.28273     -119.58226     -3.4527569      0.0065433404   125525.89      1            
    195800   256.46206      366.42215     -3.3566603     -27.528189      26.845424      492.13385     -118.83895     -2.8333246      0.0066360849   123771.56      1            
    195900   258.19857      366.87863      1.4575065     -27.753112      23.825579      474.47356     -102.18566     -2.9392429      0.0067479573   121719.59      1            
    196000   282.29384      374.1019       0.067868684   -26.68393       29.743753      492.14176     -117.98256     -3.1849922      0.0068453188   119988.37      1            
    196100   287.77522      378.26981     -5.1593394     -26.08092       34.258139      502.17887     -123.75171     -3.1752211      0.0069657936   117913.14      1            
    196200   324.16167      367.91538     -3.7533172     -27.381145      29.873377      491.84172     -120.41954     -2.2457127      0.0071312344   115177.62      1            
    196300   320.73685      367.99615     -3.9275369     -25.782182      29.980551      489.25931     -118.1114      -3.4225989      0.0073002452   112511.1       1            
    196400   304.40211      357.97134     -4.9723846     -28.320922      24.457823      491.86993     -121.19427     -3.8688376      0.0074773442   109846.3       1            
    196500   247.48133      364.22274      0.0053700896  -27.082214      30.059823      481.14334     -116.26074     -3.6428312      0.0076994633   106677.39      1            
    196600   316.0947       358.17498     -6.0888217     -26.886224      20.364955      498.30646     -124.65643     -2.8649561      0.0078731982   104323.38      1            
    196700   313.60924      369.05849     -1.9575557     -26.215186      26.858344      483.43758     -108.99843     -4.0662611      0.0080690198   101791.62      1            
    196800   278.03134      376.38648      0.12082673    -25.797352      37.058333      488.67912     -120.19389     -3.4805523      0.0082410838   99666.334      1            
    196900   291.85201      373.82569     -2.7717924     -27.887084      27.694768      507.89043     -128.05466     -3.0459731      0.0084547135   97148.012      1            
    197000   358.91103      364.53321     -2.9379973     -28.97816       27.826823      484.97185     -112.55763     -3.7916766      0.0087593685   93769.158      1            
    197100   345.60954      373.96325     -2.1457734     -29.03737       30.687795      512.95302     -133.64482     -4.8496051      0.0090810083   90447.953      1            
    197200   268.3104       379.72563     -2.9021326     -30.167496      28.983096      499.19137     -112.68872     -2.6904863      0.0093629619   87724.229      1            
    197300   291.40089      365.44026     -6.7776298     -29.101543      29.236651      493.25076     -118.96878     -2.199191       0.0096508818   85107.105      1            
    197400   300.5137       362.24826     -3.8619095     -28.301606      23.957861      488.78909     -114.09101     -4.2441654      0.0099296828   82717.508      1            
    197500   297.95672      369.07395     -5.625614      -28.823711      26.735098      497.15126     -117.63267     -2.7304092      0.010284466    79864.005      1            
    197600   351.22677      372.57669     -5.6934317     -28.4851        32.111152      485.85152     -108.60495     -2.6024964      0.010510428    78147.017      1            
    197700   346.75579      380.16316      1.790069      -26.856958      30.862517      496.81226     -119.36213     -3.082594       0.010872814    75542.412      1            
    197800   305.65314      370.54532     -4.5790135     -27.174007      34.121987      493.96653     -122.326       -3.4641696      0.010998807    74677.066      1            
    197900   269.2918       367.57336     -3.8720094     -29.432763      29.736653      486.31702     -112.0809      -3.0946347      0.011176029    73492.884      1            
    198000   255.62201      369.17492     -4.3535547     -26.090438      31.695498      489.17103     -117.5138      -3.7338134      0.011263401    72922.791      1            
    198100   324.1016       357.73628     -5.4911602     -28.763859      17.627377      494.42835     -117.70805     -2.3563778      0.011445136    71764.865      1            
    198200   308.10482      375.10353     -3.5914498     -28.213726      38.2456        483.69745     -112.12459     -2.9097619      0.011600405    70804.307      1            
    198300   373.39154      365.49625     -3.0775506     -28.86045       24.530187      488.00277     -111.83592     -3.262784       0.011729711    70023.77       1            
    198400   309.96143      373.73558     -3.4557776     -26.62529       29.522014      487.89753     -110.15217     -3.4507308      0.011886469    69100.301      1            
    198500   304.49285      366.41278     -6.4322754     -28.460046      28.987845      484.9275      -110.08947     -2.5207661      0.011954367    68707.829      1            
    198600   311.10792      363.99622     -0.5088455     -29.082965      27.292343      489.84737     -119.9395      -3.6121877      0.012199678    67326.255      1            
    198700   300.39462      364.62798     -1.7899807     -28.560166      25.652625      490.27765     -116.68899     -4.2631532      0.01226822     66950.102      1            
    198800   266.21639      371.50744     -0.22761629    -26.73624       34.199302      485.50593     -117.51045     -3.7234894      0.01239512     66264.678      1            
    198900   267.80974      376.60218     -1.8580057     -27.593204      29.982672      507.10229     -126.97573     -4.0558463      0.012390536    66289.192      1            
    199000   288.96436      383.44202     -0.07159732    -26.566669      37.811917      503.1852      -127.44818     -3.468644       0.012379656    66347.45       1            
    199100   318.88791      378.07944     -6.1287565     -25.201748      32.309558      493.76078     -113.50336     -3.1570435      0.012299392    66780.422      1            
    199200   274.34498      373.09852     -0.68320277    -27.910297      27.708635      496.9257      -119.00418     -3.9381312      0.012298211    66786.837      1            
    199300   262.91776      371.15518     -2.9354275     -24.889639      28.738693      486.07419     -112.84273     -2.9899103      0.012342903    66545.009      1            
    199400   300.02959      364.71259     -4.644782      -27.357275      22.031695      490.13419     -113.29803     -2.1532042      0.01234809     66517.059      1            
    199500   318.27063      362.6105      -1.9737928     -27.981923      28.267389      488.46467     -121.34044     -2.8253932      0.012401392    66231.16       1            
    199600   295.20218      367.19079     -2.4162052     -27.587809      25.11813       493.67836     -117.77392     -3.8277739      0.012525919    65572.724      1            
    199700   326.58906      363.90585     -4.9667826     -28.681953      28.150832      486.51202     -115.00309     -2.1051815      0.012443739    66005.774      1            
    199800   350.655        374.93756      0.78875919    -28.376071      33.067585      498.10304     -124.01162     -4.6341361      0.012399142    66243.182      1            
    199900   342.35683      370.11706     -2.1868561     -28.267459      27.042222      490.84063     -114.23551     -3.0759688      0.012212109    67257.718      1            
    200000   272.07358      372.12134     -3.0429391     -25.320011      35.28189       491.06226     -123.08665     -2.773209       0.012072516    68035.413      1            
    200100   301.79478      359.77148     -1.0934477     -28.917207      27.659874      479.26092     -113.49754     -3.6411199      0.011899386    69025.294      1            
    200200   309.15332      365.82069     -1.54516       -27.957655      29.74524       493.95754     -124.39412     -3.985144       0.011779772    69726.191      1            
    200300   324.28482      372.61092     -3.6257645     -29.01982       30.99531       504.50491     -125.5496      -4.6941123      0.011608506    70754.894      1            
    200400   335.09397      369.65186     -3.9792718     -29.258472      32.893579      478.06125     -105.55723     -2.5080024      0.011487924    71497.569      1            
    200500   282.57749      367.27429     -0.89419867    -28.28803       28.344322      504.32259     -132.37856     -3.8318321      0.011430234    71858.427      1            
    200600   281.78854      366.67317     -1.8607902     -27.8638        26.893721      496.10045     -123.31779     -3.2786182      0.011218458    73214.93       1            
    200700   274.584        372.85104     -0.77344595    -28.646174      32.7822        504.93397     -132.07648     -3.3690256      0.01105507     74297.008      1            
    200800   311.11639      374.32372     -0.066202193   -26.028037      34.580308      492.82653     -123.18046     -3.8084154      0.010804021    76023.419      1            
    200900   314.64422      372.9605      -3.0125626     -25.575802      32.780786      499.15172     -126.63462     -3.7490138      0.010539361    77932.485      1            
    201000   310.69488      361.2117      -0.42952369    -25.654688      26.546725      482.13277     -117.91317     -3.4704159      0.010281531    79886.797      1            
    201100   265.97982      361.65354     -1.5940107     -29.68495       31.083257      488.77557     -123.14503     -3.7812957      0.0099767713   82327.096      1            
    201200   296.41254      363.18284     -5.0132398     -26.205809      34.719069      481.97963     -119.38238     -2.9144288      0.0097135492   84558.032      1            
    201300   353.56376      361.48806     -3.7868509     -28.741294      30.318627      489.2698      -122.30106     -3.2711598      0.0094212047   87181.909      1            
    201400   347.51134      363.16548      1.6862642     -27.373623      27.392964      486.18178     -121.21004     -3.5118635      0.0091392499   89871.556      1            
    201500   292.31948      369.63695     -4.7244847     -27.583433      25.653735      496.98561     -117.00499     -3.6894885      0.0088143008   93184.772      1            
    201600   298.43607      361.08437     -3.1185075     -31.61086       28.810462      481.4706      -112.09866     -2.3686601      0.0084460069   97248.157      1            
    201700   278.88738      361.92692     -0.85921374    -26.912851      26.077544      494.41913     -126.81807     -3.9796236      0.0080958635   101454.11      1            
    201800   267.24213      363.97946     -5.5509944     -26.121076      23.989234      489.25335     -114.18081     -3.4102439      0.0077896657   105442.09      1            
    201900   288.67181      369.91964     -2.9399303     -27.682525      29.990259      489.23974     -116.1713      -2.5166029      0.0075763733   108410.53      1            
    202000   300.90868      376.14548     -3.0160976     -28.696022      27.252079      494.10477     -110.6795      -2.8197509      0.0073419077   111872.64      1            
    202100   296.30524      376.90652     -1.3478945     -26.148662      35.128084      492.84951     -119.92768     -3.6468371      0.0071426656   114993.29      1            
    202200   307.98624      362.86141     -2.2013237     -28.650971      27.872435      490.44838     -121.56307     -3.0440409      0.0069659682   117910.19      1            
    202300   292.73795      358.03348     -7.4132554     -27.04695       26.790021      482.25353     -113.65676     -2.8931042      0.0068029701   120735.3       1            
    202400   277.21336      364.88053     -4.1862218     -26.496673      25.827364      488.50082     -114.60134     -4.1634312      0.0066825701   122910.59      1            
    202500   298.23099      365.10649     -3.7136574     -28.013789      26.282136      493.19879     -119.20329     -3.4437033      0.0065413394   125564.29      1            
    202600   313.122        369.24873     -4.7783065     -27.779045      32.415098      492.68464     -119.28598     -4.0076734      0.0064210558   127916.44      1            
    202700   330.31886      370.25962      0.87089395    -27.186848      35.293825      471.37814     -108.06101     -2.0353844      0.0063068987   130231.77      1            
    202800   321.90518      367.48473     -1.3010596     -30.646815      30.458429      500.8209      -126.65121     -5.1955125      0.0062359856   131712.72      1            
    202900   274.3251       361.2498      -3.6839349     -29.679159      34.963903      477.60413     -115.06225     -2.8928877      0.0061150219   134318.18      1            
    203000   271.35506      361.20398     -0.033897463   -30.464536      24.821567      488.02619     -117.5398      -3.6055403      0.0060739388   135226.68      1            
    203100   286.85065      368.43539     -5.5077049     -29.998092      30.719607      490.76949     -114.53386     -3.0140467      0.0059380465   138321.35      1            
    203200   312.08871      369.87542     -4.08477       -28.449354      29.55555       488.06661     -112.53649     -2.6761167      0.0059120487   138929.61      1            
    203300   281.77063      378.08901     -5.1136319     -26.884396      38.279682      488.56173     -114.45332     -2.3010533      0.0058191792   141146.82      1            
    203400   288.88106      376.18981     -2.3532916     -27.691894      25.40681       494.35668     -109.8         -3.7284978      0.0058066111   141452.32      1            
    203500   288.49019      373.91699     -1.2026409     -26.754666      29.301542      491.33193     -115.90482     -2.8543591      0.0057984892   141650.45      1            
    203600   264.71158      370.95702     -1.3023016     -27.161808      33.655808      483.5982      -114.50682     -3.3260605      0.0057667667   142429.66      1            
    203700   248.11258      369.60974     -3.0065614     -32.007336      30.837823      489.11402     -112.64917     -2.6790348      0.0057801639   142099.54      1            
    203800   284.40899      377.56609     -3.6914135     -24.971734      33.864621      491.26907     -116.23577     -2.6686837      0.0057783668   142143.73      1            
    203900   326.69038      374.23696      0.091113495   -31.537231      34.219004      506.87986     -131.10948     -4.306311       0.0057791035   142125.61      1            
    204000   317.2078       375.1951      -4.1566979     -25.223707      31.268006      492.54723     -115.7237      -3.516036       0.0057770807   142175.37      1            
    204100   315.44892      363.63747     -4.479761      -29.672077      26.655738      492.28672     -118.08905     -3.0641077      0.0058259387   140983.05      1            
    204200   273.14764      369.22944     -3.0886397     -29.336337      35.072504      499.85468     -129.48381     -3.7889517      0.0058406798   140627.23      1            
    204300   289.04748      369.59757     -3.4745473     -26.510324      31.352855      491.01715     -120.09595     -2.6916057      0.0058901647   139445.78      1            
    204400   305.03595      370.19564     -0.88738736    -27.76942       27.897133      497.54303     -122.1466      -4.4411154      0.0058927241   139385.21      1            
    204500   356.0209       367.71308     -5.4771662     -28.654702      36.82854       492.99156     -123.99997     -3.9751792      0.0058683423   139964.33      1            
    204600   359.28241      371.63716     -4.3393671     -29.592512      35.770693      495.81175     -121.42927     -4.5841281      0.0058440236   140546.77      1            
    204700   324.34837      364.69406     -3.4748107     -28.136578      28.679232      491.51457     -121.75761     -2.1307473      0.00586723     139990.87      1            
    204800   262.0342       369.78432     -2.4797363     -28.821548      26.411094      490.7559      -113.71975     -2.3616343      0.0058601037   140161.11      1            
    204900   268.34432      373.7712       0.07365056    -28.213871      30.580661      497.11256     -122.38874     -3.3930632      0.0058709107   139903.1       1            
    205000   320.04238      373.45222     -6.5646652     -27.088298      32.04136       494.46479     -117.35991     -2.0410566      0.0058612985   140132.53      1            
    205100   339.86272      373.09113      0.22993727    -26.25934       29.952538      482.95787     -110.44534     -3.3445329      0.0058807403   139669.25      1            
    205200   306.43431      371.50839     -1.6391094     -29.605464      25.943629      493.1918      -114.61947     -1.7629993      0.0059326467   138447.25      1            
    205300   284.14978      365.21741     -3.300954      -29.48486       28.296669      485.10455     -112.51362     -2.8843712      0.0059505312   138031.14      1            
    205400   269.94354      366.57556     -0.9729134     -31.507491      32.134818      503.44194     -131.72401     -4.7967799      0.0060598306   135541.51      1            
    205500   268.58703      369.15823     -4.4690159     -28.438801      31.090615      479.33894     -106.00103     -2.3624746      0.0060853342   134973.46      1            
    205600   290.22571      371.28465     -3.8135804     -32.063718      27.469209      495.37096     -112.27975     -3.3984657      0.0061743981   133026.51      1            
    205700   325.74837      371.78669     -5.1407023     -29.743832      28.408299      500.49609     -119.63402     -2.5991442      0.0062108222   132246.36      1            
    205800   316.63409      374.68801     -2.3809633     -31.931648      34.77293       498.3718      -119.75367     -4.3904305      0.0063191163   129979.98      1            
    205900   300.30062      367.84354     -4.5239821     -29.05321       31.785675      491.88704     -117.83113     -4.420845       0.0063641335   129060.56      1            
    206000   260.19904      369.13316     -3.9445883     -30.394704      32.498532      480.87564     -108.81368     -1.0880404      0.0064584209   127176.38      1            
    206100   280.80937      369.1884      -2.7342039     -27.233243      29.91075       488.85243     -115.06514     -4.5421894      0.0065313425   125756.48      1            
    206200   332.23873      373.61526     -4.3820395     -28.670978      33.844798      501.61443     -125.44397     -3.3469887      0.0066349413   123792.9       1            
    206300   334.81507      379.91906     -4.5058036     -26.931942      33.036286      484.57903     -103.90697     -2.3515484      0.0068140011   120539.84      1            
    206400   300.85754      377.94214     -4.8275609     -29.369138      33.762193      491.60136     -109.2214      -4.0033211      0.0069867265   117559.86      1            
    206500   311.04007      366.06646     -3.6900356     -27.556515      28.928901      488.74666     -117.53339     -2.8291627      0.0071889844   114252.38      1            
    206600   315.1317       361.66066     -0.92754477    -28.43463       28.281027      482.59463     -117.28914     -2.5636853      0.0074602453   110098.07      1            
    206700   298.42202      364.52082     -1.6901956     -26.826228      31.191439      482.13288     -117.18717     -3.0999018      0.007707308    106568.81      1            
    206800   310.00035      368.03637     -3.3586134     -27.581731      23.583989      492.51893     -113.67451     -3.4516937      0.008057488    101937.31      1            
    206900   331.80887      373.20903     -8.0891155     -28.962948      34.934382      503.62952     -123.92908     -4.3737308      0.0083321378   98577.175      1            
    207000   317.52663      370.77317     -1.6228105     -30.400948      26.408591      497.88748     -117.61709     -3.8820564      0.0086768848   94660.541      1            
    207100   268.59078      372.2315      -5.4595491     -27.015562      35.178254      493.57372     -119.92125     -4.1241108      0.0090050008   91211.387      1            
    207200   282.63716      366.39837     -7.2407124     -25.961615      18.851753      499.39921     -114.38927     -4.260998       0.0092923514   88390.826      1            
    207300   318.21996      361.05927     -3.6551444     -30.193399      31.05762       484.11486     -116.54668     -3.7179869      0.0095777406   85757.032      1            
    207400   314.43135      362.44695     -5.7812797     -29.909608      29.482168      492.79674     -119.48271     -4.6583581      0.0097908958   83890.037      1            
    207500   299.9951       363.786       -5.9485472     -29.899568      32.360112      484.53505     -114.4416      -2.8194428      0.010048202    81741.847      1            
    207600   294.10526      362.37485     -6.9550196     -31.286366      23.104277      495.84777     -115.23393     -3.1018778      0.010304954    79705.218      1            
    207700   334.35285      353.3224      -3.4922707     -29.403871      29.702815      479.18487     -118.86311     -3.8060409      0.010466001    78478.741      1            
    207800   306.41121      362.54028     -6.1050747     -29.594469      25.847228      485.12134     -110.05479     -2.6739556      0.010667576    76995.805      1            
    207900   312.84045      371.99289     -5.8132509     -28.446439      27.71236       483.51613     -101.56228     -3.4136232      0.010787676    76138.603      1            
    208000   352.1812       366.05569     -3.8252813     -30.859017      27.055924      501.81614     -124.47096     -3.6611214      0.011023087    74512.574      1            
    208100   301.37472      368.68802     -5.321859      -27.628807      25.738084      494.71166     -116.00604     -2.8050156      0.011090103    74062.306      1            
    208200   293.27052      358.93978     -2.1503038     -30.823721      29.61035       487.0665      -122.27212     -2.4909232      0.011268162    72891.979      1            
    208300   277.976        365.9003      -2.2641974     -29.33529       33.204188      481.97845     -114.03036     -3.6524875      0.011367153    72257.197      1            
    208400   284.84296      369.76066     -4.6902358     -30.158638      26.584971      495.85886     -113.44437     -4.3899245      0.011472562    71593.302      1            
    208500   324.4405       364.4469      -4.6744173     -28.450288      33.526001      483.61841     -116.2756      -3.2972076      0.011636927    70582.088      1            
    208600   335.49988      359.73555     -6.3436574     -28.875898      25.948036      495.62799     -122.47884     -4.1420796      0.011824964    69459.713      1            
    208700   305.36205      354.5959      -3.6000863     -30.996671      20.088984      481.62204     -109.38517     -3.1332023      0.012009784    68390.789      1            
    208800   261.19313      354.5795      -1.865704      -28.068181      21.109628      485.25971     -120.09258     -1.763372       0.012150084    67601.065      1            
    208900   284.92639      357.20059     -3.8661155     -28.835492      24.189204      490.19062     -120.81515     -3.6624831      0.012267082    66956.316      1            
    209000   275.84487      368.16312     -2.3122588     -27.504579      24.084031      495.49127     -118.0659      -3.5294409      0.012353038    66490.412      1            
    209100   318.68241      364.64483     -7.1515503     -28.840939      23.781825      493.53365     -113.34087     -3.3372873      0.012464959    65893.405      1            
    209200   304.23669      369.92987     -1.2938394     -28.858763      28.599516      495.39902     -120.12178     -3.7942814      0.0125172      65618.4        1            
    209300   266.88926      370.73457     -3.6955495     -28.272499      28.654973      497.11614     -119.83066     -3.2378396      0.012517288    65617.934      1            
    209400   268.2747       354.35843     -7.6694418     -29.722673      25.530397      489.84445     -120.13476     -3.489545       0.012414978    66158.685      1            
    209500   226.62477      367.39294     -3.2777987     -29.695897      34.996758      487.58737     -118.50072     -3.7167852      0.012346458    66525.85       1            
    209600   281.63748      364.5567      -4.6211745     -30.869906      28.972731      492.61876     -118.09176     -3.4519411      0.01240106     66232.935      1            
    209700   281.04361      370.58228     -5.8242169     -30.01084       36.172371      490.46825     -116.7843      -3.4389868      0.012372341    66386.676      1            
    209800   325.52401      364.0964      -5.5309757     -30.276232      30.40528       487.60908     -114.4791      -3.6316582      0.012473411    65848.76       1            
    209900   289.34826      368.93137     -4.7118645     -30.495777      34.877693      496.45922     -123.21782     -3.9800753      0.01236913     66403.913      1            
    210000   271.93826      364.74088     -2.5678331     -27.251929      28.069475      475.57596     -106.19107     -2.8937121      0.012386926    66308.511      1            
    210100   240.62577      364.36528     -6.0866473     -27.893214      30.432669      488.41237     -117.51112     -2.9887827      0.012245281    67075.524      1            
    210200   304.6588       361.66151     -5.201197      -26.631106      27.865042      480.71832     -112.36768     -2.7218654      0.012198703    67331.637      1            
    210300   338.60661      361.40126     -5.6554186     -29.673118      28.401045      490.04778     -118.81181     -2.9072133      0.012088353    67946.278      1            
    210400   292.48027      373.37529     -3.8291813     -28.791644      32.028726      492.05812     -113.7052      -4.3855321      0.012045621    68187.319      1            
    210500   274.58409      371.23646     -6.3142383     -27.474399      29.682052      507.49984     -129.05146     -3.1053361      0.011943309    68771.444      1            
    210600   272.29358      362.94541     -3.9116515     -28.430925      23.213859      483.5556      -107.80734     -3.6741328      0.011807593    69561.899      1            
    210700   266.16167      354.94845     -5.8134397     -28.05294       21.722383      493.98225     -125.13272     -1.7570895      0.011728926    70028.456      1            
    210800   248.07891      359.73768      0.99092675    -28.164058      23.015227      483.71644     -115.98886     -3.8319939      0.011589553    70870.601      1            
    210900   290.61957      368.43666     -5.5465892     -26.524595      26.932874      501.69418     -125.18235     -2.9368589      0.011354243    72339.353      1            
    211000   301.79656      368.9624      -5.2418546     -28.577732      27.318812      498.11979     -119.63632     -3.020296       0.011138231    73742.285      1            
    211100   309.90356      369.86664     -4.0396862     -27.191154      30.368399      490.20869     -116.07216     -3.4074429      0.010818103    75924.458      1            
    211200   345.60654      359.17947     -3.8260499     -27.313342      28.444649      488.65864     -123.00465     -3.7797756      0.010570704    77701.409      1            
    211300   274.49844      360.57688     -3.6141885     -28.502013      26.689615      482.83838     -114.40778     -2.427136       0.01023476     80251.867      1            
    211400   289.8517       355.16369     -5.2536786     -30.643881      21.1613        486.77987     -113.74461     -3.1353147      0.0099280465   82731.14       1            
    211500   318.10836      362.77272     -5.9128983     -28.737028      25.328026      492.11592     -117.27789     -2.7434187      0.0095867443   85676.491      1            
    211600   304.56498      375.54573     -3.8939147     -27.599182      28.215091      495.78943     -113.90445     -3.0612406      0.0092676812   88626.119      1            
    211700   318.60328      368.87186     -2.9261239     -28.572842      27.615699      486.05589     -110.97543     -2.325333       0.0089494295   91777.762      1            
    211800   299.51669      361.8696      -5.7237799     -30.338619      31.867251      495.66623     -125.15648     -4.4450016      0.0086795737   94631.215      1            
    211900   300.65267      358.46462     -4.8444602     -27.490588      25.428546      475.44163     -107.36862     -2.7018913      0.0083363378   98527.511      1            
    212000   295.3291       364.58255     -4.4153023     -28.190054      24.303976      494.75697     -117.52216     -4.3508802      0.0080964072   101447.29      1            
    212100   334.24702      372.20011     -5.1397602     -30.665314      30.098637      502.53972     -120.56841     -4.0647676      0.0078230802   104991.71      1            
    212200   347.15549      370.35658     -4.7038757     -27.885164      26.173999      493.01275     -111.40673     -4.8343917      0.0075742435   108441.01      1            
    212300   298.91588      364.59607     -5.2124673     -29.114448      29.200726      493.6287      -120.82539     -3.0810485      0.0073508864   111735.99      1            
    212400   275.01268      367.35594     -3.4651943     -27.149785      29.366891      477.82251     -105.50846     -3.7100208      0.0070905722   115838.13      1            
    212500   317.95599      361.06047     -6.5727594     -26.617259      23.633682      492.06248     -118.60385     -2.8418247      0.0069290477   118538.45      1            
    212600   287.5347       380.43749     -6.3176009     -25.970773      36.640315      495.39924     -115.6492      -3.6644946      0.0067095112   122417.06      1            
    212700   342.29456      377.0354       0.8248513     -28.697241      31.364913      486.47128     -109.9735      -2.9549014      0.006625071    123977.33      1            
    212800   299.18985      378.83724     -4.5547643     -28.025007      31.640161      500.00275     -116.67034     -3.5555647      0.0064952883   126454.53      1            
    212900   318.85578      369.51438     -5.3272456     -28.106697      29.970128      493.36438     -117.15914     -3.2270456      0.0063685382   128971.29      1            
    213000   311.2769       362.75878     -0.24752982    -29.673738      28.31542       473.56397     -106.61057     -2.5887692      0.0063280318   129796.85      1            
    213100   267.98199      367.10744     -4.8929924     -27.93938       26.108484      493.69195     -116.38514     -3.4754793      0.0062151869   132153.49      1            
    213200   271.79094      367.27734     -2.5906086     -29.161329      25.991244      490.51084     -113.95765     -3.5151646      0.0061974242   132532.26      1            
    213300   335.21286      367.16475     -6.2973657     -29.846876      29.259638      493.82647     -116.76798     -3.0091401      0.0061240411   134120.36      1            
    213400   326.207        374.44784     -6.8142391     -31.069129      38.1577        486.78245     -109.38912     -3.2198165      0.0061108331   134410.25      1            
    213500   293.36709      371.76565     -5.53747       -30.077464      32.520467      488.75451     -110.48107     -3.4133188      0.0060252706   136318.96      1            
    213600   307.60122      364.76713     -3.5680247     -28.05606       34.334783      480.47885     -115.59707     -2.8253501      0.0059752094   137461.06      1            
    213700   329.96105      359.5711      -5.9335093     -27.356935      26.286222      484.48282     -115.27605     -2.6314481      0.0059176124   138798.99      1            
    213800   311.25561      365.41682     -2.234146      -29.245447      25.625305      485.50192     -110.97322     -3.2575935      0.0058853496   139559.87      1            
    213900   301.13479      372.32943     -3.6370818     -28.522016      31.542858      498.90377     -122.49968     -3.4584184      0.0058283296   140925.22      1            
    214000   332.60811      373.78822     -3.9073256     -27.835007      35.935298      481.91453     -108.60128     -3.7179921      0.0057870318   141930.9       1            
    214100   307.71447      371.91167     -3.7659741     -30.09103       32.218968      494.88399     -119.30547     -2.0288135      0.0057547175   142727.88      1            
    214200   277.38899      365.81944     -1.2978435     -29.769315      30.460833      489.00687     -118.76417     -3.8169375      0.0057289165   143370.67      1            
    214300   283.27968      363.69959     -1.425644      -28.449936      34.422907      488.08831     -124.40469     -4.5313569      0.0056958057   144204.11      1            
    214400   265.06783      374.86342      0.10479059    -27.503478      32.535274      483.98612     -110.56447     -3.6948178      0.005690915    144328.04      1            
    214500   313.82717      380.72683     -4.1349473     -26.082318      40.223131      499.2511      -125.19864     -3.3314904      0.0056610621   145089.14      1            
    214600   369.34481      372.55676     -2.2574959     -26.578481      32.943592      488.00969     -115.6728      -3.8877482      0.0056735413   144770.01      1            
    214700   292.40216      365.06548     -2.7080454     -28.643604      29.600147      486.11913     -115.12999     -4.1721572      0.0056970326   144173.06      1            
    214800   298.03336      360.45532     -0.73055241    -29.898546      26.305901      495.90891     -127.26319     -3.8672003      0.0056738816   144761.32      1            
    214900   299.14318      367.27531      3.2648298     -30.432213      24.842876      482.3445      -109.56488     -3.1798005      0.0057018454   144051.36      1            
    215000   324.85225      369.62354     -2.7858895     -30.191498      30.894287      495.75487     -122.01273     -2.035495       0.0056730371   144782.87      1            
    215100   318.16289      373.1036      -2.229535      -27.991752      28.298981      479.7149      -101.2014      -3.4875957      0.0056835989   144513.82      1            
    215200   292.2703       366.11253     -2.0103329     -28.490612      29.518593      486.78598     -117.23002     -2.4610722      0.005705112    143968.89      1            
    215300   275.14451      365.72358     -1.9728341     -26.221205      29.098634      480.09498     -113.01378     -2.262221       0.0057027814   144027.72      1            
    215400   270.88377      369.62175     -4.0505573     -27.596144      29.59377       494.02776     -118.94059     -3.4124916      0.0057358226   143198.05      1            
    215500   301.4119       368.37035     -3.6593924     -27.168607      27.527166      485.86842     -111.68554     -2.5116946      0.005751668    142803.55      1            
    215600   296.06821      370.49951     -1.2755787     -27.488073      23.708615      502.69589     -122.20191     -4.9394257      0.0057649326   142474.97      1            
    215700   276.39906      373.05985     -5.7337432     -30.596508      33.787424      493.40506     -113.86391     -3.9384688      0.0057861697   141952.04      1            
    215800   291.99537      369.29752      3.3503566     -28.902292      23.883773      480.57154     -106.27988     -3.3259833      0.0058402754   140636.97      1            
    215900   296.88515      364.27118      0.61323764    -29.392357      25.033639      501.41657     -129.99729     -3.4026224      0.0059140535   138882.51      1            
    216000   284.57238      358.60104     -3.9473971     -28.142848      23.689464      484.68773     -114.91591     -2.7700085      0.0059949984   137007.31      1            
    216100   289.46255      358.54076     -4.0702601     -27.360498      25.095301      472.62997     -105.81078     -1.9429697      0.0060911188   134845.28      1            
    216200   351.38761      360.35867     -5.8557341     -28.89252       29.793654      489.32768     -120.99968     -3.0147309      0.0061898431   132694.58      1            
    216300   324.22697      367.87131     -3.2305463     -29.734701      23.408477      494.40825     -113.74651     -3.2336568      0.0063105769   130155.87      1            
    216400   299.01287      368.05618     -6.3121373     -29.403887      28.726478      482.67168     -106.47998     -1.1459749      0.0064159716   128017.81      1            
    216500   284.96359      365.48904     -6.2026848     -28.319936      27.393085      484.44168     -109.00529     -2.817808       0.0064959591   126441.47      1            
    216600   290.99856      361.13949     -2.3097084     -30.579817      26.606993      489.52356     -119.914       -2.1875394      0.0066146318   124172.99      1            
    216700   324.29005      367.13833     -6.7023513     -28.867249      33.723194      477.58666     -106.99946     -1.6024621      0.006720275    122220.98      1            
    216800   313.20783      379.34361     -3.1092663     -30.360379      27.486105      499.92134     -111.10871     -3.4854792      0.0069227781   118645.81      1            
    216900   283.76097      379.42255     -4.8813672     -26.671297      30.784542      504.30005     -121.74591     -2.3634671      0.007123424    115303.91      1            
    217000   293.95855      363.94748     -2.592929      -29.414957      26.882136      488.60913     -116.19791     -3.3379861      0.0073508027   111737.27      1            
    217100   261.56544      369.97734     -3.6392102     -26.933481      27.332989      487.83733     -112.26136     -2.3589272      0.0076098634   107933.42      1            
    217200   323.0433       366.62677     -6.2355003     -23.654132      25.602682      488.3694      -114.08246     -3.37323        0.007891507    104081.34      1            
    217300   342.92184      376.72413     -5.6471722     -25.28942       29.57701       499.39101     -118.29771     -3.0095842      0.0082100889   100042.6       1            
    217400   356.06417      373.50178     -3.4426336     -26.175055      32.502236      489.75487     -115.18267     -3.9549727      0.008510096    96515.787      1            
    217500   354.39749      366.91363     -3.5523265     -26.429242      33.279535      481.71073     -114.73847     -3.3565853      0.0088323729   92994.105      1            
    217600   282.42156      375.30235     -2.5494385     -28.226186      34.140073      503.29933     -127.74466     -3.6167719      0.0091638811   89629.994      1            
    217700   280.68653      366.45003     -2.8922375     -27.007018      34.790637      488.50288     -122.50772     -4.4365121      0.0094209803   87183.985      1            
    217800   271.30998      367.96798     -7.0336261     -25.771166      25.529526      494.42465     -116.63723     -2.5441625      0.0097719518   84052.667      1            
    217900   283.81133      374.0042      -4.0116164     -27.995241      29.058951      504.13369     -122.80932     -4.3722747      0.010044015    81775.926      1            
    218000   348.80914      369.68578     -1.901677      -29.416614      28.053999      503.87132     -128.14543     -2.7758151      0.010375831    79160.751      1            
    218100   323.87874      368.89759      2.2628968     -30.569773      29.996122      484.96737     -113.76725     -3.991782       0.010625519    77300.561      1            
    218200   289.80676      370.3851      -4.9026619     -28.261338      34.840628      489.6545      -118.59696     -2.3490677      0.010785888    76151.224      1            
    218300   301.63185      364.83713     -1.0678287     -27.294518      29.49219       497.16214     -128.77434     -4.6805106      0.010982801    74785.897      1            
    218400   275.30898      370.53371     -6.2021724     -27.145251      32.00939       487.84198     -112.77749     -3.1927425      0.011129688    73798.89       1            
    218500   313.57649      367.5563      -3.1770126     -30.14619       31.954982      491.3922      -118.70502     -3.7626596      0.011330316    72492.122      1            
    218600   333.09339      376.1404      -6.7427674     -29.107688      28.092729      504.6167      -116.94133     -3.7772452      0.011488932    71491.294      1            
    218700   334.98354      373.38615     -5.68346       -28.712567      31.195047      502.35224     -123.49624     -2.2688651      0.011634364    70597.635      1            
    218800   290.65709      366.39707     -4.9506029     -29.133991      32.044828      482.07267     -111.08352     -2.5523135      0.01171898     70087.895      1            
    218900   284.97539      366.63511     -5.5508384     -28.809525      25.246927      485.8414      -106.67187     -3.4209749      0.011823042    69471.006      1            
    219000   297.41826      367.15572     -6.1785649     -25.449021      31.098302      493.3907      -124.04104     -1.6646587      0.011901398    69013.625      1            
    219100   328.94579      365.31956     -5.1778416     -26.426027      21.014978      484.77341     -105.28499     -3.5799691      0.012004574    68420.469      1            
    219200   340.71542      368.57538     -2.9967092     -28.960859      33.373563      487.08799     -117.85289     -2.0757077      0.012087615    67950.426      1            
    219300   330.52805      370.47478     -2.5909069     -29.32245       29.690831      492.223       -114.93806     -4.5876367      0.012090809    67932.478      1            
    219400   282.50009      364.26506     -5.5055046     -30.537975      33.358531      497.90798     -128.43354     -2.5244212      0.012051147    68156.053      1            
    219500   288.40657      360.13672     -1.4928219     -25.81627       24.783287      477.54791     -112.08735     -2.7980331      0.012015462    68358.472      1            
    219600   289.28175      366.65518     -4.0560071     -26.981312      29.907464      489.44458     -117.91698     -3.7425608      0.011959945    68675.783      1            
    219700   263.19721      382.98862     -2.6916714     -27.564432      27.854793      510.36097     -120.45293     -4.5181115      0.011921448    68897.556      1            
    219800   343.40296      366.45621     -2.8043819     -28.585129      23.549256      488.36948     -111.27558     -2.7974323      0.01187902     69143.632      1            
    219900   287.76659      374.14264     -2.751467      -27.809757      34.143858      496.96161     -122.33462     -4.066979       0.011849505    69315.857      1            
    220000   314.63803      362.19827     -6.3095663     -29.658865      27.156372      485.44592     -110.68776     -3.7478314      0.011758013    69855.225      1            
    220100   293.32449      363.91479     -3.9329663     -29.487695      26.5848        486.09045     -112.44428     -2.8955239      0.011751516    69893.84       1            
    220200   294.891        361.23966     -6.6821164     -29.026171      27.307136      485.55593     -113.99745     -1.9176736      0.011626407    70645.954      1            
    220300   283.78374      365.13098     -5.8304821     -29.351714      23.393122      481.47417     -103.03354     -1.520582       0.011619916    70685.415      1            
    220400   311.30765      364.16275     -5.6472227     -29.393964      33.26704       479.55289     -111.7565      -1.8594924      0.011493091    71465.424      1            
    220500   303.09066      374.53383     -2.3953902     -29.833074      27.423007      493.71367     -112.43103     -1.9433519      0.011420972    71916.698      1            
    220600   315.38628      368.70583     -6.6065015     -27.887209      26.852178      491.71329     -113.13033     -2.2356038      0.011265374    72910.02       1            
    220700   276.42913      361.69196     -2.544845      -28.930115      25.103447      473.73565     -103.6         -2.072176       0.011158554    73607.977      1            
    220800   277.81359      359.84997     -5.3268152     -28.617121      30.51575       490.19646     -122.53741     -4.380891       0.010959149    74947.3        1            
    220900   299.31381      363.22639     -1.6282888     -28.121326      29.13692       478.31367     -110.77798     -3.6966031      0.010821523    75900.465      1            
    221000   295.25672      368.1463      -10.147732     -28.157462      28.262944      509.90206     -126.79587     -4.9176437      0.010577452    77651.841      1            
    221100   319.98406      365.3061      -1.1103254     -27.595677      27.213276      486.08473     -114.94188     -4.3440298      0.010356405    79309.243      1            
    221200   299.46353      368.90645     -4.3310046     -27.369997      33.043375      487.6187      -116.81304     -3.2415772      0.010208337    80459.587      1            
    221300   330.36736      357.48067     -4.9168738     -30.7504        26.060288      494.80072     -122.87937     -4.8337024      0.009946883    82574.471      1            
    221400   266.27246      360.27949     -2.1955648     -29.135304      27.990706      488.44242     -120.85869     -3.9640815      0.0097794045   83988.612      1            
    221500   307.85954      351.34854     -3.5274188     -28.150634      29.51053       478.51767     -121.03083     -3.9707746      0.0095508215   85998.739      1            
    221600   301.16943      367.83664     -4.2111911     -25.986714      24.030974      490.48286     -114.28149     -2.1977996      0.0092915145   88398.787      1            
    221700   332.82355      364.60509     -1.8341002     -28.824902      30.277159      478.16149     -111.16028     -2.0142716      0.0090586408   90671.286      1            
    221800   332.21983      361.1247      -1.9781101     -29.420145      36.208953      480.42342     -120.62407     -3.4853445      0.0088246332   93075.666      1            
    221900   275.36579      364.86447     -6.0081894     -29.50285       29.407705      485.58847     -112.72439     -1.8962718      0.0085532885   96028.4        1            
    222000   263.37239      362.11685     -4.5603994     -29.363259      30.58936       475.2764      -107.30076     -2.5244829      0.0083278578   98627.839      1            
    222100   268.77704      362.29026     -5.401524      -28.887587      30.756757      482.63811     -114.2755      -2.5399942      0.0080349632   102223.07      1            
    222200   310.06578      369.03461     -3.800021      -29.561646      32.635349      481.92948     -110.36031     -1.8082373      0.0077938409   105385.6       1            
    222300   313.58355      371.76445     -3.4700397     -28.261308      29.368729      493.44958     -116.85029     -2.472233       0.0075969767   108116.51      1            
    222400   301.82463      366.9523      -0.63514893    -30.340138      24.221134      491.02753     -114.26924     -3.0518297      0.0073640959   111535.57      1            
    222500   268.76717      363.83025     -2.5381211     -29.043938      26.606706      485.42785     -114.44183     -2.1804171      0.0071989467   114094.28      1            
    222600   285.15607      355.51502     -5.2203327     -29.826191      27.596161      486.06483     -119.53578     -3.563667       0.0069764284   117733.4       1            
    222700   300.97638      367.33648     -2.2583201     -28.525861      31.262463      497.14661     -126.54612     -3.7422886      0.0068055071   120690.29      1            
    222800   308.19754      377.17312     -3.9666018     -27.062413      32.240548      491.91022     -111.23736     -4.7112771      0.006657553    123372.45      1            
    222900   321.46248      372.33501     -7.952792      -27.661248      31.682606      497.9906      -118.95985     -2.7643106      0.0064889619   126577.81      1            
    223000   285.23944      366.42883     -0.40073188    -29.457431      27.320642      496.85705     -123.14903     -4.7416696      0.0063635536   129072.32      1            
    223100   256.59502      366.01549     -2.7744299     -29.581632      33.490792      489.4754      -120.8266      -3.7680353      0.0062217207   132014.7       1            
    223200   294.64403      362.32378     -3.7790602     -28.355325      29.783567      479.33055     -111.46396     -3.1919908      0.006083808    135007.32      1            
    223300   298.9248       368.00612     -3.6924379     -28.110477      35.18792       494.97714     -126.61561     -3.7404209      0.0059883074   137160.4       1            
    223400   290.2625       372.02392     -4.389467      -27.013504      28.977807      479.25183     -102.86189     -1.9408595      0.0058583521   140203.01      1            
    223500   312.44394      365.59871     -7.5441327     -27.94506       36.757002      479.97933     -113.18871     -2.4597137      0.0057968857   141689.63      1            
    223600   314.36366      362.8238      -4.7216995     -29.848706      24.55608       481.74728     -107.59429     -1.3148615      0.0057292207   143363.06      1            
    223700   285.3444       369.3498      -5.3187988     -28.135063      32.447734      496.8261      -123.2419      -3.2282693      0.0056952748   144217.55      1            
    223800   233.28918      381.7285      -4.8904477     -27.610232      36.120433      490.00614     -110.02679     -1.8706063      0.0056403057   145623.07      1            
    223900   266.93095      374.08223     -1.6102368     -30.310565      36.074448      488.90012     -116.27133     -2.700215       0.0056111502   146379.72      1            
    224000   292.12253      375.79213     -6.4857526     -28.962326      33.916613      491.12786     -111.50367     -2.3005863      0.0055219451   148744.44      1            
    224100   313.95304      377.05872     -4.6587933     -26.693706      40.410548      481.91676     -111.96279     -1.9532989      0.0054872052   149686.15      1            
    224200   312.98531      366.18576     -3.3168948     -29.079362      33.075618      490.10518     -120.71706     -3.8817101      0.0054362366   151089.56      1            
    224300   250.02339      366.58633     -5.5682549     -31.254619      31.474881      486.36783     -112.08748     -2.3460336      0.005397629    152170.26      1            
    224400   276.43969      364.02983     -1.834713      -29.062446      31.299212      491.04863     -123.62397     -3.7968859      0.0053955952   152227.62      1            
    224500   278.29561      374.05966     -1.314521      -29.782936      37.47482       493.24613     -120.83246     -4.7313764      0.0053506867   153505.27      1            
    224600   315.93154      372.16267     -1.6843513     -27.529325      31.276125      493.58435     -119.0174      -4.4667213      0.0053773891   152743.01      1            
    224700   307.4631       368.96504     -3.5205038     -29.728966      39.734343      483.88219     -117.23779     -4.164231       0.00532591     154219.39      1            
    224800   298.75259      369.1037      -2.8724359     -27.889017      27.984234      500.94818     -125.00655     -4.0607088      0.0053504894   153510.93      1            
    224900   290.68233      363.17144     -3.4489588     -28.865372      36.695622      477.18638     -115.12895     -3.2672748      0.0053573604   153314.05      1            
    225000   258.95222      361.59929     -5.4426331     -28.900208      32.278903      487.41972     -120.4663      -3.2901924      0.0053561178   153349.62      1            
    225100   266.93749      357.18082     -3.2644082     -27.115277      23.198806      483.06832     -115.44651     -3.2601049      0.0053812965   152632.1       1            
    225200   287.10993      364.34098     -0.32935026    -30.400775      25.466859      494.33863     -121.17801     -3.5563719      0.0053976989   152168.29      1            
    225300   287.77899      374.64413     -8.0025995     -28.575551      40.208393      484.23538     -109.95805     -3.263442       0.0054028494   152023.23      1            
    225400   301.47976      371.02149     -3.8823051     -29.11996       22.367065      499.63414     -115.6279      -2.3495536      0.0054558702   150545.85      1            
    225500   298.29486      364.64833     -2.8737382     -29.256935      31.356555      489.86624     -121.16242     -3.2813643      0.0054768793   149968.36      1            
    225600   262.01376      362.71455     -6.6780399     -28.489719      25.710978      493.44528     -117.86434     -3.4096123      0.0054845923   149757.46      1            
    225700   250.96566      363.68459     -3.3571683     -28.238784      30.575214      476.98583     -110.38452     -1.8959723      0.0055036583   149238.66      1            
    225800   287.27895      374.93694     -6.4400789     -27.481384      28.990893      499.52482     -116.52199     -3.135309       0.0055124276   149001.25      1            
    225900   300.83717      377.22176     -4.6224725     -27.821115      44.578794      486.78599     -118.5673      -3.132131       0.0055620897   147670.87      1            
    226000   300.77627      371.20154     -5.7506976     -28.195827      36.438005      490.07356     -117.58623     -3.7772711      0.0056135853   146316.22      1            
    226100   280.31382      365.15756     -3.7852307     -28.907242      30.899729      474.98893     -105.44187     -2.5967454      0.005663114    145036.57      1            
    226200   302.29337      356.9523      -6.037927      -27.745976      27.918771      489.29253     -123.97288     -2.5022169      0.0057569272   142673.09      1            
    226300   328.53786      359.50519     -4.5542057     -29.60008       27.999049      478.15377     -109.81965     -2.6736866      0.0058603717   140154.7       1            
    226400   330.37641      375.1311      -3.6130896     -30.250847      28.89128       510.93961     -126.25981     -4.5760448      0.0059429945   138206.19      1            
    226500   339.93984      366.04443     -3.0892228     -28.617122      35.657682      473.06746     -109.23992     -1.7344487      0.006072293    135263.34      1            
    226600   273.65706      370.63564     -2.6386028     -28.626752      32.835037      495.73231     -124.17965     -2.4866986      0.0061980951   132517.91      1            
    226700   290.47777      362.37121     -5.4212213     -29.561091      26.946784      494.52389     -120.07173     -4.0454184      0.0063606461   129131.32      1            
    226800   290.82846      368.95529     -4.1381192     -25.688886      33.250175      474.70752     -107.20293     -1.9724762      0.0065122998   126124.2       1            
    226900   297.31571      371.67856     -3.1894827     -29.200396      35.726356      490.38949     -117.889