 read_data           ${fname}
 read_data           tes.data
Reading data file ...
  orthogonal box = (0 0 0) to (158.5 158.5 100)
  2 by 3 by 1 MPI processor grid
  reading atoms ...
  100 atoms
  scanning bonds ...
  1 = max bonds/atom
  scanning angles ...
  1 = max angles/atom
  scanning dihedrals ...
  1 = max dihedrals/atom
  reading bonds ...
  99 bonds
  reading angles ...
  98 angles
  reading dihedrals ...
  97 dihedrals
Finding 1-2 1-3 1-4 neighbors ...
  special bond factors lj:    0        0        0       
  special bond factors coul:  0        0        0       
     2 = max # of 1-2 neighbors
     2 = max # of 1-3 neighbors
     4 = max # of 1-4 neighbors
     6 = max # of special neighbors
  special bonds CPU = 0.001 seconds
  read_data CPU = 0.008 seconds
special_bonds lj/coul 0.0 0.0 0.0

 # Dreiding potential information
 neighbor            0.4 bin
 neigh_modify        every 10 one 10000
 bond_style          harmonic
 bond_coeff          1 350 1.53
 angle_style         harmonic
 angle_coeff         1 60 109.5
 dihedral_style      multi/harmonic
 dihedral_coeff      1 1.73 -4.49 0.776 6.99 0.0
 pair_style          lj/cut 10.5
 pair_coeff          1 1 0.112 4.01 10.5

minimize 0.0 1.0e-8 1000 100000
Switching to 'neigh_modify every 1 delay 0 check yes' setting during minimization
Generated 0 of 0 mixed pair_coeff terms from geometric mixing rule
Neighbor list info ...
  update: every = 1 steps, delay = 0 steps, check = yes
  max neighbors/atom: 10000, page size: 100000
  master list distance cutoff = 10.9
  ghost atom cutoff = 10.9
  binsize = 5.45, bins = 30 30 19
  1 neighbor lists, perpetual/occasional/extra = 1 0 0
  (1) pair lj/cut, perpetual
      attributes: half, newton on
      pair build: half/bin/newton
      stencil: half/bin/3d
      bin: standard
Per MPI rank memory allocation (min/avg/max) = 7.905 | 8.142 | 8.488 Mbytes
   Step          Temp          E_pair         E_mol          TotEng         Press     
         0   0             -0.53878186     30648.143      30647.604     -1266.3614    
      1000   0             -12.578002      1.0848528     -11.493149     -0.65124305   
Loop time of 0.0434223 on 6 procs for 1000 steps with 100 atoms

91.4% CPU use with 6 MPI tasks x no OpenMP threads

Minimization stats:
  Stopping criterion = max iterations
  Energy initial, next-to-last, final = 
      30647.6043628844  -11.4931280005093  -11.4931489094768
  Force two-norm initial, final = 6079.6618 9.3703391
  Force max component initial, final = 1198.5053 2.5283681
  Final line search alpha, max atom move = 0.019769479 0.049984519
  Iterations, force evaluations = 1000 2393

MPI task timing breakdown:
Section |  min time  |  avg time  |  max time  |%varavg| %total
---------------------------------------------------------------
Pair    | 0.00010557 | 0.0023401  | 0.0040306  |   3.4 |  5.39
Bond    | 0.00016943 | 0.0045316  | 0.0074199  |   4.7 | 10.44
Neigh   | 0.0029496  | 0.0030435  | 0.0031524  |   0.1 |  7.01
Comm    | 0.002085   | 0.0087584  | 0.012515   |   5.0 | 20.17
Output  | 1.7583e-05 | 2.0807e-05 | 3.6539e-05 |   0.0 |  0.05
Modify  | 0          | 0          | 0          |   0.0 |  0.00
Other   |            | 0.02473    |            |       | 56.95

Nlocal:        16.6667 ave          30 max           0 min
Histogram: 2 0 0 0 0 0 1 1 0 2
Nghost:           12.5 ave          26 max           0 min
Histogram: 2 0 0 0 2 0 0 0 0 2
Neighs:        78.3333 ave         151 max           0 min
Histogram: 2 0 0 0 1 0 1 0 0 2

Total # of neighbors = 470
Ave neighs/atom = 4.7
Ave special neighs/atom = 5.88
Neighbor list builds = 212
Dangerous builds = 0


 bond_style          morse
 bond_coeff          1  85 2.2 1.53
 fix                 2 all nvt temp 300 300 100
 timestep            1.0

group sub id 1
1 atoms in group sub
group sub2 id 100
1 atoms in group sub2
fix new sub move linear 0.001 0 0
fix new2 sub2 move linear -0.001 0 0
fix breakk all bond/break 10 1 4.0

 thermo_style        custom step temp  f_breakk[*]
thermo              100

dump 4a all custom 1000 dump.pos id type x y z

 run 1000000
Generated 0 of 0 mixed pair_coeff terms from geometric mixing rule
WARNING: One or more atoms are time integrated more than once (../modify.cpp:292)
Per MPI rank memory allocation (min/avg/max) = 8.032 | 9.087 | 9.616 Mbytes
   Step          Temp       f_breakk[1]    f_breakk[2]  
      1000   0              0              0            
      1100   1.0747784      0              0            
      1200   2.5318054      0              0            
      1300   5.4714185      0              0            
      1400   11.646182      0              0            
      1500   18.525735      0              0            
      1600   30.021651      0              0            
      1700   58.14451       0              0            
      1800   122.7938       0              0            
      1900   240.51877      0              0            
      2000   319.54238      0              0            
      2100   293.152        0              0            
      2200   266.16882      0              0            
      2300   277.74409      0              0            
      2400   328.21347      0              0            
      2500   348.99919      0              0            
      2600   332.33242      0              0            
      2700   298.47921      0              0            
      2800   271.28234      0              0            
      2900   272.99653      0              0            
      3000   259.60238      0              0            
      3100   283.12666      0              0            
      3200   344.89716      0              0            
      3300   369.07163      0              0            
      3400   290.99508      0              0            
      3500   268.80894      0              0            
      3600   275.91074      0              0            
      3700   337.35011      0              0            
      3800   313.98518      0              0            
      3900   327.15427      0              0            
      4000   276.85013      0              0            
      4100   294.82479      0              0            
      4200   274.2104       0              0            
      4300   330.62364      0              0            
      4400   300.25201      0              0            
      4500   314.20159      0              0            
      4600   296.09959      0              0            
      4700   319.34823      0              0            
      4800   282.15077      0              0            
      4900   289.87076      0              0            
      5000   304.40826      0              0            
      5100   346.83432      0              0            
      5200   303.62121      0              0            
      5300   311.33156      0              0            
      5400   244.72564      0              0            
      5500   303.15116      0              0            
      5600   317.1974       0              0            
      5700   337.00517      0              0            
      5800   292.12763      0              0            
      5900   283.49756      0              0            
      6000   313.29016      0              0            
      6100   312.53791      0              0            
      6200   316.62438      0              0            
      6300   267.21663      0              0            
      6400   310.36567      0              0            
      6500   281.37161      0              0            
      6600   295.75458      0              0            
      6700   328.64809      0              0            
      6800   308.05534      0              0            
      6900   307.70746      0              0            
      7000   292.77413      0              0            
      7100   279.84585      0              0            
      7200   261.89851      0              0            
      7300   265.37799      0              0            
      7400   329.86199      0              0            
      7500   294.4075       0              0            
      7600   315.70135      0              0            
      7700   292.46633      0              0            
      7800   326.32763      0              0            
      7900   279.12705      0              0            
      8000   312.03936      0              0            
      8100   377.94734      0              0            
      8200   263.20801      0              0            
      8300   281.71541      0              0            
      8400   276.53538      0              0            
      8500   316.45376      0              0            
      8600   305.76621      0              0            
      8700   313.19222      0              0            
      8800   309.34902      0              0            
      8900   313.41632      0              0            
      9000   274.85467      0              0            
      9100   270.24945      0              0            
      9200   304.18296      0              0            
      9300   298.23216      0              0            
      9400   254.93471      0              0            
      9500   287.68622      0              0            
      9600   258.84308      0              0            
      9700   235.94386      0              0            
      9800   291.94149      0              0            
      9900   292.83248      0              0            
     10000   315.50789      0              0            
     10100   334.2541       0              0            
     10200   272.80251      0              0            
     10300   289.89092      0              0            
     10400   356.19796      0              0            
     10500   307.39937      0              0            
     10600   291.76695      0              0            
     10700   304.61722      0              0            
     10800   279.65446      0              0            
     10900   276.29141      0              0            
     11000   308.2184       0              0            
     11100   276.53395      0              0            
     11200   252.35063      0              0            
     11300   253.75411      0              0            
     11400   341.02611      0              0            
     11500   331.63253      0              0            
     11600   306.12115      0              0            
     11700   285.60761      0              0            
     11800   282.18987      0              0            
     11900   316.65998      0              0            
     12000   318.57339      0              0            
     12100   346.06075      0              0            
     12200   288.81663      0              0            
     12300   333.31449      0              0            
     12400   297.32635      0              0            
     12500   272.93134      0              0            
     12600   316.54372      0              0            
     12700   335.12789      0              0            
     12800   287.40884      0              0            
     12900   253.12293      0              0            
     13000   326.26141      0              0            
     13100   302.41904      0              0            
     13200   279.11949      0              0            
     13300   306.93391      0              0            
     13400   297.83324      0              0            
     13500   346.13735      0              0            
     13600   274.68804      0              0            
     13700   299.22014      0              0            
     13800   242.19084      0              0            
     13900   315.27786      0              0            
     14000   325.76343      0              0            
     14100   351.16839      0              0            
     14200   308.74506      0              0            
     14300   298.4716       0              0            
     14400   257.50987      0              0            
     14500   327.03706      0              0            
     14600   364.81498      0              0            
     14700   331.90417      0              0            
     14800   308.63624      0              0            
     14900   273.09127      0              0            
     15000   290.05028      0              0            
     15100   322.09249      0              0            
     15200   400.62506      0              0            
     15300   314.2451       0              0            
     15400   300.28945      0              0            
     15500   285.99713      0              0            
     15600   278.94641      0              0            
     15700   345.63688      0              0            
     15800   311.79637      0              0            
     15900   294.10445      0              0            
     16000   260.41663      0              0            
     16100   284.67778      0              0            
     16200   317.52849      0              0            
     16300   313.41221      0              0            
     16400   291.48384      0              0            
     16500   315.17177      0              0            
     16600   253.40392      0              0            
     16700   271.39025      0              0            
     16800   293.9854       0              0            
     16900   300.01512      0              0            
     17000   291.32649      0              0            
     17100   336.08265      0              0            
     17200   270.55493      0              0            
     17300   289.14194      0              0            
     17400   263.89694      0              0            
     17500   270.0374       0              0            
     17600   311.30727      0              0            
     17700   308.07538      0              0            
     17800   349.86859      0              0            
     17900   294.31614      0              0            
     18000   271.97148      0              0            
     18100   271.7785       0              0            
     18200   316.85434      0              0            
     18300   269.02777      0              0            
     18400   264.4384       0              0            
     18500   312.90747      0              0            
     18600   303.57739      0              0            
     18700   316.36828      0              0            
     18800   300.4791       0              0            
     18900   317.42639      0              0            
     19000   269.28452      0              0            
     19100   300.14355      0              0            
     19200   299.66007      0              0            
     19300   298.8491       0              0            
     19400   305.41867      0              0            
     19500   305.23112      0              0            
     19600   278.55558      0              0            
     19700   316.89012      0              0            
     19800   308.36156      0              0            
     19900   298.54854      0              0            
     20000   328.48804      0              0            
     20100   303.66034      0              0            
     20200   286.94095      0              0            
     20300   274.36333      0              0            
     20400   316.40335      0              0            
     20500   333.14753      0              0            
     20600   329.45657      0              0            
     20700   283.49362      0              0            
     20800   259.70491      0              0            
     20900   306.22309      0              0            
     21000   263.54593      0              0            
     21100   341.60963      0              0            
     21200   272.20274      0              0            
     21300   284.5567       0              0            
     21400   267.13509      0              0            
     21500   332.82731      0              0            
     21600   315.88804      0              0            
     21700   267.75855      0              0            
     21800   303.85795      0              0            
     21900   275.57058      0              0            
     22000   299.26061      0              0            
     22100   332.76755      0              0            
     22200   307.30686      0              0            
     22300   282.05751      0              0            
     22400   343.96299      0              0            
     22500   275.86992      0              0            
     22600   258.94842      0              0            
     22700   287.23116      0              0            
     22800   295.98612      0              0            
     22900   271.76009      0              0            
     23000   312.92494      0              0            
     23100   256.99345      0              0            
     23200   293.90037      0              0            
     23300   238.45892      0              0            
     23400   304.51421      0              0            
     23500   296.57382      0              0            
     23600   291.71044      0              0            
     23700   270.52564      0              0            
     23800   266.08589      0              0            
     23900   301.72187      0              0            
     24000   297.20172      0              0            
     24100   333.00619      0              0            
     24200   287.0597       0              0            
     24300   279.89113      0              0            
     24400   294.49578      0              0            
     24500   308.00368      0              0            
     24600   280.79937      0              0            
     24700   306.35786      0              0            
     24800   271.92752      0              0            
     24900   272.50368      0              0            
     25000   334.41031      0              0            
     25100   328.9805       0              0            
     25200   299.5776       0              0            
     25300   276.34514      0              0            
     25400   251.93426      0              0            
     25500   261.2647       0              0            
     25600   297.73536      0              0            
     25700   309.30047      0              0            
     25800   308.9683       0              0            
     25900   301.87538      0              0            
     26000   331.24619      0              0            
     26100   306.93168      0              0            
     26200   269.2717       0              0            
     26300   320.96445      0              0            
     26400   293.54985      0              0            
     26500   339.26513      0              0            
     26600   297.28351      0              0            
     26700   288.48391      0              0            
     26800   284.55119      0              0            
     26900   335.62221      0              0            
     27000   316.88932      0              0            
     27100   303.69731      0              0            
     27200   272.35193      0              0            
     27300   271.11747      0              0            
     27400   320.54407      0              0            
     27500   319.6987       0              0            
     27600   285.72865      0              0            
     27700   310.29892      0              0            
     27800   273.60605      0              0            
     27900   271.10414      0              0            
     28000   254.93609      0              0            
     28100   304.05646      0              0            
     28200   282.17128      0              0            
     28300   329.66613      0              0            
     28400   304.08755      0              0            
     28500   273.99289      0              0            
     28600   272.10885      0              0            
     28700   293.25939      0              0            
     28800   316.07977      0              0            
     28900   317.82071      0              0            
     29000   267.65033      0              0            
     29100   272.51793      0              0            
     29200   286.66547      0              0            
     29300   290.42415      0              0            
     29400   282.66567      0              0            
     29500   316.72543      0              0            
     29600   269.26979      0              0            
     29700   280.85288      0              0            
     29800   303.14926      0              0            
     29900   300.76107      0              0            
     30000   313.36225      0              0            
     30100   307.48398      0              0            
     30200   288.91662      0              0            
     30300   267.01215      0              0            
     30400   249.91792      0              0            
     30500   311.88879      0              0            
     30600   319.60395      0              0            
     30700   333.52893      0              0            
     30800   295.15289      0              0            
     30900   280.53645      0              0            
     31000   287.05687      0              0            
     31100   288.03417      0              0            
     31200   286.21654      0              0            
     31300   303.76072      0              0            
     31400   326.14876      0              0            
     31500   306.77041      0              0            
     31600   316.57934      0              0            
     31700   352.8427       0              0            
     31800   313.57222      0              0            
     31900   302.26971      0              0            
     32000   279.2576       0              0            
     32100   308.44485      0              0            
     32200   277.84656      0              0            
     32300   310.84784      0              0            
     32400   292.75958      0              0            
     32500   323.86915      0              0            
     32600   366.67293      0              0            
     32700   319.52514      0              0            
     32800   300.76426      0              0            
     32900   276.02954      0              0            
     33000   303.12704      0              0            
     33100   313.06531      0              0            
     33200   306.15831      0              0            
     33300   286.66223      0              0            
     33400   239.95417      0              0            
     33500   292.21124      0              0            
     33600   297.71341      0              0            
     33700   293.46405      0              0            
     33800   305.01055      0              0            
     33900   267.78296      0              0            
     34000   278.30553      0              0            
     34100   289.74107      0              0            
     34200   299.65708      0              0            
     34300   305.16836      0              0            
     34400   317.72404      0              0            
     34500   303.88005      0              0            
     34600   279.57396      0              0            
     34700   288.48893      0              0            
     34800   307.52889      0              0            
     34900   287.48556      0              0            
     35000   302.77269      0              0            
     35100   283.57756      0              0            
     35200   269.49584      0              0            
     35300   246.04218      0              0            
     35400   280.77242      0              0            
     35500   292.36797      0              0            
     35600   338.46856      0              0            
     35700   330.82332      0              0            
     35800   275.0251       0              0            
     35900   262.55263      0              0            
     36000   303.19524      0              0            
     36100   320.37452      0              0            
     36200   334.27503      0              0            
     36300   302.69611      0              0            
     36400   302.47466      0              0            
     36500   266.23052      0              0            
     36600   304.61634      0              0            
     36700   355.14191      0              0            
     36800   287.90165      0              0            
     36900   296.59951      0              0            
     37000   302.66847      0              0            
     37100   299.5006       0              0            
     37200   288.20999      0              0            
     37300   299.9274       0              0            
     37400   347.1191       0              0            
     37500   310.25825      0              0            
     37600   285.52714      0              0            
     37700   289.76341      0              0            
     37800   262.88652      0              0            
     37900   281.5791       0              0            
     38000   310.8698       0              0            
     38100   351.40984      0              0            
     38200   304.49679      0              0            
     38300   285.43335      0              0            
     38400   315.76313      0              0            
     38500   285.66761      0              0            
     38600   304.33916      0              0            
     38700   298.67422      0              0            
     38800   305.84749      0              0            
     38900   314.07469      0              0            
     39000   294.82741      0              0            
     39100   278.80402      0              0            
     39200   286.25086      0              0            
     39300   326.97367      0              0            
     39400   316.25081      0              0            
     39500   303.94392      0              0            
     39600   287.47556      0              0            
     39700   339.18722      0              0            
     39800   251.29953      0              0            
     39900   271.83088      0              0            
     40000   284.01977      0              0            
     40100   272.49718      0              0            
     40200   321.00838      0              0            
     40300   286.05977      0              0            
     40400   252.32393      0              0            
     40500   260.49338      0              0            
     40600   370.45615      0              0            
     40700   337.11266      0              0            
     40800   292.33391      0              0            
     40900   280.97827      0              0            
     41000   283.52825      0              0            
     41100   363.2881       0              0            
     41200   301.56397      0              0            
     41300   272.98726      0              0            
     41400   313.22886      0              0            
     41500   267.47778      0              0            
     41600   317.50091      0              0            
     41700   306.20448      0              0            
     41800   309.29191      0              0            
     41900   297.11554      0              0            
     42000   287.25704      0              0            
     42100   271.53338      0              0            
     42200   318.30209      0              0            
     42300   313.17532      0              0            
     42400   296.32138      0              0            
     42500   314.36918      0              0            
     42600   361.09456      0              0            
     42700   318.80564      0              0            
     42800   311.90012      0              0            
     42900   291.72268      0              0            
     43000   287.17604      0              0            
     43100   345.51984      0              0            
     43200   306.15753      0              0            
     43300   325.94225      0              0            
     43400   275.60488      0              0            
     43500   272.95704      0              0            
     43600   289.34763      0              0            
     43700   343.53222      0              0            
     43800   324.00531      0              0            
     43900   324.02348      0              0            
     44000   283.58933      0              0            
     44100   280.37233      0              0            
     44200   333.49817      0              0            
     44300   284.28521      0              0            
     44400   251.61058      0              0            
     44500   271.34801      0              0            
     44600   295.17178      0              0            
     44700   298.72828      0              0            
     44800   294.38507      0              0            
     44900   326.10018      0              0            
     45000   280.92782      0              0            
     45100   238.04537      0              0            
     45200   256.62526      0              0            
     45300   250.28231      0              0            
     45400   300.79061      0              0            
     45500   318.72955      0              0            
     45600   344.04451      0              0            
     45700   309.18292      0              0            
     45800   289.04151      0              0            
     45900   261.91561      0              0            
     46000   268.95314      0              0            
     46100   265.59369      0              0            
     46200   296.73294      0              0            
     46300   282.75073      0              0            
     46400   319.8149       0              0            
     46500   311.53553      0              0            
     46600   313.13449      0              0            
     46700   307.10394      0              0            
     46800   307.92583      0              0            
     46900   320.22179      0              0            
     47000   289.86834      0              0            
     47100   259.51261      0              0            
     47200   284.15605      0              0            
     47300   266.56224      0              0            
     47400   305.78626      0              0            
     47500   262.21083      0              0            
     47600   277.3766       0              0            
     47700   285.06888      0              0            
     47800   297.81961      0              0            
     47900   333.0536       0              0            
     48000   313.62624      0              0            
     48100   337.60121      0              0            
     48200   297.31341      0              0            
     48300   250.81933      0              0            
     48400   310.31343      0              0            
     48500   299.34266      0              0            
     48600   317.18539      0              0            
     48700   318.67556      0              0            
     48800   315.05005      0              0            
     48900   294.80986      0              0            
     49000   305.1398       0              0            
     49100   299.12536      0              0            
     49200   300.47208      0              0            
     49300   289.03154      0              0            
     49400   293.70632      0              0            
     49500   312.40119      0              0            
     49600   293.51192      0              0            
     49700   294.42771      0              0            
     49800   278.30396      0              0            
     49900   313.16733      0              0            
     50000   342.83827      0              0            
     50100   339.05749      0              0            
     50200   296.75948      0              0            
     50300   263.47297      0              0            
     50400   268.92025      0              0            
     50500   311.5829       0              0            
     50600   289.4824       0              0            
     50700   316.39236      0              0            
     50800   300.30255      0              0            
     50900   310.40482      0              0            
     51000   310.96698      0              0            
     51100   359.79119      0              0            
     51200   315.24892      0              0            
     51300   310.08036      0              0            
     51400   321.68389      0              0            
     51500   328.22852      0              0            
     51600   284.86655      0              0            
     51700   248.96308      0              0            
     51800   304.38039      0              0            
     51900   310.64976      0              0            
     52000   293.47443      0              0            
     52100   255.02006      0              0            
     52200   273.6762       0              0            
     52300   282.65511      0              0            
     52400   306.81478      0              0            
     52500   261.03298      0              0            
     52600   308.78825      0              0            
     52700   315.09029      0              0            
     52800   279.5188       0              0            
     52900   261.77198      0              0            
     53000   259.93419      0              0            
     53100   318.58327      0              0            
     53200   289.7448       0              0            
     53300   309.20158      0              0            
     53400   328.70404      0              0            
     53500   300.45162      0              0            
     53600   271.39316      0              0            
     53700   280.04631      0              0            
     53800   284.26487      0              0            
     53900   296.3272       0              0            
     54000   305.97911      0              0            
     54100   282.25612      0              0            
     54200   293.29007      0              0            
     54300   340.81501      0              0            
     54400   327.55148      0              0            
     54500   311.61123      0              0            
     54600   298.45201      0              0            
     54700   300.36063      0              0            
     54800   314.78326      0              0            
     54900   268.07051      0              0            
     55000   331.62795      0              0            
     55100   275.17181      0              0            
     55200   290.44982      0              0            
     55300   307.78388      0              0            
     55400   271.22864      0              0            
     55500   310.99693      0              0            
     55600   302.40517      0              0            
     55700   298.58481      0              0            
     55800   273.35116      0              0            
     55900   288.61064      0              0            
     56000   293.24396      0              0            
     56100   290.00821      0              0            
     56200   318.92713      0              0            
     56300   300.92103      0              0            
     56400   315.38582      0              0            
     56500   283.22914      0              0            
     56600   274.77877      0              0            
     56700   267.52166      0              0            
     56800   349.79661      0              0            
     56900   326.6535       0              0            
     57000   348.63034      0              0            
     57100   296.32027      0              0            
     57200   329.44732      0              0            
     57300   286.71147      0              0            
     57400   347.42315      0              0            
     57500   350.68071      0              0            
     57600   302.12378      0              0            
     57700   275.40609      0              0            
     57800   282.53147      0              0            
     57900   353.71753      0              0            
     58000   291.15435      0              0            
     58100   370.33423      0              0            
     58200   293.69252      0              0            
     58300   273.08512      0              0            
     58400   288.18821      0              0            
     58500   326.68554      0              0            
     58600   278.11738      0              0            
     58700   290.84152      0              0            
     58800   276.04967      0              0            
     58900   320.56598      0              0            
     59000   298.61931      0              0            
     59100   311.70192      0              0            
     59200   359.86659      0              0            
     59300   342.28593      0              0            
     59400   319.49479      0              0            
     59500   314.10477      0              0            
     59600   280.37333      0              0            
     59700   315.98147      0              0            
     59800   330.65736      0              0            
     59900   299.92267      0              0            
     60000   275.64726      0              0            
     60100   300.97801      0              0            
     60200   317.61163      0              0            
     60300   360.24837      0              0            
     60400   313.23027      0              0            
     60500   271.7579       0              0            
     60600   304.23654      0              0            
     60700   289.59569      0              0            
     60800   300.52609      0              0            
     60900   348.13109      0              0            
     61000   233.28613      0              0            
     61100   286.42505      0              0            
     61200   293.36539      0              0            
     61300   297.0056       0              0            
     61400   301.69332      0              0            
     61500   306.79324      0              0            
     61600   291.82492      0              0            
     61700   367.59745      0              0            
     61800   331.38492      0              0            
     61900   319.81166      0              0            
     62000   286.91929      0              0            
     62100   269.72616      0              0            
     62200   328.01197      0              0            
     62300   347.69654      0              0            
     62400   290.93643      0              0            
     62500   330.30749      0              0            
     62600   314.4926       0              0            
     62700   285.28423      0              0            
     62800   248.29019      0              0            
     62900   248.46814      0              0            
     63000   288.3728       0              0            
     63100   291.4438       0              0            
     63200   329.47392      0              0            
     63300   268.1894       0              0            
     63400   306.66898      0              0            
     63500   343.63614      0              0            
     63600   330.81103      0              0            
     63700   325.63589      0              0            
     63800   294.66546      0              0            
     63900   285.5523       0              0            
     64000   298.36665      0              0            
     64100   281.20105      0              0            
     64200   313.01689      0              0            
     64300   376.89638      0              0            
     64400   307.91995      0              0            
     64500   284.45759      0              0            
     64600   281.56862      0              0            
     64700   279.26578      0              0            
     64800   316.46465      0              0            
     64900   330.18637      0              0            
     65000   291.30524      0              0            
     65100   276.34474      0              0            
     65200   302.07838      0              0            
     65300   339.86724      0              0            
     65400   276.0197       0              0            
     65500   256.56246      0              0            
     65600   239.23608      0              0            
     65700   276.30191      0              0            
     65800   310.63895      0              0            
     65900   297.72728      0              0            
     66000   282.52456      0              0            
     66100   270.35451      0              0            
     66200   245.57533      0              0            
     66300   302.84229      0              0            
     66400   273.08248      0              0            
     66500   311.72507      0              0            
     66600   306.51761      0              0            
     66700   336.66011      0              0            
     66800   369.00752      0              0            
     66900   301.33809      0              0            
     67000   308.46982      0              0            
     67100   274.40327      0              0            
     67200   277.66678      0              0            
     67300   294.37505      0              0            
     67400   298.50746      0              0            
     67500   319.01513      0              0            
     67600   286.89149      0              0            
     67700   293.70543      0              0            
     67800   297.66035      0              0            
     67900   287.42842      0              0            
     68000   252.19905      0              0            
     68100   285.71281      0              0            
     68200   318.67242      0              0            
     68300   319.64169      0              0            
     68400   274.26625      0              0            
     68500   285.46505      0              0            
     68600   299.15693      0              0            
     68700   270.52123      0              0            
     68800   275.90246      0              0            
     68900   303.26304      0              0            
     69000   348.1373       0              0            
     69100   292.71145      0              0            
     69200   328.55995      0              0            
     69300   327.95543      0              0            
     69400   279.51066      0              0            
     69500   285.25299      0              0            
     69600   313.23063      0              0            
     69700   316.8037       0              0            
     69800   333.28511      0              0            
     69900   330.35122      0              0            
     70000   312.25056      0              0            
     70100   259.27768      0              0            
     70200   310.4609       0              0            
     70300   313.02014      0              0            
     70400   345.81496      0              0            
     70500   307.34547      0              0            
     70600   280.10308      0              0            
     70700   318.82143      0              0            
     70800   295.36297      0              0            
     70900   299.71265      0              0            
     71000   307.49274      0              0            
     71100   267.85596      0              0            
     71200   294.88852      0              0            
     71300   282.70265      0              0            
     71400   349.98451      0              0            
     71500   285.36048      0              0            
     71600   324.31826      0              0            
     71700   321.03597      0              0            
     71800   346.76023      0              0            
     71900   289.07671      0              0            
     72000   276.8576       0              0            
     72100   275.83902      0              0            
     72200   292.50344      0              0            
     72300   336.9666       0              0            
     72400   300.60642      0              0            
     72500   310.34414      0              0            
     72600   300.51671      0              0            
     72700   278.81547      0              0            
     72800   275.84115      0              0            
     72900   317.54113      0              0            
     73000   302.06084      0              0            
     73100   266.85745      0              0            
     73200   260.94983      0              0            
     73300   272.35932      0              0            
     73400   307.6262       0              0            
     73500   306.33565      0              0            
     73600   287.40488      0              0            
     73700   296.61561      0              0            
     73800   325.03466      0              0            
     73900   306.08986      0              0            
     74000   316.06091      0              0            
     74100   289.62183      0              0            
     74200   281.78137      0              0            
     74300   275.94529      0              0            
     74400   272.15888      0              0            
     74500   280.25746      0              0            
     74600   324.04097      0              0            
     74700   323.33808      0              0            
     74800   304.95668      0              0            
     74900   277.4862       0              0            
     75000   332.90772      0              0            
     75100   303.0711       0              0            
     75200   347.08126      0              0            
     75300   264.14465      0              0            
     75400   282.51415      0              0            
     75500   271.59877      0              0            
     75600   316.42374      0              0            
     75700   334.93541      0              0            
     75800   321.52977      0              0            
     75900   289.18819      0              0            
     76000   280.36643      0              0            
     76100   298.87043      0              0            
     76200   300.31637      0              0            
     76300   317.12229      0              0            
     76400   316.03372      0              0            
     76500   311.90337      0              0            
     76600   294.17481      0              0            
     76700   296.4747       0              0            
     76800   327.20833      0              0            
     76900   298.2341       0              0            
     77000   244.29378      0              0            
     77100   259.64463      0              0            
     77200   343.65621      0              0            
     77300   315.24933      0              0            
     77400   316.6157       0              0            
     77500   303.29467      0              0            
     77600   285.03694      0              0            
     77700   289.98003      0              0            
     77800   310.90865      0              0            
     77900   322.3014       0              0            
     78000   281.19011      0              0            
     78100   278.26869      0              0            
     78200   275.55238      0              0            
     78300   279.93944      0              0            
     78400   297.70815      0              0            
     78500   273.20947      0              0            
     78600   314.75526      0              0            
     78700   282.36098      0              0            
     78800   319.65255      0              0            
     78900   312.94624      0              0            
     79000   301.31178      0              0            
     79100   297.25756      0              0            
     79200   287.65934      0              0            
     79300   337.32208      0              0            
     79400   316.62084      0              0            
     79500   281.19102      0              0            
     79600   296.63092      0              0            
     79700   305.82372      0              0            
     79800   260.01419      0              0            
     79900   309.71082      0              0            
     80000   368.22767      0              0            
     80100   298.76816      0              0            
     80200   284.13257      0              0            
     80300   302.73179      0              0            
     80400   327.57282      0              0            
     80500   290.58456      0              0            
     80600   274.97291      0              0            
     80700   292.53763      0              0            
     80800   295.88746      0              0            
     80900   271.11895      0              0            
     81000   319.30504      0              0            
     81100   282.832        0              0            
     81200   276.42293      0              0            
     81300   268.20241      0              0            
     81400   270.08791      0              0            
     81500   271.48174      0              0            
     81600   304.63058      0              0            
     81700   315.35352      0              0            
     81800   284.55414      0              0            
     81900   311.01004      0              0            
     82000   312.61627      0              0            
     82100   305.2634       0              0            
     82200   285.70992      0              0            
     82300   289.89183      0              0            
     82400   308.65365      0              0            
     82500   343.61779      0              0            
     82600   355.88848      0              0            
     82700   308.9159       0              0            
     82800   290.94099      0              0            
     82900   309.56655      0              0            
     83000   307.74449      0              0            
     83100   277.79388      0              0            
     83200   311.52204      0              0            
     83300   332.32365      0              0            
     83400   293.28216      0              0            
     83500   319.96993      0              0            
     83600   247.86965      0              0            
     83700   287.73511      0              0            
     83800   269.47674      0              0            
     83900   277.59415      0              0            
     84000   296.15587      0              0            
     84100   333.13658      0              0            
     84200   274.38686      0              0            
     84300   270.86727      0              0            
     84400   296.77198      0              0            
     84500   262.61312      0              0            
     84600   350.79189      0              0            
     84700   312.82547      0              0            
     84800   302.34547      0              0            
     84900   283.5006       0              0            
     85000   328.62429      0              0            
     85100   346.51528      0              0            
     85200   328.98274      0              0            
     85300   311.09222      0              0            
     85400   266.96322      0              0            
     85500   287.85333      0              0            
     85600   279.37235      0              0            
     85700   273.31885      0              0            
     85800   278.58757      0              0            
     85900   345.74043      0              0            
     86000   317.78601      0              0            
     86100   318.54393      0              0            
     86200   288.92486      0              0            
     86300   257.39069      0              0            
     86400   301.16455      0              0            
     86500   303.03596      0              0            
     86600   334.7108       0              0            
     86700   306.92125      0              0            
     86800   281.19787      0              0            
     86900   316.01113      0              0            
     87000   289.58617      0              0            
     87100   258.62578      0              0            
     87200   227.719        0              0            
     87300   276.94386      0              0            
     87400   317.18825      0              0            
     87500   275.15073      0              0            
     87600   337.086        0              0            
     87700   317.35905      0              0            
     87800   272.10775      0              0            
     87900   294.47975      0              0            
     88000   328.00802      0              0            
     88100   316.97305      0              0            
     88200   324.77537      0              0            
     88300   275.25855      0              0            
     88400   294.25314      0              0            
     88500   308.44025      0              0            
     88600   296.90328      0              0            
     88700   365.67086      0              0            
     88800   318.47948      0              0            
     88900   316.91596      0              0            
     89000   282.98841      0              0            
     89100   301.32154      0              0            
     89200   289.15394      0              0            
     89300   354.32684      0              0            
     89400   280.2147       0              0            
     89500   318.5021       0              0            
     89600   268.42159      0              0            
     89700   346.98517      0              0            
     89800   317.00148      0              0            
     89900   281.3099       0              0            
     90000   294.79706      0              0            
     90100   307.98137      0              0            
     90200   247.90087      0              0            
     90300   301.28974      0              0            
     90400   313.18476      0              0            
     90500   310.14529      0              0            
     90600   295.40495      0              0            
     90700   290.74596      0              0            
     90800   270.61777      0              0            
     90900   315.55571      0              0            
     91000   312.7673       0              0            
     91100   304.141        0              0            
     91200   283.04044      0              0            
     91300   329.29747      0              0            
     91400   393.45333      0              0            
     91500   300.86936      0              0            
     91600   305.81659      0              0            
     91700   281.81495      0              0            
     91800   296.03658      0              0            
     91900   305.48576      0              0            
     92000   275.0119       0              0            
     92100   389.66884      0              0            
     92200   270.19283      0              0            
     92300   290.89398      0              0            
     92400   302.37068      0              0            
     92500   313.92576      0              0            
     92600   341.81031      0              0            
     92700   288.53532      0              0            
     92800   295.91939      0              0            
     92900   296.01772      0              0            
     93000   346.39883      0              0            
     93100   303.22651      0              0            
     93200   352.79143      0              0            
     93300   295.7223       0              0            
     93400   288.08314      0              0            
     93500   291.55723      0              0            
     93600   312.9133       0              0            
     93700   330.70051      0              0            
     93800   355.67288      0              0            
     93900   265.52854      0              0            
     94000   315.0811       0              0            
     94100   285.2896       0              0            
     94200   331.26507      0              0            
     94300   290.15548      0              0            
     94400   259.39305      0              0            
     94500   319.0818       0              0            
     94600   295.97057      0              0            
     94700   346.33945      0              0            
     94800   367.11481      0              0            
     94900   291.32052      0              0            
     95000   251.43255      0              0            
     95100   298.06975      0              0            
     95200   287.28678      0              0            
     95300   378.83132      0              0            
     95400   317.79285      0              0            
     95500   341.96002      0              0            
     95600   293.4841       0              0            
     95700   293.85928      0              0            
     95800   299.45649      0              0            
     95900   326.45589      0              0            
     96000   259.52186      0              0            
     96100   322.93328      0              0            
     96200   311.73765      0              0            
     96300   294.50262      0              0            
     96400   324.83473      0              0            
     96500   285.19135      0              0            
     96600   317.31528      0              0            
     96700   293.55871      0              0            
     96800   296.68249      0              0            
     96900   269.53073      0              0            
     97000   320.28167      0              0            
     97100   256.43852      0              0            
     97200   338.92884      0              0            
     97300   292.25489      0              0            
     97400   291.56737      0              0            
     97500   287.88073      0              0            
     97600   300.80342      0              0            
     97700   326.64477      0              0            
     97800   344.6208       0              0            
     97900   297.84261      0              0            
     98000   300.36729      0              0            
     98100   266.75911      0              0            
     98200   290.88625      0              0            
     98300   312.26748      0              0            
     98400   334.88053      0              0            
     98500   277.4756       0              0            
     98600   291.49745      0              0            
     98700   297.5697       0              0            
     98800   285.01178      0              0            
     98900   317.85469      0              0            
     99000   338.53189      0              0            
     99100   326.54082      0              0            
     99200   296.49073      0              0            
     99300   293.29594      0              0            
     99400   315.52198      0              0            
     99500   283.33668      0              0            
     99600   299.53536      0              0            
     99700   283.88066      0              0            
     99800   285.58407      0              0            
     99900   288.40361      0              0            
    100000   308.91708      0              0            
    100100   316.35308      0              0            
    100200   351.47711      0              0            
    100300   338.8351       0              0            
    100400   304.35678      0              0            
    100500   296.70265      0              0            
    100600   265.43682      0              0            
    100700   342.20601      0              0            
    100800   274.09632      0              0            
    100900   344.95466      0              0            
    101000   290.10616      0              0            
    101100   230.82274      0              0            
    101200   315.86116      0              0            
    101300   269.95006      0              0            
    101400   314.25642      0              0            
    101500   314.84088      0              0            
    101600   308.56963      0              0            
    101700   268.58502      0              0            
    101800   280.88         0              0            
    101900   302.3979       0              0            
    102000   276.29841      0              0            
    102100   322.44369      0              0            
    102200   313.71179      0              0            
    102300   285.77324      0              0            
    102400   288.40643      0              0            
    102500   292.65562      0              0            
    102600   310.51764      0              0            
    102700   298.35198      0              0            
    102800   328.98242      0              0            
    102900   306.36233      0              0            
    103000   332.37787      0              0            
    103100   306.19843      0              0            
    103200   285.85276      0              0            
    103300   285.12327      0              0            
    103400   314.27001      0              0            
    103500   315.30842      0              0            
    103600   306.5145       0              0            
    103700   299.74208      0              0            
    103800   285.1224       0              0            
    103900   224.58683      0              0            
    104000   270.77177      0              0            
    104100   280.46249      0              0            
    104200   307.84565      0              0            
    104300   353.59328      0              0            
    104400   268.65457      0              0            
    104500   301.94839      0              0            
    104600   301.10479      0              0            
    104700   279.45945      0              0            
    104800   294.17678      0              0            
    104900   288.7692       0              0            
    105000   314.43317      0              0            
    105100   313.96951      0              0            
    105200   275.00921      0              0            
    105300   287.25986      0              0            
    105400   288.63123      0              0            
    105500   283.90105      0              0            
    105600   334.65792      0              0            
    105700   273.06587      0              0            
    105800   314.74433      0              0            
    105900   265.02121      0              0            
    106000   245.31815      0              0            
    106100   315.27579      0              0            
    106200   297.86975      0              0            
    106300   288.95102      0              0            
    106400   320.62189      0              0            
    106500   247.19928      0              0            
    106600   299.44752      0              0            
    106700   477.08139      0              1            
    106800   635.60042      0              1            
    106900   616.86591      0              1            
    107000   571.66026      0              1            
    107100   669.73016      1              2            
    107200   694.621        0              2            
    107300   641.57161      0              2            
    107400   506.672        0              2            
    107500   387.74152      0              2            
    107600   312.87131      0              2            
    107700   271.62525      0              2            
    107800   252.1189       0              2            
    107900   246.58592      0              2            
    108000   224.484        0              2            
    108100   223.70469      0              2            
    108200   357.27625      0              2            
    108300   428.5444       0              2            
    108400   285.15268      0              2            
    108500   217.94732      0              2            
    108600   270.43867      0              2            
    108700   334.7686       0              2            
    108800   348.31301      0              2            
    108900   313.41712      0              2            
    109000   257.95659      0              2            
    109100   284.20242      0              2            
    109200   316.46225      0              2            
    109300   297.2985       0              2            
    109400   323.49707      0              2            
    109500   336.45064      0              2            
    109600   264.31313      0              2            
    109700   284.75013      0              2            
    109800   285.48938      0              2            
    109900   304.69993      0              2            
    110000   319.1321       0              2            
    110100   289.50616      0              2            
    110200   303.93581      0              2            
    110300   353.46853      0              2            
    110400   294.59729      0              2            
    110500   268.40906      0              2            
    110600   285.21991      0              2            
    110700   310.79938      0              2            
    110800   313.41647      0              2            
    110900   318.20013      0              2            
    111000   291.22349      0              2            
    111100   319.77219      0              2            
    111200   310.83705      0              2            
    111300   274.35701      0              2            
    111400   254.48822      0              2            
    111500   290.07396      0              2            
    111600   320.64392      0              2            
    111700   325.72037      0              2            
    111800   272.18696      0              2            
    111900   277.18553      0              2            
    112000   339.52874      0              2            
    112100   341.00893      0              2            
    112200   296.81736      0              2            
    112300   274.34023      0              2            
    112400   316.3037       0              2            
    112500   318.55434      0              2            
    112600   324.05006      0              2            
    112700   247.6311       0              2            
    112800   293.65481      0              2            
    112900   279.96612      0              2            
    113000   304.37179      0              2            
    113100   301.20717      0              2            
    113200   276.83718      0              2            
    113300   274.33067      0              2            
    113400   253.82848      0              2            
    113500   230.80532      0              2            
    113600   289.48777      0              2            
    113700   301.39137      0              2            
    113800   312.13308      0              2            
    113900   323.40318      0              2            
    114000   333.1156       0              2            
    114100   306.93772      0              2            
    114200   263.47125      0              2            
    114300   296.86558      0              2            
    114400   314.98741      0              2            
    114500   318.87637      0              2            
    114600   328.21284      0              2            
    114700   261.06533      0              2            
    114800   275.0537       0              2            
    114900   328.67801      0              2            
    115000   284.47175      0              2            
    115100   289.51715      0              2            
    115200   300.56318      0              2            
    115300   260.15359      0              2            
    115400   271.56314      0              2            
    115500   275.71152      0              2            
    115600   293.29501      0              2            
    115700   302.90946      0              2            
    115800   309.90774      0              2            
    115900   270.2742       0              2            
    116000   279.97905      0              2            
    116100   338.77265      0              2            
    116200   361.78368      0              2            
    116300   306.05544      0              2            
    116400   265.59139      0              2            
    116500   318.66098      0              2            
    116600   320.71357      0              2            
    116700   303.04053      0              2            
    116800   253.47987      0              2            
    116900   323.6141       0              2            
    117000   312.29827      0              2            
    117100   283.44802      0              2            
    117200   268.42035      0              2            
    117300   313.85605      0              2            
    117400   339.73138      0              2            
    117500   286.91607      0              2            
    117600   295.82311      0              2            
    117700   312.92205      0              2            
    117800   297.56772      0              2            
    117900   265.8795       0              2            
    118000   265.76096      0              2            
    118100   285.52837      0              2            
    118200   316.70088      0              2            
    118300   299.72301      0              2            
    118400   296.09922      0              2            
    118500   277.92893      0              2            
    118600   288.49954      0              2            
    118700   279.40063      0              2            
    118800   241.38672      0              2            
    118900   275.23885      0              2            
    119000   268.0045       0              2            
    119100   308.16983      0              2            
    119200   276.30753      0              2            
    119300   279.84831      0              2            
    119400   258.52858      0              2            
    119500   280.02191      0              2            
    119600   265.52067      0              2            
    119700   303.7716       0              2            
    119800   282.98564      0              2            
    119900   284.55567      0              2            
    120000   259.06746      0              2            
    120100   265.33188      0              2            
    120200   300.31861      0              2            
    120300   334.78902      0              2            
    120400   308.93096      0              2            
    120500   307.6961       0              2            
    120600   254.24348      0              2            
    120700   248.09023      0              2            
    120800   341.17617      0              2            
    120900   320.95468      0              2            
    121000   297.96177      0              2            
    121100   243.34363      0              2            
    121200   281.70786      0              2            
    121300   344.59764      0              2            
    121400   331.10996      0              2            
    121500   318.60139      0              2            
    121600   318.87767      0              2            
    121700   274.90616      0              2            
    121800   258.33326      0              2            
    121900   360.62857      0              2            
    122000   315.172        0              2            
    122100   326.08453      0              2            
    122200   303.63251      0              2            
    122300   259.05689      0              2            
    122400   288.48446      0              2            
    122500   322.26171      0              2            
    122600   324.52515      0              2            
    122700   289.07666      0              2            
    122800   306.63053      0              2            
    122900   282.99704      0              2            
    123000   305.38237      0              2            
    123100   327.75056      0              2            
    123200   341.25495      0              2            
    123300   308.46805      0              2            
    123400   301.38421      0              2            
    123500   294.86396      0              2            
    123600   324.38865      0              2            
    123700   268.541        0              2            
    123800   311.64304      0              2            
    123900   275.33012      0              2            
    124000   305.27613      0              2            
    124100   280.24238      0              2            
    124200   320.49311      0              2            
    124300   319.56588      0              2            
    124400   291.1289       0              2            
    124500   290.67424      0              2            
    124600   295.4115       0              2            
    124700   303.73973      0              2            
    124800   306.716        0              2            
    124900   332.63152      0              2            
    125000   334.74597      0              2            
    125100   336.17328      0              2            
    125200   264.95627      0              2            
    125300   302.91635      0              2            
    125400   320.42347      0              2            
    125500   336.04665      0              2            
    125600   339.30813      0              2            
    125700   299.01359      0              2            
    125800   253.41591      0              2            
    125900   315.95149      0              2            
    126000   308.05524      0              2            
    126100   310.97333      0              2            
    126200   304.20621      0              2            
    126300   281.01435      0              2            
    126400   299.34618      0              2            
    126500   330.37383      0              2            
    126600   332.29639      0              2            
    126700   288.16783      0              2            
    126800   255.20969      0              2            
    126900   296.83965      0              2            
    127000   304.65189      0              2            
    127100   291.98614      0              2            
    127200   298.92184      0              2            
    127300   277.53243      0              2            
    127400   302.97051      0              2            
    127500   322.63844      0              2            
    127600   285.33765      0              2            
    127700   266.03425      0              2            
    127800   306.59895      0              2            
    127900   281.82954      0              2            
    128000   325.1805       0              2            
    128100   304.15205      0              2            
    128200   272.39557      0              2            
    128300   276.11808      0              2            
    128400   299.78843      0              2            
    128500   353.85277      0              2            
    128600   361.6849       0              2            
    128700   303.94583      0              2            
    128800   320.71794      0              2            
    128900   285.37448      0              2            
    129000   309.54861      0              2            
    129100   300.37799      0              2            
    129200   362.45931      0              2            
    129300   329.47027      0              2            
    129400   320.21827      0              2            
    129500   283.14256      0              2            
    129600   303.22387      0              2            
    129700   288.58554      0              2            
    129800   300.42901      0              2            
    129900   340.97423      0              2            
    130000   318.53732      0              2            
    130100   261.53234      0              2            
    130200   294.97386      0              2            
    130300   338.79095      0              2            
    130400   333.51911      0              2            
    130500   296.83928      0              2            
    130600   283.27709      0              2            
    130700   238.06137      0              2            
    130800   281.53737      0              2            
    130900   253.68379      0              2            
    131000   310.58785      0              2            
    131100   296.97685      0              2            
    131200   315.49852      0              2            
    131300   331.78219      0              2            
    131400   272.02861      0              2            
    131500   265.22343      0              2            
    131600   316.13958      0              2            
    131700   265.27501      0              2            
    131800   342.45573      0              2            
    131900   281.36973      0              2            
    132000   278.64973      0              2            
    132100   305.12926      0              2            
    132200   321.71234      0              2            
    132300   312.23835      0              2            
    132400   303.21334      0              2            
    132500   273.45953      0              2            
    132600   315.39796      0              2            
    132700   358.23358      0              2            
    132800   306.1079       0              2            
    132900   303.16011      0              2            
    133000   230.77363      0              2            
    133100   302.92543      0              2            
    133200   283.79271      0              2            
    133300   301.23713      0              2            
    133400   269.97134      0              2            
    133500   315.69411      0              2            
    133600   331.18824      0              2            
    133700   364.16586      0              2            
    133800   282.29111      0              2            
    133900   334.86342      0              2            
    134000   295.33462      0              2            
    134100   314.11348      0              2            
    134200   285.02133      0              2            
    134300   339.09525      0              2            
    134400   341.24432      0              2            
    134500   309.23965      0              2            
    134600   270.66281      0              2            
    134700   275.89592      0              2            
    134800   294.01016      0              2            
    134900   301.63443      0              2            
    135000   290.6911       0              2            
    135100   350.78956      0              2            
    135200   299.74989      0              2            
    135300   273.95843      0              2            
    135400   283.58499      0              2            
    135500   342.93606      0              2            
    135600   330.70769      0              2            
    135700   305.03509      0              2            
    135800   323.10002      0              2            
    135900   306.90856      0              2            
    136000   319.01004      0              2            
    136100   378.36768      0              2            
    136200   322.42215      0              2            
    136300   308.0399       0              2            
    136400   260.0029       0              2            
    136500   261.01008      0              2            
    136600   322.08154      0              2            
    136700   329.75698      0              2            
    136800   362.98723      0              2            
    136900   351.80287      0              2            
    137000   296.07495      0              2            
    137100   289.22888      0              2            
    137200   286.73345      0              2            
    137300   298.19127      0              2            
    137400   356.35291      0              2            
    137500   305.35114      0              2            
    137600   269.20731      0              2            
    137700   281.51314      0              2            
    137800   260.03658      0              2            
    137900   275.15027      0              2            
    138000   301.25322      0              2            
    138100   282.79271      0              2            
    138200   312.00201      0              2            
    138300   249.55844      0              2            
    138400   269.21197      0              2            
    138500   315.65496      0              2            
    138600   267.24258      0              2            
    138700   357.43701      0              2            
    138800   357.12055      0              2            
    138900   309.16376      0              2            
    139000   280.83946      0              2            
    139100   315.98046      0              2            
    139200   285.78763      0              2            
    139300   296.15834      0              2            
    139400   323.15413      0              2            
    139500   289.25952      0              2            
    139600   310.11308      0              2            
    139700   298.74361      0              2            
    139800   253.8522       0              2            
    139900   313.22942      0              2            
    140000   295.05954      0              2            
    140100   339.8473       0              2            
    140200   307.2438       0              2            
    140300   258.70733      0              2            
    140400   292.58541      0              2            
    140500   311.34474      0              2            
    140600   331.68668      0              2            
    140700   321.74491      0              2            
    140800   274.39991      0              2            
    140900   255.20225      0              2            
    141000   267.04122      0              2            
    141100   302.20719      0              2            
    141200   298.26877      0              2            
    141300   275.67256      0              2            
    141400   268.40532      0              2            
    141500   291.15601      0              2            
    141600   289.67813      0              2            
    141700   259.31104      0              2            
    141800   321.12278      0              2            
    141900   302.64113      0              2            
    142000   283.51778      0              2            
    142100   280.75145      0              2            
    142200   284.06368      0              2            
    142300   275.55697      0              2            
    142400   283.53648      0              2            
    142500   290.80887      0              2            
    142600   280.6888       0              2            
    142700   267.93191      0              2            
    142800   324.47899      0              2            
    142900   313.63306      0              2            
    143000   273.12358      0              2            
    143100   298.21334      0              2            
    143200   245.10486      0              2            
    143300   304.38294      0              2            
    143400   309.63878      0              2            
    143500   281.06749      0              2            
    143600   298.50081      0              2            
    143700   292.79782      0              2            
    143800   309.3303       0              2            
    143900   286.54166      0              2            
    144000   294.8539       0              2            
    144100   347.12942      0              2            
    144200   291.36425      0              2            
    144300   291.45851      0              2            
    144400   282.8353       0              2            
    144500   280.17813      0              2            
    144600   307.61632      0              2            
    144700   296.38237      0              2            
    144800   277.35939      0              2            
    144900   276.40155      0              2            
    145000   287.01761      0              2            
    145100   298.12561      0              2            
    145200   334.63132      0              2            
    145300   311.34725      0              2            
    145400   294.50071      0              2            
    145500   260.61389      0              2            
    145600   337.24784      0              2            
    145700   310.04649      0              2            
    145800   290.33117      0              2            
    145900   322.35991      0              2            
    146000   309.75486      0              2            
    146100   286.22955      0              2            
    146200   265.31065      0              2            
    146300   270.47432      0              2            
    146400   297.11055      0              2            
    146500   334.33525      0              2            
    146600   334.41692      0              2            
    146700   302.24715      0              2            
    146800   299.31938      0              2            
    146900   254.57989      0              2            
    147000   276.76273      0              2            
    147100   336.74529      0              2            
    147200   295.38611      0              2            
    147300   315.66392      0              2            
    147400   312.77662      0              2            
    147500   301.59303      0              2            
    147600   296.51192      0              2            
    147700   335.51762      0              2            
    147800   300.87371      0              2            
    147900   270.86453      0              2            
    148000   268.02928      0              2            
    148100   296.71221      0              2            
    148200   302.11402      0              2            
    148300   345.22851      0              2            
    148400   298.00567      0              2            
    148500   279.64457      0              2            
    148600   279.25083      0              2            
    148700   288.62129      0              2            
    148800   313.26316      0              2            
    148900   348.01771      0              2            
    149000   265.99082      0              2            
    149100   291.11802      0              2            
    149200   296.03618      0              2            
    149300   305.6021       0              2            
    149400   332.4588       0              2            
    149500   308.48801      0              2            
    149600   340.1194       0              2            
    149700   299.68         0              2            
    149800   276.1891       0              2            
    149900   231.25475      0              2            
    150000   319.85353      0              2            
    150100   301.65992      0              2            
    150200   303.74112      0              2            
    150300   292.57066      0              2            
    150400   332.77761      0              2            
    150500   328.97129      0              2            
    150600   325.31198      0              2            
    150700   279.08099      0              2            
    150800   291.64674      0              2            
    150900   299.51407      0              2            
    151000   322.53786      0              2            
    151100   302.26928      0              2            
    151200   285.56674      0              2            
    151300   275.59077      0              2            
    151400   302.09791      0              2            
    151500   281.50069      0              2            
    151600   235.21331      0              2            
    151700   275.90347      0              2            
    151800   295.86612      0              2            
    151900   301.10085      0              2            
    152000   296.25465      0              2            
    152100   293.55685      0              2            
    152200   290.87961      0              2            
    152300   327.7288       0              2            
    152400   319.58428      0              2            
    152500   276.16645      0              2            
    152600   313.44653      0              2            
    152700   287.48787      0              2            
    152800   334.99113      0              2            
    152900   287.25361      0              2            
    153000   293.02333      0              2            
    153100   335.89928      0              2            
    153200   316.82207      0              2            
    153300   298.97208      0              2            
    153400   302.03463      0              2            
    153500   280.97347      0              2            
    153600   255.79772      0              2            
    153700   325.58747      0              2            
    153800   313.85928      0              2            
    153900   312.35511      0              2            
    154000   279.42276      0              2            
    154100   262.92788      0              2            
    154200   265.74871      0              2            
    154300   287.99991      0              2            
    154400   281.52491      0              2            
    154500   310.12766      0              2            
    154600   290.7777       0              2            
    154700   302.37131      0              2            
    154800   265.68483      0              2            
    154900   231.28346      0              2            
    155000   248.27598      0              2            
    155100   290.44654      0              2            
    155200   277.92978      0              2            
    155300   292.70276      0              2            
    155400   339.49815      0              2            
    155500   277.19888      0              2            
    155600   290.93924      0              2            
    155700   324.14625      0              2            
    155800   288.87885      0              2            
    155900   262.86401      0              2            
    156000   279.00155      0              2            
    156100   304.62148      0              2            
    156200   352.84145      0              2            
    156300   320.6641       0              2            
    156400   253.95792      0              2            
    156500   307.08157      0              2            
    156600   340.78804      0              2            
    156700   331.47198      0              2            
    156800   276.91189      0              2            
    156900   290.94382      0              2            
    157000   322.116        0              2            
    157100   361.52631      0              2            
    157200   346.36751      0              2            
    157300   293.16815      0              2            
    157400   309.46597      0              2            
    157500   315.87819      0              2            
    157600   255.39775      0              2            
    157700   316.27672      0              2            
    157800   311.32594      0              2            
    157900   311.34133      0              2            
    158000   266.90133      0              2            
    158100   252.40203      0              2            
    158200   292.98396      0              2            
    158300   267.99455      0              2            
    158400   273.42371      0              2            
    158500   339.04893      0              2            
    158600   277.38942      0              2            
    158700   334.99666      0              2            
    158800   299.174        0              2            
    158900   271.396        0              2            
    159000   284.91403      0              2            
    159100   321.9697       0              2            
    159200   311.88077      0              2            
    159300   286.52149      0              2            
    159400   280.91461      0              2            
    159500   323.57879      0              2            
    159600   264.70583      0              2            
    159700   271.99608      0              2            
    159800   298.18046      0              2            
    159900   267.61411      0              2            
    160000   285.89764      0              2            
    160100   303.39941      0              2            
    160200   289.71707      0              2            
    160300   278.62842      0              2            
    160400   221.12078      0              2            
    160500   273.01773      0              2            
    160600   301.8046       0              2            
    160700   332.70608      0              2            
    160800   298.13903      0              2            
    160900   288.02971      0              2            
    161000   306.17769      0              2            
    161100   318.24579      0              2            
    161200   326.1312       0              2            
    161300   293.69682      0              2            
    161400   285.227        0              2            
    161500   320.61004      0              2            
    161600   310.10734      0              2            
    161700   277.4837       0              2            
    161800   267.28947      0              2            
    161900   301.10139      0              2            
    162000   381.41405      0              2            
    162100   300.38145      0              2            
    162200   304.22174      0              2            
    162300   289.74351      0              2            
    162400   305.91606      0              2            
    162500   308.66124      0              2            
    162600   329.54855      0              2            
    162700   306.14374      0              2            
    162800   265.00438      0              2            
    162900   317.03013      0              2            
    163000   328.9431       0              2            
    163100   301.40205      0              2            
    163200   309.03614      0              2            
    163300   300.27747      0              2            
    163400   260.67734      0              2            
    163500   263.17356      0              2            
    163600   282.9317       0              2            
    163700   301.33263      0              2            
    163800   333.95615      0              2            
    163900   292.6484       0              2            
    164000   270.99981      0              2            
    164100   268.07332      0              2            
    164200   328.11513      0              2            
    164300   302.44076      0              2            
    164400   277.06169      0              2            
    164500   334.91978      0              2            
    164600   306.53001      0              2            
    164700   263.00876      0              2            
    164800   331.21454      0              2            
    164900   319.67745      0              2            
    165000   293.37772      0              2            
    165100   309.23307      0              2            
    165200   293.48289      0              2            
    165300   300.71256      0              2            
    165400   243.35112      0              2            
    165500   253.35511      0              2            
    165600   285.33516      0              2            
    165700   265.17577      0              2            
    165800   329.77556      0              2            
    165900   312.62739      0              2            
    166000   310.42394      0              2            
    166100   367.41639      0              2            
    166200   275.07329      0              2            
    166300   318.7123       0              2            
    166400   330.68436      0              2            
    166500   308.45967      0              2            
    166600   312.31951      0              2            
    166700   351.58906      0              2            
    166800   291.01658      0              2            
    166900   278.96674      0              2            
    167000   300.00283      0              2            
    167100   326.2847       0              2            
    167200   302.80597      0              2            
    167300   298.14329      0              2            
    167400   264.69882      0              2            
    167500   277.39222      0              2            
    167600   303.19424      0              2            
    167700   314.75403      0              2            
    167800   268.81347      0              2            
    167900   268.56244      0              2            
    168000   284.72665      0              2            
    168100   310.54844      0              2            
    168200   307.979        0              2            
    168300   330.61135      0              2            
    168400   291.78085      0              2            
    168500   286.67203      0              2            
    168600   310.73015      0              2            
    168700   301.20288      0              2            
    168800   300.25922      0              2            
    168900   327.77407      0              2            
    169000   318.11333      0              2            
    169100   282.59304      0              2            
    169200   297.17711      0              2            
    169300   287.56307      0              2            
    169400   275.35657      0              2            
    169500   302.58939      0              2            
    169600   322.04034      0              2            
    169700   279.83866      0              2            
    169800   314.3628       0              2            
    169900   311.99024      0              2            
    170000   307.3836       0              2            
    170100   327.66823      0              2            
    170200   345.55494      0              2            
    170300   313.46934      0              2            
    170400   321.53865      0              2            
    170500   307.98142      0              2            
    170600   319.31978      0              2            
    170700   269.61919      0              2            
    170800   273.54999      0              2            
    170900   293.64395      0              2            
    171000   329.06072      0              2            
    171100   283.18575      0              2            
    171200   304.19834      0              2            
    171300   309.98876      0              2            
    171400   318.07282      0              2            
    171500   313.07024      0              2            
    171600   322.31134      0              2            
    171700   284.25033      0              2            
    171800   261.6123       0              2            
    171900   297.95135      0              2            
    172000   336.72447      0              2            
    172100   310.07248      0              2            
    172200   303.14077      0              2            
    172300   299.50402      0              2            
    172400   311.73097      0              2            
    172500   272.9935       0              2            
    172600   288.11309      0              2            
    172700   318.99911      0              2            
    172800   326.59466      0              2            
    172900   310.38634      0              2            
    173000   273.16635      0              2            
    173100   288.47527      0              2            
    173200   260.68276      0              2            
    173300   280.9212       0              2            
    173400   321.92715      0              2            
    173500   315.03892      0              2            
    173600   294.16333      0              2            
    173700   314.90899      0              2            
    173800   362.21725      0              2            
    173900   305.67133      0              2            
    174000   266.47534      0              2            
    174100   280.89144      0              2            
    174200   283.97459      0              2            
    174300   334.83426      0              2            
    174400   332.85849      0              2            
    174500   326.13366      0              2            
    174600   325.0296       0              2            
    174700   277.30792      0              2            
    174800   286.94448      0              2            
    174900   291.83468      0              2            
    175000   334.70267      0              2            
    175100   334.5414       0              2            
    175200   320.83526      0              2            
    175300   281.46537      0              2            
    175400   268.49092      0              2            
    175500   277.67028      0              2            
    175600   313.5258       0              2            
    175700   297.92635      0              2            
    175800   304.33769      0              2            
    175900   294.81404      0              2            
    176000   267.91888      0              2            
    176100   338.48784      0              2            
    176200   368.95603      0              2            
    176300   281.67297      0              2            
    176400   306.32056      0              2            
    176500   285.67401      0              2            
    176600   286.07823      0              2            
    176700   315.2633       0              2            
    176800   327.72995      0              2            
    176900   328.38333      0              2            
    177000   291.96832      0              2            
    177100   314.57379      0              2            
    177200   268.80201      0              2            
    177300   297.32748      0              2            
    177400   320.83321      0              2            
    177500   327.68819      0              2            
    177600   318.64048      0              2            
    177700   282.4164       0              2            
    177800   280.04709      0              2            
    177900   268.73455      0              2            
    178000   348.88612      0              2            
    178100   296.15153      0              2            
    178200   290.45115      0              2            
    178300   267.01458      0              2            
    178400   221.21058      0              2            
    178500   251.6361       0              2            
    178600   280.22143      0              2            
    178700   283.12319      0              2            
    178800   324.72943      0              2            
    178900   309.95396      0              2            
    179000   288.79954      0              2            
    179100   257.68771      0              2            
    179200   277.47558      0              2            
    179300   278.69681      0              2            
    179400   334.29363      0              2            
    179500   328.09261      0              2            
    179600   293.94972      0              2            
    179700   258.93275      0              2            
    179800   295.82428      0              2            
    179900   321.1719       0              2            
    180000   298.04476      0              2            
    180100   320.0266       0              2            
    180200   248.34905      0              2            
    180300   279.27188      0              2            
    180400   283.7436       0              2            
    180500   329.35417      0              2            
    180600   285.02262      0              2            
    180700   306.84426      0              2            
    180800   246.0086       0              2            
    180900   270.71047      0              2            
    181000   315.44907      0              2            
    181100   300.87469      0              2            
    181200   314.73242      0              2            
    181300   334.65538      0              2            
    181400   326.94045      0              2            
    181500   271.75737      0              2            
    181600   271.75882      0              2            
    181700   265.92513      0              2            
    181800   318.17234      0              2            
    181900   298.30342      0              2            
    182000   322.71113      0              2            
    182100   298.70607      0              2            
    182200   268.92505      0              2            
    182300   260.85923      0              2            
    182400   292.14952      0              2            
    182500   314.78187      0              2            
    182600   318.06055      0              2            
    182700   272.64283      0              2            
    182800   273.76239      0              2            
    182900   299.85547      0              2            
    183000   292.76608      0              2            
    183100   323.97019      0              2            
    183200   311.14756      0              2            
    183300   279.457        0              2            
    183400   259.43889      0              2            
    183500   262.66178      0              2            
    183600   317.82459      0              2            
    183700   302.0075       0              2            
    183800   331.0213       0              2            
    183900   300.15935      0              2            
    184000   301.17519      0              2            
    184100   300.1516       0              2            
    184200   289.83481      0              2            
    184300   316.0585       0              2            
    184400   282.02917      0              2            
    184500   291.44487      0              2            
    184600   256.26603      0              2            
    184700   263.8478       0              2            
    184800   324.68635      0              2            
    184900   328.49699      0              2            
    185000   281.86108      0              2            
    185100   270.53059      0              2            
    185200   323.38993      0              2            
    185300   323.53912      0              2            
    185400   286.91163      0              2            
    185500   297.75421      0              2            
    185600   299.47717      0              2            
    185700   300.5372       0              2            
    185800   295.99574      0              2            
    185900   291.31389      0              2            
    186000   254.31403      0              2            
    186100   282.34043      0              2            
    186200   283.19428      0              2            
    186300   302.30791      0              2            
    186400   277.7969       0              2            
    186500   311.07393      0              2            
    186600   302.46701      0              2            
    186700   312.11299      0              2            
    186800   270.23928      0              2            
    186900   274.58197      0              2            
    187000   252.75317      0              2            
    187100   282.59448      0              2            
    187200   317.19309      0              2            
    187300   302.93106      0              2            
    187400   311.98057      0              2            
    187500   270.73184      0              2            
    187600   278.94403      0              2            
    187700   259.27215      0              2            
    187800   255.51115      0              2            
    187900   310.07404      0              2            
    188000   325.21816      0              2            
    188100   293.67095      0              2            
    188200   280.90806      0              2            
    188300   314.25894      0              2            
    188400   293.27457      0              2            
    188500   342.69197      0              2            
    188600   318.46219      0              2            
    188700   296.74403      0              2            
    188800   290.39044      0              2            
    188900   276.94895      0              2            
    189000   324.51886      0              2            
    189100   312.23853      0              2            
    189200   272.91091      0              2            
    189300   260.40885      0              2            
    189400   302.30113      0              2            
    189500   335.90746      0              2            
    189600   369.32352      0              2            
    189700   271.58666      0              2            
    189800   315.76954      0              2            
    189900   286.30341      0              2            
    190000   320.62633      0              2            
    190100   274.6084       0              2            
    190200   302.54634      0              2            
    190300   308.95744      0              2            
    190400   317.12574      0              2            
    190500   280.65993      0              2            
    190600   262.50799      0              2            
    190700   269.76381      0              2            
    190800   307.0827       0              2            
    190900   291.47102      0              2            
    191000   280.77015      0              2            
    191100   309.20426      0              2            
    191200   266.40522      0              2            
    191300   301.1617       0              2            
    191400   304.68194      0              2            
    191500   320.088        0              2            
    191600   315.60369      0              2            
    191700   285.39168      0              2            
    191800   250.48784      0              2            
    191900   313.85812      0              2            
    192000   299.63129      0              2            
    192100   301.6308       0              2            
    192200   292.83904      0              2            
    192300   266.51016      0              2            
    192400   310.53002      0              2            
    192500   316.14165      0              2            
    192600   290.8946       0              2            
    192700   311.37785      0              2            
    192800   270.39679      0              2            
    192900   268.62086      0              2            
    193000   262.4487       0              2            
    193100   311.29349      0              2            
    193200   312.926        0              2            
    193300   304.68741      0              2            
    193400   322.06989      0              2            
    193500   262.95192      0              2            
    193600   257.7024       0              2            
    193700   265.20244      0              2            
    193800   268.40302      0              2            
    193900   317.83873      0              2            
    194000   320.75901      0              2            
    194100   302.49931      0              2            
    194200   280.38171      0              2            
    194300   297.11612      0              2            
    194400   288.49345      0              2            
    194500   320.29675      0              2            
    194600   321.52624      0              2            
    194700   291.78935      0              2            
    194800   283.03966      0              2            
    194900   292.43968      0              2            
    195000   357.36981      0              2            
    195100   336.6612       0              2            
    195200   262.23746      0              2            
    195300   259.62984      0              2            
    195400   303.75911      0              2            
    195500   308.12015      0              2            
    195600   299.20165      0              2            
    195700   307.36543      0              2            
    195800   309.36189      0              2            
    195900   307.52651      0              2            
    196000   301.4944       0              2            
    196100   323.89545      0              2            
    196200   258.38405      0              2            
    196300   272.69536      0              2            
    196400   338.54726      0              2            
    196500   337.22065      0              2            
    196600   303.86517      0              2            
    196700   286.43196      0              2            
    196800   290.02315      0              2            
    196900   281.85097      0              2            
    197000   271.91211      0              2            
    197100   294.437        0              2            
    197200   312.10229      0              2            
    197300   317.58048      0              2            
    197400   272.5091       0              2            
    197500   284.89984      0              2            
    197600   289.83998      0              2            
    197700   300.8372       0              2            
    197800   335.32809      0              2            
    197900   330.71799      0              2            
    198000   278.25463      0              2            
    198100   246.38643      0              2            
    198200   295.55331      0              2            
    198300   271.83907      0              2            
    198400   292.95862      0              2            
    198500   332.73209      0              2            
    198600   295.20554      0              2            
    198700   303.68928      0              2            
    198800   314.80795      0              2            
    198900   287.49945      0              2            
    199000   316.03555      0              2            
    199100   345.75227      0              2            
    199200   293.19469      0              2            
    199300   312.1023       0              2            
    199400   259.10925      0              2            
    199500   276.16947      0              2            
    199600   322.99137      0              2            
    199700   327.29527      0              2            
    199800   292.4058       0              2            
    199900   276.6022       0              2            
    200000   310.49396      0              2            
    200100   290.65078      0              2            
    200200   360.82694      0              2            
    200300   310.4614       0              2            
    200400   291.99799      0              2            
    200500   293.05257      0              2            
    200600   293.13377      0              2            
    200700   298.73093      0              2            
    200800   300.53539      0              2            
    200900   287.09462      0              2            
    201000   306.55355      0              2            
    201100   271.69836      0              2            
    201200   251.20395      0              2            
    201300   279.87259      0              2            
    201400   307.94138      0              2            
    201500   319.02038      0              2            
    201600   306.68402      0              2            
    201700   267.73227      0              2            
    201800   267.3408       0              2            
    201900   261.2046       0              2            
    202000   283.72173      0              2            
    202100   308.085        0              2            
    202200   316.86764      0              2            
    202300   323.12631      0              2            
    202400   283.23594      0              2            
    202500   292.23009      0              2            
    202600   301.59464      0              2            
    202700   292.21374      0              2            
    202800   294.71975      0              2            
    202900   281.63539      0              2            
    203000   281.2136       0              2            
    203100   291.16896      0              2            
    203200   242.4557       0              2            
    203300   271.97708      0              2            
    203400   329.23921      0              2            
    203500   287.01742      0              2            
    203600   288.95905      0              2            
    203700   281.10281      0              2            
    203800   338.12888      0              2            
    203900   308.54015      0              2            
    204000   303.24138      0              2            
    204100   297.23018      0              2            
    204200   332.03878      0              2            
    204300   307.55101      0              2            
    204400   274.63645      0              2            
    204500   293.11457      0              2            
    204600   323.17922      0              2            
    204700   344.11853      0              2            
    204800   306.37959      0              2            
    204900   309.3642       0              2            
    205000   313.85339      0              2            
    205100   278.10928      0              2            
    205200   299.66928      0              2            
    205300   299.126        0              2            
    205400   326.21136      0              2            
    205500   351.25987      0              2            
    205600   280.59109      0              2            
    205700   272.59781      0              2            
    205800   285.64316      0              2            
    205900   285.90429      0              2            
    206000   343.09         0              2            
    206100   281.34156      0              2            
    206200   260.25121      0              2            
    206300   307.69753      0              2            
    206400   330.37364      0              2            
    206500   317.11921      0              2            
    206600   300.72965      0              2            
    206700   278.95763      0              2            
    206800   283.08796      0              2            
    206900   294.70218      0              2            
    207000   298.00821      0              2            
    207100   280.91479      0              2            
    207200   300.37169      0              2            
    207300   346.91971      0              2            
    207400   340.01652      0              2            
    207500   304.29976      0              2            
    207600   280.9353       0              2            
    207700   269.91499      0              2            
    207800   289.6576       0              2            
    207900   300.87422      0              2            
    208000   280.33321      0              2            
    208100   283.73055      0              2            
    208200   298.29962      0              2            
    208300   267.16626      0              2            
    208400   294.90965      0              2            
    208500   333.35452      0              2            
    208600   346.19986      0              2            
    208700   302.37585      0              2            
    208800   286.08085      0              2            
    208900   279.94007      0              2            
    209000   302.77786      0              2            
    209100   308.99872      0              2            
    209200   345.82136      0              2            
    209300   331.45913      0              2            
    209400   307.66247      0              2            
    209500   329.77273      0              2            
    209600   306.40309      0              2            
    209700   320.52577      0              2            
    209800   297.17104      0              2            
    209900   271.64143      0              2            
    210000   297.99665      0              2            
    210100   319.02803      0              2            
    210200   317.96338      0              2            
    210300   341.57386      0              2            
    210400   250.11187      0              2            
    210500   286.37845      0              2            
    210600   299.97374      0              2            
    210700   283.84035      0              2            
    210800   289.53841      0              2            
    210900   296.73215      0              2            
    211000   264.10178      0              2            
    211100   249.36466      0              2            
    211200   235.75439      0              2            
    211300   289.74454      0              2            
    211400   293.02963      0              2            
    211500   288.73913      0              2            
    211600   327.24065      0              2            
    211700   298.07079      0              2            
    211800   297.38603      0              2            
    211900   309.17775      0              2            
    212000   310.52663      0              2            
    212100   281.92772      0              2            
    212200   275.71489      0              2            
    212300   275.51203      0              2            
    212400   253.82801      0              2            
    212500   279.94148      0              2            
    212600   340.76362      0              2            
    212700   295.73515      0              2            
    212800   290.8703       0              2            
    212900   273.42309      0              2            
    213000   309.21045      0              2            
    213100   311.04256      0              2            
    213200   345.59273      0              2            
    213300   295.81182      0              2            
    213400   268.74449      0              2            
    213500   286.41707      0              2            
    213600   312.91309      0              2            
    213700   305.3536       0              2            
    213800   315.14483      0              2            
    213900   307.86489      0              2            
    214000   280.95019      0              2            
    214100   269.32267      0              2            
    214200   295.63364      0              2            
    214300   385.49854      0              2            
    214400   291.65387      0              2            
    214500   284.96695      0              2            
    214600   269.72243      0              2            
    214700   307.01234      0              2            
    214800   309.37839      0              2            
    214900   321.99292      0              2            
    215000   304.65522      0              2            
    215100   299.87156      0              2            
    215200   262.91685      0              2            
    215300   248.82387      0              2            
    215400   304.10082      0              2            
    215500   326.42094      0              2            
    215600   315.08304      0              2            
    215700   277.66111      0              2            
    215800   287.94909      0              2            
    215900   294.16279      0              2            
    216000   300.3333       0              2            
    216100   288.26075      0              2            
    216200   290.98763      0              2            
    216300   292.74717      0              2            
    216400   255.74432      0              2            
    216500   285.62785      0              2            
    216600   305.25207      0              2            
    216700   326.85966      0              2            
    216800   326.55794      0              2            
    216900   295.35601      0              2            
    217000   274.99524      0              2            
    217100   263.02997      0              2            
    217200   317.22279      0              2            
    217300   318.39247      0              2            
    217400   340.79164      0              2            
    217500   316.00401      0              2            
    217600   252.21971      0              2            
    217700   269.28297      0              2            
    217800   343.98118      0              2            
    217900   276.78789      0              2            
    218000   292.79552      0              2            
    218100   223.66332      0              2            
    218200   251.60349      0              2            
    218300   276.91976      0              2            
    218400   290.23087      0              2            
    218500   320.31539      0              2            
    218600   321.467        0              2            
    218700   278.73598      0              2            
    218800   297.88076      0              2            
    218900   332.31876      0              2            
    219000   318.84686      0              2            
    219100   297.76276      0              2            
    219200   329.88912      0              2            
    219300   303.06459      0              2            
    219400   269.39354      0              2            
    219500   247.0642       0              2            
    219600   248.69273      0              2            
    219700   309.04591      0              2            
    219800   282.49706      0              2            
    219900   299.15151      0              2            
    220000   302.42666      0              2            
    220100   284.19138      0              2            
    220200   295.68724      0              2            
    220300   273.41418      0              2            
    220400   285.98249      0              2            
    220500   308.1215       0              2            
    220600   297.9595       0              2            
    220700   342.95024      0              2            
    220800   282.26667      0              2            
    220900   257.39211      0              2            
    221000   245.95743      0              2            
    221100   298.45003      0              2            
    221200   322.69449      0              2            
    221300   301.6829       0              2            
    221400   284.57234      0              2            
    221500   255.71998      0              2            
    221600   258.95078      0              2            
    221700   283.72465      0              2            
    221800   337.82295      0              2            
    221900   316.54525      0              2            
    222000   276.59325      0              2            
    222100   292.5526       0              2            
    222200   327.00399      0              2            
    222300   340.32785      0              2            
    222400   316.02695      0              2            
    222500   306.40891      0              2            
    222600   274.91597      0              2            
    222700   304.82298      0              2            
    222800   302.17746      0              2            
    222900   310.12941      0              2            
    223000   340.48734      0              2            
    223100   333.09252      0              2            
    223200   316.58794      0              2            
    223300   280.26859      0              2            
    223400   281.36865      0              2            
    223500   305.74047      0              2            
    223600   303.92215      0              2            
    223700   347.63214      0              2            
    223800   285.16421      0              2            
    223900   289.77613      0              2            
    224000   266.16632      0              2            
    224100   308.20122      0              2            
    224200   326.3822       0              2            
    224300   283.84248      0              2            
    224400   301.22105      0              2            
    224500   265.76203      0              2            
    224600   322.34089      0              2            
    224700   330.82156      0              2            
    224800   304.55456      0              2            
    224900   348.48208      0              2            
    225000   318.67376      0              2            
    225100   292.87365      0              2            
    225200   293.7408       0              2            
    225300   301.63797      0              2            
    225400   289.69551      0              2            
    225500   334.1207       0              2            
    225600   324.03554      0              2            
    225700   336.00085      0              2            
    225800   307.27639      0              2            
    225900   287.89767      0              2            
    226000   283.20369      0              2            
    226100   354.35791      0              2            
    226200   354.48944      0              2            
    226300   324.30938      0              2            
    226400   292.7582       0              2            
    226500   288.0868       0              2            
    226600   310.61805      0              2            
    226700   310.85241      0              2            
    226800   362.17131      0              2            
    226900   282.11344      0              2            
    227000   256.3401       0              2            
    227100   248.14785      0              2            
    227200   290.04204      0              2            
    227300   310.12257      0              2            
    227400   287.11836      0              2            
    227500   306.26643      0              2            
    227600   282.75712      0              2            
    227700   271.30957      0              2            
    227800   240.44718      0              2            
    227900   255.55004      0              2            
    228000   272.93629      0              2            
    228100   306.62438      0              2            
    228200   297.6694       0              2            
    228300   269.00703      0              2            
    228400   287.39731      0              2            
    228500   329.34392      0              2            
    228600   325.3009       0              2            
    228700   288.60943      0              2            
    228800   281.70069      0              2            
    228900   329.19335      0              2            
    229000   322.91148      0              2            
    229100   296.11297      0              2            
    229200   308.52565      0              2            
    229300   267.87165      0              2            
    229400   284.06947      0              2            
    229500   323.47528      0              2            
    229600   306.15214      0              2            
    229700   311.0834       0              2            
    229800   306.59991      0              2            
    229900   313.67008      0              2            
    230000   316.90664      0              2            
    230100   306.0694       0              2            
    230200   282.90121      0              2            
    230300   304.13772      0              2            
    230400   288.81267      0              2            
    230500   287.46385      0              2            
    230600   308.72128      0              2            
    230700   301.48076      0              2            
    230800   287.29124      0              2            
    230900   244.38544      0              2            
    231000   283.34571      0              2            
    231100   281.30327      0              2            
    231200   310.28213      0              2            
    231300   295.28235      0              2            
    231400   280.94341      0              2            
    231500   276.96625      0              2            
    231600   229.07258      0              2            
    231700   303.43832      0              2            
    231800   329.16977      0              2            
    231900   264.81334      0              2            
    232000   285.68371      0              2            
    232100   298.86944      0              2            
    232200   313.65892      0              2            
    232300   335.38377      0              2            
    232400   281.93286      0              2            
    232500   277.17663      0              2            
    232600   282.27868      0              2            
    232700   317.43982      0              2            
    232800   360.63777      0              2            
    232900   355.38439      0              2            
    233000   322.9482       0              2            
    233100   307.39999      0              2            
    233200   280.7555       0              2            
    233300   285.21984      0              2            
    233400   322.64116      0              2            
    233500   342.65446      0              2            
    233600   322.01392      0              2            
    233700   274.97693      0              2            
    233800   305.65032      0              2            
    233900   293.00988      0              2            
    234000   316.84407      0              2            
    234100   324.24485      0              2            
    234200   291.54641      0              2            
    234300   253.34957      0              2            
    234400   324.02311      0              2            
    234500   282.64876      0              2            
    234600   286.89837      0              2            
    234700   303.521        0              2            
    234800   255.82539      0              2            
    234900   274.17696      0              2            
    235000   323.96829      0              2            
    235100   305.83844      0              2            
    235200   295.91389      0              2            
    235300   284.33844      0              2            
    235400   279.02253      0              2            
    235500   288.10078      0              2            
    235600   284.33314      0              2            
    235700   272.09704      0              2            
    235800   295.89233      0              2            
    235900   261.50448      0              2            
    236000   319.67858      0              2            
    236100   303.24423      0              2            
    236200   313.60518      0              2            
    236300   333.38223      0              2            
    236400   343.14922      0              2            
    236500   275.17583      0              2            
    236600   278.87659      0              2            
    236700   286.72135      0              2            
    236800   301.80095      0              2            
    236900   317.69274      0              2            
    237000   301.24232      0              2            
    237100   292.49242      0              2            
    237200   321.39081      0              2            
    237300   316.45046      0              2            
    237400   316.7021       0              2            
    237500   303.21257      0              2            
    237600   306.5797       0              2            
    237700   259.50205      0              2            
    237800   298.16003      0              2            
    237900   320.8361       0              2            
    238000   346.76149      0              2            
    238100   288.04032      0              2            
    238200   315.83576      0              2            
    238300   297.65986      0              2            
    238400   277.40772      0              2            
    238500   302.93832      0              2            
    238600   333.72899      0              2            
    238700   302.5821       0              2            
    238800   288.04264      0              2            
    238900   275.08979      0              2            
    239000   280.82948      0              2            
    239100   337.5436       0              2            
    239200   321.17821      0              2            
    239300   289.65075      0              2            
    239400   338.4188       0              2            
    239500   325.18693      0              2            
    239600   296.78092      0              2            
    239700   293.66946      0              2            
    239800   283.77864      0              2            
    239900   317.09787      0              2            
    240000   299.93395      0              2            
    240100   305.44219      0              2            
    240200   320.69566      0              2            
    240300   278.24913      0              2            
    240400   256.30544      0              2            
    240500   290.02088      0              2            
    240600   326.3925       0              2            
    240700   313.9244       0              2            
    240800   302.87643      0              2            
    240900   287.08124      0              2            
    241000   268.29574      0              2            
    241100   268.76564      0              2            
    241200   305.74012      0              2            
    241300   300.51768      0              2            
    241400   326.09225      0              2            
    241500   307.58856      0              2            
    241600   299.85139      0              2            
    241700   282.18027      0              2            
    241800   269.95246      0              2            
    241900   282.68718      0              2            
    242000   284.59058      0              2            
    242100   290.73621      0              2            
    242200   354.96124      0              2            
    242300   287.9276       0              2            
    242400   263.58551      0              2            
    242500   244.13382      0              2            
    242600   278.99045      0              2            
    242700   330.63382      0              2            
    242800   285.66564      0              2            
    242900   247.84133      0              2            
    243000   309.50771      0              2            
    243100   334.07202      0              2            
    243200   321.62826      0              2            
    243300   297.52955      0              2            
    243400   306.90761      0              2            
    243500   242.51205      0              2            
    243600   302.84028      0              2            
    243700   314.79904      0              2            
    243800   329.52667      0              2            
    243900   303.79125      0              2            
    244000   292.02263      0              2            
    244100   304.00179      0              2            
    244200   299.16214      0              2            
    244300   379.93137      0              2            
    244400   342.26927      0              2            
    244500   314.47447      0              2            
    244600   277.16867      0              2            
    244700   288.92573      0              2            
    244800   301.25946      0              2            
    244900   330.90939      0              2            
    245000   299.39274      0              2            
    245100   305.6037       0              2            
    245200   281.9701       0              2            
    245300   344.43842      0              2            
    245400   303.60337      0              2            
    245500   309.82154      0              2            
    245600   281.92011      0              2            
    245700   305.95296      0              2            
    245800   315.45175      0              2            
    245900   307.32683      0              2            
    246000   335.55724      0              2            
    246100   298.82138      0              2            
    246200   302.62343      0              2            
    246300   311.21313      0              2            
    246400   324.33335      0              2            
    246500   304.60193      0              2            
    246600   258.03161      0              2            
    246700   253.42435      0              2            
    246800   280.93319      0              2            
    246900   292.78371      0              2            
    247000   303.32865      0              2            
    247100   287.7818       0              2            
    247200   311.86396      0              2            
    247300   294.93054      0              2            
    247400   280.83388      0              2            
    247500   315.95835      0              2            
    247600   322.89014      0              2            
    247700   310.4325       0              2            
    247800   305.4577       0              2            
    247900   291.33757      0              2            
    248000   282.76486      0              2            
    248100   313.81026      0              2            
    248200   356.75617      0              2            
    248300   330.16455      0              2            
    248400   291.28362      0              2            
    248500   281.41895      0              2            
    248600   309.43905      0              2            
    248700   357.23224      0              2            
    248800   365.28337      0              2            
    248900   318.34308      0              2            
    249000   304.16953      0              2            
    249100   290.16763      0              2            
    249200   270.72427      0              2            
    249300   338.59113      0              2            
    249400   319.01508      0              2            
    249500   322.57376      0              2            
    249600   302.75784      0              2            
    249700   264.10726      0              2            
    249800   325.4337       0              2            
    249900   316.1478       0              2            
    250000   329.18454      0              2            
    250100   248.37522      0              2            
    250200   282.95533      0              2            
    250300   282.86623      0              2            
    250400   324.82382      0              2            
    250500   309.07346      0              2            
    250600   321.2675       0              2            
    250700   296.14823      0              2            
    250800   307.49697      0              2            
    250900   357.14436      0              2            
    251000   302.02892      0              2            
    251100   282.48026      0              2            
    251200   306.17554      0              2            
    251300   278.27961      0              2            
    251400   313.84608      0              2            
    251500   304.45731      0              2            
    251600   274.07564      0              2            
    251700   293.39436      0              2            
    251800   280.1259       0              2            
    251900   310.54069      0              2            
    252000   313.26877      0              2            
    252100   334.76529      0              2            
    252200   291.10794      0              2            
    252300   292.98602      0              2            
    252400   269.53218      0              2            
    252500   297.01867      0              2            
    252600   309.93101      0              2            
    252700   280.19158      0              2            
    252800   291.16232      0              2            
    252900   265.28631      0              2            
    253000   297.21532      0              2            
    253100   293.98539      0              2            
    253200   349.5056       0              2            
    253300   346.49367      0              2            
    253400   325.27298      0              2            
    253500   300.37206      0              2            
    253600   281.1239       0              2            
    253700   322.3414       0              2            
    253800   356.97638      0              2            
    253900   292.35754      0              2            
    254000   276.38581      0              2            
    254100   292.8879       0              2            
    254200   322.53803      0              2            
    254300   357.24312      0              2            
    254400   256.28479      0              2            
    254500   256.31591      0              2            
    254600   314.80961      0              2            
    254700   318.18543      0              2            
    254800   357.9762       0              2            
    254900   277.90737      0              2            
    255000   284.95861      0              2            
    255100   317.65523      0              2            
    255200   324.82863      0              2            
    255300   304.92471      0              2            
    255400   374.64488      0              2            
    255500   298.23914      0              2            
    255600   327.37821      0              2            
    255700   304.43631      0              2            
    255800   315.56294      0              2            
    255900   258.80033      0              2            
    256000   315.32139      0              2            
    256100   321.19314      0              2            
    256200   324.11357      0              2            
    256300   300.61051      0              2            
    256400   308.16676      0              2            
    256500   299.86603      0              2            
    256600   280.93626      0              2            
    256700   335.98221      0              2            
    256800   316.87805      0              2            
    256900   274.41125      0              2            
    257000   245.94351      0              2            
    257100   319.35022      0              2            
    257200   328.973        0              2            
    257300   312.34984      0              2            
    257400   303.78163      0              2            
    257500   301.15961      0              2            
    257600   326.91389      0              2            
    257700   287.88454      0              2            
    257800   299.06204      0              2            
    257900   265.61748      0              2            
    258000   282.91207      0              2            
    258100   310.32598      0              2            
    258200   304.02718      0              2            
    258300   306.63772      0              2            
    258400   303.00897      0              2            
    258500   291.14241      0              2            
    258600   299.30769      0              2            
    258700   300.26493      0              2            
    258800   292.54459      0              2            
    258900   348.21672      0              2            
    259000   345.52126      0              2            
    259100   307.92955      0              2            
    259200   272.5686       0              2            
    259300   284.56584      0              2            
    259400   327.08508      0              2            
    259500   289.75429      0              2            
    259600   294.59662      0              2            
    259700   278.37442      0              2            
    259800   269.26779      0              2            
    259900   273.63612      0              2            
    260000   298.23953      0              2            
    260100   310.14888      0              2            
    260200   322.8874       0              2            
    260300   289.79859      0              2            
    260400   280.88104      0              2            
    260500   251.00178      0              2            
    260600   273.08928      0              2            
    260700   311.89096      0              2            
    260800   356.95329      0              2            
    260900   290.00484      0              2            
    261000   272.99745      0              2            
    261100   316.89833      0              2            
    261200   291.63165      0              2            
    261300   316.82285      0              2            
    261400   314.02334      0              2            
    261500   357.05439      0              2            
    261600   332.43132      0              2            
    261700   277.93584      0              2            
    261800   269.52396      0              2            
    261900   256.92046      0              2            
    262000   264.18717      0              2            
    262100   266.44434      0              2            
    262200   307.95304      0              2            
    262300   313.69118      0              2            
    262400   272.76902      0              2            
    262500   284.54331      0              2            
    262600   293.48865      0              2            
    262700   329.10581      0              2            
    262800   306.85553      0              2            
    262900   339.97129      0              2            
    263000   280.22156      0              2            
    263100   228.68579      0              2            
    263200   305.27671      0              2            
    263300   311.20351      0              2            
    263400   305.55493      0              2            
    263500   301.73264      0              2            
    263600   273.34031      0              2            
    263700   255.89607      0              2            
    263800   303.02967      0              2            
    263900   317.79606      0              2            
    264000   353.14698      0              2            
    264100   258.03435      0              2            
    264200   265.68491      0              2            
    264300   279.50322      0              2            
    264400   281.48409      0              2            
    264500   287.84017      0              2            
    264600   337.2255       0              2            
    264700   339.99621      0              2            
    264800   271.58801      0              2            
    264900   302.91294      0              2            
    265000   284.95013      0              2            
    265100   279.45579      0              2            
    265200   311.75636      0              2            
    265300   316.15867      0              2            
    265400   293.88275      0              2            
    265500   282.08844      0              2            
    265600   253.41976      0              2            
    265700   232.74021      0              2            
    265800   296.77348      0              2            
    265900   318.00424      0              2            
    266000   343.73911      0              2            
    266100   304.82724      0              2            
    266200   304.4848       0              2            
    266300   294.8723       0              2            
    266400   308.59709      0              2            
    266500   357.36519      0              2            
    266600   315.11849      0              2            
    266700   288.79152      0              2            
    266800   259.89929      0              2            
    266900   291.1723       0              2            
    267000   309.8866       0              2            
    267100   285.42285      0              2            
    267200   299.88018      0              2            
    267300   297.06916      0              2            
    267400   300.66095      0              2            
    267500   297.05251      0              2            
    267600   262.26282      0              2            
    267700   309.5321       0              2            
    267800   324.19606      0              2            
    267900   285.96342      0              2            
    268000   283.64759      0              2            
    268100   253.40337      0              2            
    268200   284.87784      0              2            
    268300   310.3877       0              2            
    268400   331.20254      0              2            
    268500   313.63292      0              2            
    268600   271.60073      0              2            
    268700   286.27016      0              2            
    268800   230.44382      0              2            
    268900   296.19788      0              2            
    269000   299.178        0              2            
    269100   335.50518      0              2            
    269200   300.99507      0              2            
    269300   280.78694      0              2            
    269400   299.88542      0              2            
    269500   259.72078      0              2            
    269600   299.25847      0              2            
    269700   297.67209      0              2            
    269800   326.51761      0              2            
    269900   282.53006      0              2            
    270000   270.47145      0              2            
    270100   292.10718      0              2            
    270200   272.02853      0              2            
    270300   283.99069      0              2            
    270400   283.96404      0              2            
    270500   347.69033      0              2            
    270600   311.75951      0              2            
    270700   283.0683       0              2            
    270800   307.37441      0              2            
    270900   276.77159      0              2            
    271000   299.84669      0              2            
    271100   310.8664       0              2            
    271200   317.40842      0              2            
    271300   298.10211      0              2            
    271400   279.07526      0              2            
    271500   283.14212      0              2            
    271600   333.6598       0              2            
    271700   295.05717      0              2            
    271800   312.31369      0              2            
    271900   276.22177      0              2            
    272000   293.01183      0              2            
    272100   286.41413      0              2            
    272200   288.49112      0              2            
    272300   279.40577      0              2            
    272400   334.08824      0              2            
    272500   291.58901      0              2            
    272600   290.80731      0              2            
    272700   294.11167      0              2            
    272800   316.62658      0              2            
    272900   323.40203      0              2            
    273000   325.79087      0              2            
    273100   324.32667      0              2            
    273200   331.14873      0              2            
    273300   329.82875      0              2            
    273400   271.23167      0              2            
    273500   310.87188      0              2            
    273600   318.90868      0              2            
    273700   330.63471      0              2            
    273800   340.52629      0              2            
    273900   364.79181      0              2            
    274000   337.60512      0              2            
    274100   341.25811      0              2            
    274200   286.80601      0              2            
    274300   271.6078       0              2            
    274400   311.13171      0              2            
    274500   329.10345      0              2            
    274600   304.97573      0              2            
    274700   302.50309      0              2            
    274800   263.21991      0              2            
    274900   271.14098      0              2            
    275000   298.33271      0              2            
    275100   262.14211      0              2            
    275200   325.79665      0              2            
    275300   300.24517      0              2            
    275400   285.05765      0              2            
    275500   257.78908      0              2            
    275600   314.1835       0              2            
    275700   315.47698      0              2            
    275800   307.80845      0              2            
    275900   320.27563      0              2            
    276000   309.87646      0              2            
    276100   250.53616      0              2            
    276200   278.10203      0              2            
    276300   323.8787       0              2            
    276400   370.38445      0              2            
    276500   314.75672      0              2            
    276600   292.56292      0              2            
    276700   276.92925      0              2            
    276800   265.87561      0              2            
    276900   260.3459       0              2            
    277000   360.05661      0              2            
    277100   314.16882      0              2            
    277200   299.49881      0              2            
    277300   260.66519      0              2            
    277400   267.34234      0              2            
    277500   339.7133       0              2            
    277600   310.79433      0              2            
    277700   307.11935      0              2            
    277800   293.41036      0              2            
    277900   303.13407      0              2            
    278000   273.88421      0              2            
    278100   287.03085      0              2            
    278200   276.5883       0              2            
    278300   334.87483      0              2            
    278400   310.72204      0              2            
    278500   317.96822      0              2            
    278600   301.93439      0              2            
    278700   280.36846      0              2            
    278800   253.65073      0              2            
    278900   283.40174      0              2            
    279000   295.9749       0              2            
    279100   304.93846      0              2            
    279200   273.39344      0              2            
    279300   311.67701      0              2            
    279400   319.59686      0              2            
    279500   273.7046       0              2            
    279600   351.55163      0              2            
    279700   295.33117      0              2            
    279800   327.89667      0              2            
    279900   279.92314      0              2            
    280000   247.80535      0              2            
    280100   297.66329      0              2            
    280200   295.86685      0              2            
    280300   308.29076      0              2            
    280400   308.26353      0              2            
    280500   309.83488      0              2            
    280600   290.60197      0              2            
    280700   291.62663      0              2            
    280800   323.58999      0              2            
    280900   290.47724      0              2            
    281000   294.41074      0              2            
    281100   303.14712      0              2            
    281200   265.08507      0              2            
    281300   252.72495      0              2            
    281400   296.37525      0              2            
    281500   314.88818      0              2            
    281600   304.42013      0              2            
    281700   258.22178      0              2            
    281800   247.16918      0              2            
    281900   282.73801      0              2            
    282000   288.40966      0              2            
    282100   321.13517      0              2            
    282200   319.65384      0              2            
    282300   293.65757      0              2            
    282400   317.426        0              2            
    282500   321.44143      0              2            
    282600   303.19613      0              2            
    282700   282.98149      0              2            
    282800   307.66133      0              2            
    282900   311.94738      0              2            
    283000   367.54892      0              2            
    283100   307.02389      0              2            
    283200   272.99976      0              2            
    283300   290.79579      0              2            
    283400   307.25145      0              2            
    283500   330.3991       0              2            
    283600   345.79685      0              2            
    283700   268.65668      0              2            
    283800   292.14247      0              2            
    283900   256.0163       0              2            
    284000   267.80399      0              2            
    284100   292.89378      0              2            
    284200   339.20738      0              2            
    284300   334.9247       0              2            
    284400   268.25379      0              2            
    284500   294.58535      0              2            
    284600   287.73207      0              2            
    284700   319.74521      0              2            
    284800   288.11697      0              2            
    284900   307.35114      0              2            
    285000   300.73732      0              2            
    285100   328.82965      0              2            
    285200   320.18956      0              2            
    285300   290.76675      0              2            
    285400   273.40155      0              2            
    285500   280.01578      0              2            
    285600   321.73498      0              2            
    285700   342.82677      0              2            
    285800   310.69271      0              2            
    285900   308.62929      0              2            
    286000   297.94298      0              2            
    286100   263.74446      0              2            
    286200   320.51978      0              2            
    286300   296.25477      0              2            
    286400   322.72224      0              2            
    286500   284.90623      0              2            
    286600   279.78346      0              2            
    286700   297.23784      0              2            
    286800   319.65975      0              2            
    286900   326.63532      0              2            
    287000   280.29882      0              2            
    287100   287.17725      0              2            
    287200   265.68217      0              2            
    287300   253.65596      0              2            
    287400   294.70882      0              2            
    287500   330.32074      0              2            
    287600   304.85066      0              2            
    287700   284.0622       0              2            
    287800   261.56159      0              2            
    287900   287.59187      0              2            
    288000   335.31427      0              2            
    288100   289.32546      0              2            
    288200   280.43952      0              2            
    288300   289.5006       0              2            
    288400   316.13806      0              2            
    288500   354.76062      0              2            
    288600   343.34323      0              2            
    288700   278.46075      0              2            
    288800   281.95493      0              2            
    288900   302.04451      0              2            
    289000   306.28314      0              2            
    289100   305.73771      0              2            
    289200   318.33477      0              2            
    289300   310.91196      0              2            
    289400   297.2499       0              2            
    289500   302.51477      0              2            
    289600   299.15412      0              2            
    289700   320.92726      0              2            
    289800   302.69589      0              2            
    289900   288.52851      0              2            
    290000   265.68549      0              2            
    290100   314.53823      0              2            
    290200   292.79135      0              2            
    290300   308.57954      0              2            
    290400   258.56147      0              2            
    290500   278.9454       0              2            
    290600   269.62635      0              2            
    290700   328.56041      0              2            
    290800   334.99627      0              2            
    290900   277.04872      0              2            
    291000   285.34705      0              2            
    291100   335.88331      0              2            
    291200   360.2294       0              2            
    291300   310.91998      0              2            
    291400   298.27586      0              2            
    291500   270.48477      0              2            
    291600   319.34027      0              2            
    291700   292.71855      0              2            
    291800   316.65018      0              2            
    291900   257.52197      0              2            
    292000   279.57825      0              2            
    292100   278.13595      0              2            
    292200   341.16031      0              2            
    292300   314.12852      0              2            
    292400   274.52059      0              2            
    292500   290.70494      0              2            
    292600   282.74267      0              2            
    292700   315.78256      0              2            
    292800   284.9939       0              2            
    292900   304.03717      0              2            
    293000   304.9314       0              2            
    293100   304.64521      0              2            
    293200   268.87759      0              2            
    293300   309.60102      0              2            
    293400   295.52667      0              2            
    293500   311.4676       0              2            
    293600   290.38105      0              2            
    293700   271.72185      0              2            
    293800   283.15057      0              2            
    293900   349.20246      0              2            
    294000   299.846        0              2            
    294100   312.86197      0              2            
    294200   298.86856      0              2            
    294300   251.99425      0              2            
    294400   286.91604      0              2            
    294500   268.13784      0              2            
    294600   276.71758      0              2            
    294700   325.81868      0              2            
    294800   271.19305      0              2            
    294900   274.51248      0              2            
    295000   304.5978       0              2            
    295100   308.94872      0              2            
    295200   310.34942      0              2            
    295300   337.40591      0              2            
    295400   320.47401      0              2            
    295500   311.61372      0              2            
    295600   298.98785      0              2            
    295700   278.94904      0              2            
    295800   284.25119      0              2            
    295900   303.81104      0              2            
    296000   322.91593      0              2            
    296100   279.25289      0              2            
    296200   279.76687      0              2            
    296300   280.06565      0              2            
    296400   311.93823      0              2            
    296500   291.29952      0              2            
    296600   333.66079      0              2            
    296700   312.50027      0              2            
    296800   269.21115      0              2            
    296900   270.81694      0              2            
    297000   292.27528      0              2            
    297100   325.94672      0              2            
    297200   307.84146      0              2            
    297300   294.09179      0              2            
    297400   283.3187       0              2            
    297500   268.37139      0              2            
    297600   276.85727      0              2            
    297700   333.06476      0              2            
    297800   315.32219      0              2            
    297900   300.89365      0              2            
    298000   282.52977      0              2            
    298100   286.35127      0              2            
    298200   289.67837      0              2            
    298300   303.01837      0              2            
    298400   335.60882      0              2            
    298500   272.89919      0              2            
    298600   323.7685       0              2            
    298700   316.64751      0              2            
    298800   299.22048      0              2            
    298900   265.57054      0              2            
    299000   258.22201      0              2            
    299100   278.41702      0              2            
    299200   293.32887      0              2            
    299300   313.60662      0              2            
    299400   277.4858       0              2            
    299500   256.5453       0              2            
    299600   266.11334      0              2            
    299700   319.24427      0              2            
    299800   313.5469       0              2            
    299900   278.39248      0              2            
    300000   284.9644       0              2            
    300100   240.02257      0              2            
    300200   294.06876      0              2            
    300300   273.47923      0              2            
    300400   285.13606      0              2            
    300500   295.73661      0              2            
    300600   322.85369      0              2            
    300700   268.27923      0              2            
    300800   278.12086      0              2            
    300900   276.62927      0              2            
    301000   289.28119      0              2            
    301100   280.40329      0              2            
    301200   309.56994      0              2            
    301300   275.50589      0              2            
    301400   297.18327      0              2            
    301500   306.59754      0              2            
    301600   294.30803      0              2            
    301700   278.23598      0              2            
    301800   310.64287      0              2            
    301900   290.4667       0              2            
    302000   309.58119      0              2            
    302100   291.59463      0              2            
    302200   278.47214      0              2            
    302300   308.19871      0              2            
    302400   299.36539      0              2            
    302500   302.65639      0              2            
    302600   316.40727      0              2            
    302700   267.56168      0              2            
    302800   262.93711      0              2            
    302900   276.76253      0              2            
    303000   278.0251       0              2            
    303100   330.60372      0              2            
    303200   300.59948      0              2            
    303300   262.53194      0              2            
    303400   247.78975      0              2            
    303500   270.50303      0              2            
    303600   315.79155      0              2            
    303700   342.25444      0              2            
    303800   300.47764      0              2            
    303900   260.24334      0              2            
    304000   291.72446      0              2            
    304100   336.37063      0              2            
    304200   323.37753      0              2            
    304300   278.11811      0              2            
    304400   253.84587      0              2            
    304500   314.51533      0              2            
    304600   333.40931      0              2            
    304700   300.82282      0              2            
    304800   375.25265      0              2            
    304900   343.23216      0              2            
    305000   292.42084      0              2            
    305100   287.91085      0              2            
    305200   300.69698      0              2            
    305300   286.47796      0              2            
    305400   280.70514      0              2            
    305500   313.33494      0              2            
    305600   276.35155      0              2            
    305700   287.97557      0              2            
    305800   248.52983      0              2            
    305900   288.15733      0              2            
    306000   317.24402      0              2            
    306100   308.91102      0              2            
    306200   289.99857      0              2            
    306300   281.73531      0              2            
    306400   319.75261      0              2            
    306500   281.79943      0              2            
    306600   282.15649      0              2            
    306700   300.04123      0              2            
    306800   318.17455      0              2            
    306900   321.93182      0              2            
    307000   276.19375      0              2            
    307100   271.32683      0              2            
    307200   305.42749      0              2            
    307300   354.63528      0              2            
    307400   298.56391      0              2            
    307500   297.98276      0              2            
    307600   294.16357      0              2            
    307700   272.99218      0              2            
    307800   315.78902      0              2            
    307900   287.75783      0              2            
    308000   335.43478      0              2            
    308100   313.62258      0              2            
    308200   272.5627       0              2            
    308300   310.5945       0              2            
    308400   330.9917       0              2            
    308500   323.27413      0              2            
    308600   325.51654      0              2            
    308700   297.28283      0              2            
    308800   330.57937      0              2            
    308900   299.14661      0              2            
    309000   294.62121      0              2            
    309100   290.75847      0              2            
    309200   312.18147      0              2            
    309300   317.83856      0              2            
    309400   320.99997      0              2            
    309500   303.2141       0              2            
    309600   293.28979      0              2            
    309700   264.53765      0              2            
    309800   262.00249      0              2            
    309900   284.62758      0              2            
    310000   332.10058      0              2            
    310100   335.63553      0              2            
    310200   356.43483      0              2            
    310300   304.62379      0              2            
    310400   301.16876      0              2            
    310500   303.96409      0              2            
    310600   326.95285      0              2            
    310700   303.18183      0              2            
    310800   272.67275      0              2            
    310900   303.48605      0              2            
    311000   326.01953      0              2            
    311100   324.19444      0              2            
    311200   298.99113      0              2            
    311300   253.01336      0              2            
    311400   268.29235      0              2            
    311500   321.526        0              2            
    311600   307.51113      0              2            
    311700   306.97721      0              2            
    311800   263.63871      0              2            
    311900   239.60869      0              2            
    312000   248.76995      0              2            
    312100   277.61747      0              2            
    312200   252.94309      0              2            
    312300   300.95824      0              2            
    312400   328.58262      0              2            
    312500   268.37644      0              2            
    312600   276.92299      0              2            
    312700   303.67517      0              2            
    312800   294.357        0              2            
    312900   301.44142      0              2            
    313000   306.60981      0              2            
    313100   278.31084      0              2            
    313200   231.06356      0              2            
    313300   299.11552      0              2            
    313400   325.18529      0              2            
    313500   299.61429      0              2            
    313600   302.51678      0              2            
    313700   295.58274      0              2            
    313800   285.66835      0              2            
    313900   266.11776      0              2            
    314000   305.16642      0              2            
    314100   327.9434       0              2            
    314200   303.06735      0              2            
    314300   293.70402      0              2            
    314400   281.7505       0              2            
    314500   346.12567      0              2            
    314600   324.1877       0              2            
    314700   294.39717      0              2            
    314800   304.24005      0              2            
    314900   263.82873      0              2            
    315000   283.75294      0              2            
    315100   323.11756      0              2            
    315200   323.76808      0              2            
    315300   283.60369      0              2            
    315400   248.86063      0              2            
    315500   300.85954      0              2            
    315600   283.8293       0              2            
    315700   262.1109       0              2            
    315800   297.56366      0              2            
    315900   320.98776      0              2            
    316000   293.97435      0              2            
    316100   295.86487      0              2            
    316200   292.5056       0              2            
    316300   289.71904      0              2            
    316400   318.84046      0              2            
    316500   297.90428      0              2            
    316600   309.78421      0              2            
    316700   272.71085      0              2            
    316800   287.74689      0              2            
    316900   251.37634      0              2            
    317000   247.66407      0              2            
    317100   274.34946      0              2            
    317200   303.94523      0              2            
    317300   314.18396      0              2            
    317400   347.74017      0              2            
    317500   275.68439      0              2            
    317600   287.92109      0              2            
    317700   265.01124      0              2            
    317800   302.47977      0              2            
    317900   274.85812      0              2            
    318000   301.67292      0              2            
    318100   282.93172      0              2            
    318200   277.21114      0              2            
    318300   274.42236      0              2            
    318400   265.9689       0              2            
    318500   291.71664      0              2            
    318600   328.23514      0              2            
    318700   309.27722      0              2            
    318800   321.55468      0              2            
    318900   255.26084      0              2            
    319000   280.69286      0              2            
    319100   268.49906      0              2            
    319200   279.56266      0              2            
    319300   324.52679      0              2            
    319400   299.96238      0              2            
    319500   297.89706      0              2            
    319600   261.6836       0              2            
    319700   269.8124       0              2            
    319800   259.2626       0              2            
    319900   305.3546       0              2            
    320000   334.32744      0              2            
    320100   321.6195       0              2            
    320200   287.42062      0              2            
    320300   270.67894      0              2            
    320400   295.29935      0              2            
    320500   297.3124       0              2            
    320600   303.71458      0              2            
    320700   295.73314      0              2            
    320800   286.12574      0              2            
    320900   265.71188      0              2            
    321000   234.92004      0              2            
    321100   310.32865      0              2            
    321200   334.17602      0              2            
    321300   291.70029      0              2            
    321400   267.78811      0              2            
    321500   253.5898       0              2            
    321600   264.5821       0              2            
    321700   285.12746      0              2            
    321800   311.25882      0              2            
    321900   301.63022      0              2            
    322000   289.94259      0              2            
    322100   276.93552      0              2            
    322200   302.46914      0              2            
    322300   311.25214      0              2            
    322400   313.35128      0              2            
    322500   305.98632      0              2            
    322600   291.45433      0              2            
    322700   276.79525      0              2            
    322800   300.84602      0              2            
    322900   271.03415      0              2            
    323000   292.53778      0              2            
    323100   303.72983      0              2            
    323200   293.63325      0              2            
    323300   290.93812      0              2            
    323400   273.74124      0              2            
    323500   303.16243      0              2            
    323600   282.78202      0              2            
    323700   318.4068       0              2            
    323800   257.254        0              2            
    323900   291.58592      0              2            
    324000   333.35255      0              2            
    324100   352.00763      0              2            
    324200   268.0967       0              2            
    324300   281.49544      0              2            
    324400   313.18386      0              2            
    324500   342.05883      0              2            
    324600   303.76796      0              2            
    324700   302.37527      0              2            
    324800   268.47603      0              2            
    324900   286.52054      0              2            
    325000   293.42         0              2            
    325100   310.23987      0              2            
    325200   330.15497      0              2            
    325300   290.315        0              2            
    325400   270.45614      0              2            
    325500   303.16122      0              2            
    325600   292.34178      0              2            
    325700   320.86284      0              2            
    325800   307.46158      0              2            
    325900   286.54652      0              2            
    326000   242.18391      0              2            
    326100   307.14286      0              2            
    326200   338.17464      0              2            
    326300   313.55094      0              2            
    326400   319.72788      0              2            
    326500   328.95263      0              2            
    326600   284.12677      0              2            
    326700   294.86651      0              2            
    326800   345.50529      0              2            
    326900   345.41778      0              2            
    327000   307.72392      0              2            
    327100   296.31228      0              2            
    327200   301.95316      0              2            
    327300   276.02911      0              2            
    327400   259.30298      0              2            
    327500   336.91873      0              2            
    327600   307.17755      0              2            
    327700   264.42846      0              2            
    327800   294.44968      0              2            
    327900   343.47674      0              2            
    328000   330.46149      0              2            
    328100   316.67855      0              2            
    328200   256.64393      0              2            
    328300   301.16783      0              2            
    328400   302.41633      0              2            
    328500   296.42415      0              2            
    328600   266.87568      0              2            
    328700   268.00294      0              2            
    328800   277.47753      0              2            
    328900   319.08114      0              2            
    329000   301.09482      0              2            
    329100   301.86364      0              2            
    329200   283.71324      0              2            
    329300   274.90172      0              2            
    329400   302.4072       0              2            
    329500   298.20718      0              2            
    329600   305.90499      0              2            
    329700   304.1543       0              2            
    329800   258.96111      0              2            
    329900   282.56243      0              2            
    330000   323.79806      0              2            
    330100   311.32875      0              2            
    330200   313.06165      0              2            
    330300   315.63043      0              2            
    330400   328.92565      0              2            
    330500   298.46673      0              2            
    330600   315.83677      0              2            
    330700   310.66473      0              2            
    330800   270.3831       0              2            
    330900   275.78947      0              2            
    331000   325.99177      0              2            
    331100   331.6017       0              2            
    331200   283.24509      0              2            
    331300   260.01157      0              2            
    331400   289.82221      0              2            
    331500   311.32805      0              2            
    331600   319.29739      0              2            
    331700   311.38614      0              2            
    331800   319.03954      0              2            
    331900   294.1165       0              2            
    332000   285.03871      0              2            
    332100   297.3935       0              2            
    332200   294.30402      0              2            
    332300   303.3391       0              2            
    332400   286.11743      0              2            
    332500   280.82593      0              2            
    332600   260.67694      0              2            
    332700   300.31021      0              2            
    332800   315.06919      0              2            
    332900   292.54904      0              2            
    333000   304.73069      0              2            
    333100   299.85132      0              2            
    333200   267.64071      0              2            
    333300   286.51987      0              2            
    333400   268.83874      0              2            
    333500   286.2437       0              2            
    333600   343.607        0              2            
    333700   289.17557      0              2            
    333800   277.90638      0              2            
    333900   280.42532      0              2            
    334000   310.41906      0              2            
    334100   303.9082       0              2            
    334200   274.386        0              2            
    334300   267.67426      0              2            
    334400   279.79518      0              2            
    334500   284.3615       0              2            
    334600   310.451        0              2            
    334700   311.86664      0              2            
    334800   318.59177      0              2            
    334900   333.43386      0              2            
    335000   300.61077      0              2            
    335100   263.74584      0              2            
    335200   262.67541      0              2            
    335300   307.20255      0              2            
    335400   350.34872      0              2            
    335500   319.52407      0              2            
    335600   260.82387      0              2            
    335700   298.13494      0              2            
    335800   268.9111       0              2            
    335900   307.62163      0              2            
    336000   301.67751      0              2            
    336100   341.73202      0              2            
    336200   324.16848      0              2            
    336300   271.71255      0              2            
    336400   319.62367      0              2            
    336500   311.0234       0              2            
    336600   345.69065      0              2            
    336700   346.36327      0              2            
    336800   332.707        0              2            
    336900   320.95528      0              2            
    337000   307.5639       0              2            
    337100   305.50624      0              2            
    337200   263.55046      0              2            
    337300   279.17398      0              2            
    337400   297.95853      0              2            
    337500   290.99912      0              2            
    337600   316.47312      0              2            
    337700   269.27116      0              2            
    337800   274.4097       0              2            
    337900   301.10109      0              2            
    338000   322.42438      0              2            
    338100   286.27445      0              2            
    338200   283.51509      0              2            
    338300   254.10184      0              2            
    338400   282.27771      0              2            
    338500   348.86569      0              2            
    338600   321.53919      0              2            
    338700   275.72116      0              2            
    338800   307.47331      0              2            
    338900   337.67121      0              2            
    339000   300.76038      0              2            
    339100   298.59297      0              2            
    339200   278.25457      0              2            
    339300   274.1482       0              2            
    339400   271.44252      0              2            
    339500   343.98756      0              2            
    339600   294.72487      0              2            
    339700   278.52394      0              2            
    339800   266.53282      0              2            
    339900   271.16844      0              2            
    340000   324.45519      0              2            
    340100   316.55749      0              2            
    340200   290.61407      0              2            
    340300   275.96994      0              2            
    340400   305.93982      0              2            
    340500   337.43839      0              2            
    340600   305.1477       0              2            
    340700   309.30137      0              2            
    340800   292.9786       0              2            
    340900   332.3181       0              2            
    341000   295.64563      0              2            
    341100   297.69682      0              2            
    341200   293.94033      0              2            
    341300   299.1865       0              2            
    341400   263.71157      0              2            
    341500   272.93483      0              2            
    341600   313.8931       0              2            
    341700   313.36609      0              2            
    341800   318.3577       0              2            
    341900   287.79451      0              2            
    342000   264.98244      0              2            
    342100   256.33         0              2            
    342200   303.52716      0              2            
    342300   296.35339      0              2            
    342400   354.14056      0              2            
    342500   305.78582      0              2            
    342600   279.56728      0              2            
    342700   286.57902      0              2            
    342800   317.60556      0              2            
    342900   304.48802      0              2            
    343000   332.08932      0              2            
    343100   284.83892      0              2            
    343200   283.62176      0              2            
    343300   247.4645       0              2            
    343400   321.37216      0              2            
    343500   329.49268      0              2            
    343600   304.23783      0              2            
    343700   296.91712      0              2            
    343800   303.37892      0              2            
    343900   311.31493      0              2            
    344000   275.56212      0              2            
    344100   265.26127      0              2            
    344200   274.63357      0              2            
    344300   295.20129      0              2            
    344400   329.27047      0              2            
    344500   274.76426      0              2            
    344600   276.87099      0              2            
    344700   258.86748      0              2            
    344800   265.86696      0              2            
    344900   277.48295      0              2            
    345000   332.12542      0              2            
    345100   297.52864      0              2            
    345200   290.4107       0              2            
    345300   286.98368      0              2            
    345400   274.90315      0              2            
    345500   294.38158      0              2            
    345600   284.35756      0              2            
    345700   313.39424      0              2            
    345800   305.32856      0              2            
    345900   300.93219      0              2            
    346000   280.3114       0              2            
    346100   270.36082      0              2            
    346200   299.91637      0              2            
    346300   344.17659      0              2            
    346400   309.73898      0              2            
    346500   318.00422      0              2            
    346600   278.29473      0              2            
    346700   263.74324      0              2            
    346800   283.15201      0              2            
    346900   310.88694      0              2            
    347000   267.0969       0              2            
    347100   316.35986      0              2            
    347200   349.95945      0              2            
    347300   294.70107      0              2            
    347400   267.48013      0              2            
    347500   309.24405      0              2            
    347600   293.09234      0              2            
    347700   344.64251      0              2            
    347800   342.40265      0              2            
    347900   280.70694      0              2            
    348000   265.19206      0              2            
    348100   312.77464      0              2            
    348200   318.834        0              2            
    348300   330.78663      0              2            
    348400   274.82022      0              2            
    348500   263.35715      0              2            
    348600   279.34512      0              2            
    348700   312.08699      0              2            
    348800   317.54591      0              2            
    348900   361.83289      0              2            
    349000   318.01021      0              2            
    349100   299.61895      0              2            
    349200   242.51494      0              2            
    349300   299.75957      0              2            
    349400   292.00688      0              2            
    349500   302.7929       0              2            
    349600   266.18073      0              2            
    349700   338.16747      0              2            
    349800   330.75781      0              2            
    349900   284.46213      0              2            
    350000   282.49422      0              2            
    350100   293.85763      0              2            
    350200   276.11316      0              2            
    350300   351.71779      0              2            
    350400   354.86041      0              2            
    350500   314.73702      0              2            
    350600   293.67715      0              2            
    350700   333.14406      0              2            
    350800   264.71412      0              2            
    350900   270.2881       0              2            
    351000   318.39744      0              2            
    351100   338.88623      0              2            
    351200   315.78515      0              2            
    351300   278.11466      0              2            
    351400   292.84286      0              2            
    351500   290.13673      0              2            
    351600   309.07669      0              2            
    351700   355.69344      0              2            
    351800   315.0272       0              2            
    351900   311.01923      0              2            
    352000   280.87049      0              2            
    352100   247.65598      0              2            
    352200   286.73774      0              2            
    352300   307.14956      0              2            
    352400   293.86368      0              2            
    352500   255.03139      0              2            
    352600   274.18626      0              2            
    352700   319.70649      0              2            
    352800   296.08718      0              2            
    352900   298.51106      0              2            
    353000   266.40574      0              2            
    353100   296.65903      0              2            
    353200   274.99155      0              2            
    353300   299.34939      0              2            
    353400   327.21878      0              2            
    353500   300.07739      0              2            
    353600   276.72329      0              2            
    353700   282.38194      0              2            
    353800   283.93847      0              2            
    353900   305.59682      0              2            
    354000   313.95236      0              2            
    354100   305.18846      0              2            
    354200   272.2632       0              2            
    354300   265.07047      0              2            
    354400   307.11285      0              2            
    354500   297.05385      0              2            
    354600   299.93386      0              2            
    354700   282.26633      0              2            
    354800   291.61257      0              2            
    354900   353.62172      0              2            
    355000   335.08846      0              2            
    355100   295.64609      0              2            
    355200   313.23529      0              2            
    355300   275.12642      0              2            
    355400   278.74636      0              2            
    355500   292.13273      0              2            
    355600   306.34323      0              2            
    355700   315.6956       0              2            
    355800   284.03667      0              2            
    355900   264.73864      0              2            
    356000   296.59174      0              2            
    356100   292.60895      0              2            
    356200   283.55742      0              2            
    356300   294.95236      0              2            
    356400   340.84227      0              2            
    356500   307.013        0              2            
    356600   325.40119      0              2            
    356700   325.419        0              2            
    356800   280.22583      0              2            
    356900   280.27433      0              2            
    357000   329.51565      0              2            
    357100   323.05134      0              2            
    357200   273.8505       0              2            
    357300   278.95057      0              2            
    357400   306.22974      0              2            
    357500   349.30481      0              2            
    357600   343.90429      0              2            
    357700   290.25428      0              2            
    357800   265.76207      0              2            
    357900   275.29296      0              2            
    358000   288.65647      0              2            
    358100   284.20938      0              2            
    358200   362.23497      0              2            
    358300   384.25631      0              2            
    358400   294.42888      0              2            
    358500   269.32329      0              2            
    358600   272.19077      0              2            
    358700   291.58661      0              2            
    358800   319.2702       0              2            
    358900   319.61546      0              2            
    359000   283.44185      0              2            
    359100   294.02784      0              2            
    359200   304.25704      0              2            
    359300   316.69637      0              2            
    359400   290.68302      0              2            
    359500   326.7242       0              2            
    359600   251.16279      0              2            
    359700   274.85321      0              2            
    359800   317.9551       0              2            
    359900   312.83554      0              2            
    360000   345.21761      0              2            
    360100   287.32992      0              2            
    360200   281.99879      0              2            
    360300   304.13427      0              2            
    360400   299.6006       0              2            
    360500   297.22182      0              2            
    360600   293.54363      0              2            
    360700   282.29999      0              2            
    360800   283.55658      0              2            
    360900   336.86688      0              2            
    361000   298.44444      0              2            
    361100   275.8067       0              2            
    361200   275.70982      0              2            
    361300   273.85991      0              2            
    361400   339.97915      0              2            
    361500   350.44934      0              2            
    361600   315.64085      0              2            
    361700   303.75037      0              2            
    361800   315.36162      0              2            
    361900   305.11103      0              2            
    362000   307.16977      0              2            
    362100   319.77141      0              2            
    362200   339.75319      0              2            
    362300   358.52326      0              2            
    362400   320.11061      0              2            
    362500   301.33766      0              2            
    362600   277.96407      0              2            
    362700   276.9456       0              2            
    362800   238.81285      0              2            
    362900   292.16712      0              2            
    363000   280.32684      0              2            
    363100   311.78827      0              2            
    363200   304.76062      0              2            
    363300   287.18082      0              2            
    363400   294.91794      0              2            
    363500   317.9557       0              2            
    363600   341.55698      0              2            
    363700   298.40106      0              2            
    363800   263.1866       0              2            
    363900   277.15188      0              2            
    364000   273.83952      0              2            
    364100   314.17594      0              2            
    364200   289.77757      0              2            
    364300   290.11305      0              2            
    364400   359.80738      0              2            
    364500   326.24099      0              2            
    364600   318.77901      0              2            
    364700   302.10035      0              2            
    364800   270.295        0              2            
    364900   297.2541       0              2            
    365000   301.00841      0              2            
    365100   315.6333       0              2            
    365200   328.38705      0              2            
    365300   316.51434      0              2            
    365400   256.67571      0              2            
    365500   320.26356      0              2            
    365600   279.77577      0              2            
    365700   351.22426      0              2            
    365800   357.70686      0              2            
    365900   285.9553       0              2            
    366000   288.69237      0              2            
    366100   285.76162      0              2            
    366200   280.63639      0              2            
    366300   300.14776      0              2            
    366400   325.24995      0              2            
    366500   324.65401      0              2            
    366600   329.91786      0              2            
    366700   298.25276      0              2            
    366800   271.57369      0              2            
    366900   291.37643      0              2            
    367000   328.61074      0              2            
    367100   326.21454      0              2            
    367200   306.92906      0              2            
    367300   301.14656      0              2            
    367400   298.41158      0              2            
    367500   282.28037      0              2            
    367600   270.73902      0              2            
    367700   307.99767      0              2            
    367800   314.53689      0              2            
    367900   324.3543       0              2            
    368000   323.5437       0              2            
    368100   264.73097      0              2            
    368200   284.38297      0              2            
    368300   325.70268      0              2            
    368400   297.15877      0              2            
    368500   279.38982      0              2            
    368600   252.76265      0              2            
    368700   254.71428      0              2            
    368800   315.77349      0              2            
    368900   292.56095      0              2            
    369000   322.07224      0              2            
    369100   258.53366      0              2            
    369200   282.84087      0              2            
    369300   338.32471      0              2            
    369400   287.56052      0              2            
    369500   329.13677      0              2            
    369600   367.85984      0              2            
    369700   337.68189      0              2            
    369800   294.49903      0              2            
    369900   234.16992      0              2            
    370000   278.52086      0              2            
    370100   302.65413      0              2            
    370200   284.22654      0              2            
    370300   268.11781      0              2            
    370400   272.09233      0              2            
    370500   291.41487      0              2            
    370600   287.21962      0              2            
    370700   277.77869      0              2            
    370800   287.15986      0              2            
    370900   284.57645      0              2            
    371000   284.50998      0              2            
    371100   279.31193      0              2            
    371200   325.02019      0              2            
    371300   322.20873      0              2            
    371400   279.95521      0              2            
    371500   292.20122      0              2            
    371600   294.42358      0              2            
    371700   337.92553      0              2            
    371800   302.11171      0              2            
    371900   299.64899      0              2            
    372000   275.80793      0              2            
    372100   297.74017      0              2            
    372200   287.60415      0              2            
    372300   317.21212      0              2            
    372400   317.6102       0              2            
    372500   277.75236      0              2            
    372600   281.21804      0              2            
    372700   306.7037       0              2            
    372800   316.27171      0              2            
    372900   330.22318      0              2            
    373000   316.60465      0              2            
    373100   321.3228       0              2            
    373200   294.40981      0              2            
    373300   303.20122      0              2            
    373400   308.61405      0              2            
    373500   301.42995      0              2            
    373600   317.75185      0              2            
    373700   261.8395       0              2            
    373800   303.91262      0              2            
    373900   315.55901      0              2            
    374000   312.76356      0              2            
    374100   335.17328      0              2            
    374200   296.14837      0              2            
    374300   308.43796      0              2            
    374400   286.29577      0              2            
    374500   298.01072      0              2            
    374600   334.85006      0              2            
    374700   363.5384       0              2            
    374800   314.5791       0              2            
    374900   293.27629      0              2            
    375000   283.35372      0              2            
    375100   277.28953      0              2            
    375200   348.70821      0              2            
    375300   359.10281      0              2            
    375400   287.94286      0              2            
    375500   282.0009       0              2            
    375600   314.27843      0              2            
    375700   298.73947      0              2            
    375800   319.15131      0              2            
    375900   313.13161      0              2            
    376000   295.82904      0              2            
    376100   290.83912      0              2            
    376200   284.23845      0              2            
    376300   264.80166      0              2            
    376400   310.63121      0              2            
    376500   301.83775      0              2            
    376600   287.18781      0              2            
    376700   281.83959      0              2            
    376800   328.236        0              2            
    376900   318.90193      0              2            
    377000   335.38291      0              2            
    377100   305.93549      0              2            
    377200   272.20816      0              2            
    377300   321.69167      0              2            
    377400   338.42669      0              2            
    377500   338.85631      0              2            
    377600   305.29626      0              2            
    377700   306.02201      0              2            
    377800   305.84423      0              2            
    377900   253.73799      0              2            
    378000   304.36344      0              2            
    378100   338.6113       0              2            
    378200   304.35524      0              2            
    378300   278.76557      0              2            
    378400   339.98167      0              2            
    378500   333.72864      0              2            
    378600   325.51459      0              2            
    378700   335.1168       0              2            
    378800   295.10721      0              2            
    378900   296.82911      0              2            
    379000   282.70654      0              2            
    379100   299.93123      0              2            
    379200   332.03635      0              2            
    379300   319.70918      0              2            
    379400   285.90945      0              2            
    379500   266.13512      0              2            
    379600   250.02465      0              2            
    379700   325.11329      0              2            
    379800   303.46179      0              2            
    379900   316.01109      0              2            
    380000   300.58554      0              2            
    380100   274.81933      0              2            
    380200   282.12942      0              2            
    380300   250.15109      0              2            
    380400   300.17748      0              2            
    380500   300.75253      0              2            
    380600   308.39712      0              2            
    380700   346.23501      0              2            
    380800   335.56209      0              2            
    380900   328.32311      0              2            
    381000   288.18279      0              2            
    381100   291.1971       0              2            
    381200   304.53088      0              2            
    381300   338.41858      0              2            
    381400   327.36565      0              2            
    381500   316.47581      0              2            
    381600   314.55531      0              2            
    381700   323.06303      0              2            
    381800   297.78261      0              2            
    381900   285.75178      0              2            
    382000   279.6109       0              2            
    382100   271.40126      0              2            
    382200   318.31196      0              2            
    382300   311.48454      0              2            
    382400   294.59087      0              2            
    382500   265.20204      0              2            
    382600   246.38611      0              2            
    382700   314.35019      0              2            
    382800   288.51869      0              2            
    382900   335.10867      0              2            
    383000   290.70401      0              2            
    383100   286.90672      0              2            
    383200   313.64142      0              2            
    383300   295.67374      0              2            
    383400   306.11404      0              2            
    383500   276.8844       0              2            
    383600   328.58101      0              2            
    383700   360.6252       0              2            
    383800   313.6423       0              2            
    383900   296.58929      0              2            
    384000   287.8756       0              2            
    384100   274.53252      0              2            
    384200   247.10273      0              2            
    384300   294.69029      0              2            
    384400   316.5986       0              2            
    384500   298.83627      0              2            
    384600   301.56273      0              2            
    384700   294.18779      0              2            
    384800   257.83906      0              2            
    384900   259.82055      0              2            
    385000   299.51591      0              2            
    385100   315.39609      0              2            
    385200   316.86955      0              2            
    385300   287.60065      0              2            
    385400   262.41513      0              2            
    385500   289.23281      0              2            
    385600   273.68556      0              2            
    385700   278.87837      0              2            
    385800   293.52196      0              2            
    385900   317.64361      0              2            
    386000   301.23959      0              2            
    386100   260.967        0              2            
    386200   269.04724      0              2            
    386300   312.20974      0              2            
    386400   287.17251      0              2            
    386500   293.50904      0              2            
    386600   252.05491      0              2            
    386700   303.09279      0              2            
    386800   318.83688      0              2            
    386900   326.24105      0              2            
    387000   310.56141      0              2            
    387100   297.71206      0              2            
    387200   254.21856      0              2            
    387300   283.13958      0              2            
    387400   320.09841      0              2            
    387500   319.22245      0              2            
    387600   294.60201      0              2            
    387700   303.26755      0              2            
    387800   270.1025       0              2            
    387900   336.77091      0              2            
    388000   338.85627      0              2            
    388100   303.10329      0              2            
    388200   289.66917      0              2            
    388300   326.25321      0              2            
    388400   301.50848      0              2            
    388500   279.9604       0              2            
    388600   276.43283      0              2            
    388700   280.87693      0              2            
    388800   273.87322      0              2            
    388900   302.51987      0              2            
    389000   342.22897      0              2            
    389100   305.05917      0              2            
    389200   276.46068      0              2            
    389300   273.22992      0              2            
    389400   299.67492      0              2            
    389500   297.73455      0              2            
    389600   298.20529      0              2            
    389700   283.78401      0              2            
    389800   312.3648       0              2            
    389900   318.57593      0              2            
    390000   280.07568      0              2            
    390100   294.0097       0              2            
    390200   251.64682      0              2            
    390300   321.28407      0              2            
    390400   308.88293      0              2            
    390500   308.33794      0              2            
    390600   305.28103      0              2            
    390700   321.6452       0              2            
    390800   327.54453      0              2            
    390900   299.48674      0              2            
    391000   301.6813       0              2            
    391100   302.11198      0              2            
    391200   273.56118      0              2            
    391300   269.99445      0              2            
    391400   289.98238      0              2            
    391500   338.37549      0              2            
    391600   346.65144      0              2            
    391700   274.08814      0              2            
    391800   279.69981      0              2            
    391900   242.34099      0              2            
    392000   316.38433      0              2            
    392100   383.15902      0              2            
    392200   304.67311      0              2            
    392300   294.90428      0              2            
    392400   287.79351      0              2            
    392500   300.98792      0              2            
    392600   248.17963      0              2            
    392700   295.10848      0              2            
    392800   350.84681      0              2            
    392900   356.34075      0              2            
    393000   286.36259      0              2            
    393100   285.25652      0              2            
    393200   296.00682      0              2            
    393300   295.26469      0              2            
    393400   293.32109      0              2            
    393500   295.86526      0              2            
    393600   291.9835       0              2            
    393700   307.04197      0              2            
    393800   297.16033      0              2            
    393900   281.89827      0              2            
    394000   270.25632      0              2            
    394100   294.46174      0              2            
    394200   278.73609      0              2            
    394300   314.08444      0              2            
    394400   303.42771      0              2            
    394500   290.7685       0              2            
    394600   311.92669      0              2            
    394700   283.28865      0              2            
    394800   280.44103      0              2            
    394900   291.95118      0              2            
    395000   278.5842       0              2            
    395100   287.48666      0              2            
    395200   311.0331       0              2            
    395300   325.90747      0              2            
    395400   347.57571      0              2            
    395500   302.2404       0              2            
    395600   292.53776      0              2            
    395700   288.83021      0              2            
    395800   300.95887      0              2            
    395900   315.86643      0              2            
    396000   322.34787      0              2            
    396100   280.69298      0              2            
    396200   268.55276      0              2            
    396300   287.34415      0              2            
    396400   298.33625      0              2            
    396500   296.76057      0              2            
    396600   309.36226      0              2            
    396700   288.993        0              2            
    396800   274.94927      0              2            
    396900   274.34812      0              2            
    397000   266.52469      0              2            
    397100   324.7853       0              2            
    397200   333.62706      0              2            
    397300   317.38213      0              2            
    397400   287.05299      0              2            
    397500   284.62258      0              2            
    397600   297.89917      0              2            
    397700   315.33707      0              2            
    397800   297.41563      0              2            
    397900   328.64086      0              2            
    398000   337.48978      0              2            
    398100   308.35443      0              2            
    398200   278.89475      0              2            
    398300   287.80116      0              2            
    398400   282.39069      0              2            
    398500   299.92744      0              2            
    398600   321.99164      0              2            
    398700   269.05694      0              2            
    398800   267.69991      0              2            
    398900   254.22411      0              2            
    399000   287.98897      0              2            
    399100   333.98061      0              2            
    399200   308.95761      0              2            
    399300   316.98021      0              2            
    399400   279.27091      0              2            
    399500   321.8984       0              2            
    399600   333.64142      0              2            
    399700   270.36367      0              2            
    399800   282.97111      0              2            
    399900   269.44502      0              2            
    400000   281.45528      0              2            
    400100   289.71152      0              2            
    400200   316.08822      0              2            
    400300   298.93123      0              2            
    400400   306.66163      0              2            
    400500   281.86753      0              2            
    400600   283.33645      0              2            
    400700   334.37037      0              2            
    400800   319.31457      0              2            
    400900   248.04542      0              2            
    401000   289.16032      0              2            
    401100   318.52255      0              2            
    401200   317.09538      0              2            
    401300   291.52525      0              2            
    401400   283.99635      0              2            
    401500   289.96918      0              2            
    401600   287.02723      0              2            
    401700   313.97146      0              2            
    401800   296.53916      0              2            
    401900   331.67417      0              2            
    402000   312.76211      0              2            
    402100   249.50061      0              2            
    402200   270.97319      0              2            
    402300   300.37059      0              2            
    402400   287.95104      0              2            
    402500   315.76662      0              2            
    402600   345.47167      0              2            
    402700   365.25249      0              2            
    402800   296.72941      0              2            
    402900   263.48484      0              2            
    403000   300.50423      0              2            
    403100   322.31539      0              2            
    403200   302.67806      0              2            
    403300   311.39604      0              2            
    403400   320.45357      0              2            
    403500   330.62323      0              2            
    403600   281.61627      0              2            
    403700   271.927        0              2            
    403800   275.59856      0              2            
    403900   295.93653      0              2            
    404000   317.21894      0              2            
    404100   323.99673      0              2            
    404200   277.3689       0              2            
    404300   307.56955      0              2            
    404400   255.17476      0              2            
    404500   265.20448      0              2            
    404600   273.40827      0              2            
    404700   311.67821      0              2            
    404800   309.47241      0              2            
    404900   332.07103      0              2            
    405000   345.27163      0              2            
    405100   310.10222      0              2            
    405200   293.73837      0              2            
    405300   269.84759      0              2            
    405400   298.38766      0              2            
    405500   275.32849      0              2            
    405600   305.07771      0              2            
    405700   278.47628      0              2            
    405800   274.68148      0              2            
    405900   268.8923       0              2            
    406000   279.40179      0              2            
    406100   318.48578      0              2            
    406200   322.78871      0              2            
    406300   307.40035      0              2            
    406400   280.481        0              2            
    406500   301.73885      0              2            
    406600   273.59471      0              2            
    406700   293.89003      0              2            
    406800   312.21279      0              2            
    406900   336.85467      0              2            
    407000   312.89832      0              2            
    407100   304.24257      0              2            
    407200   285.16243      0              2            
    407300   248.77777      0              2            
    407400   265.27087      0              2            
    407500   306.32533      0              2            
    407600   323.22205      0              2            
    407700   317.7281       0              2            
    407800   284.16164      0              2            
    407900   274.53916      0              2            
    408000   277.8893       0              2            
    408100   368.05984      0              2            
    408200   297.36308      0              2            
    408300   282.42407      0              2            
    408400   295.29589      0              2            
    408500   279.527        0              2            
    408600   336.31949      0              2            
    408700   340.38557      0              2            
    408800   320.60736      0              2            
    408900   288.7438       0              2            
    409000   273.62177      0              2            
    409100   307.33338      0              2            
    409200   327.24594      0              2            
    409300   319.67064      0              2            
    409400   240.98887      0              2            
    409500   277.76057      0              2            
    409600   281.04634      0              2            
    409700   286.50047      0              2            
    409800   324.25539      0              2            
    409900   324.37084      0              2            
    410000   286.51455      0              2            
    410100   256.3473       0              2            
    410200   244.44873      0              2            
    410300   317.7249       0              2            
    410400   326.81967      0              2            
    410500   327.37839      0              2            
    410600   301.46445      0              2            
    410700   257.36331      0              2            
    410800   307.66871      0              2            
    410900   294.44107      0              2            
    411000   314.05001      0              2            
    411100   309.69723      0              2            
    411200   271.56858      0              2            
    411300   267.59063      0              2            
    411400   300.40417      0              2            
    411500   323.13413      0              2            
    411600   279.24914      0              2            
    411700   297.45293      0              2            
    411800   273.09848      0              2            
    411900   230.52519      0              2            
    412000   256.89156      0              2            
    412100   326.84302      0              2            
    412200   280.24631      0              2            
    412300   293.4279       0              2            
    412400   267.23063      0              2            
    412500   274.7519       0              2            
    412600   328.20383      0              2            
    412700   336.8367       0              2            
    412800   310.63884      0              2            
    412900   293.46033      0              2            
    413000   274.09386      0              2            
    413100   242.19235      0              2            
    413200   242.61726      0              2            
    413300   288.49144      0              2            
    413400   270.42875      0              2            
    413500   312.53223      0              2            
    413600   269.77351      0              2            
    413700   281.24948      0              2            
    413800   296.46085      0              2            
    413900   317.43911      0              2            
    414000   330.70647      0              2            
    414100   316.93567      0              2            
    414200   264.76613      0              2            
    414300   277.00608      0              2            
    414400   362.95741      0              2            
    414500   302.70983      0              2            
    414600   271.57534      0              2            
    414700   320.39381      0              2            
    414800   274.6631       0              2            
    414900   318.34241      0              2            
    415000   345.88808      0              2            
    415100   374.49464      0              2            
    415200   318.25443      0              2            
    415300   309.55391      0              2            
    415400   284.93639      0              2            
    415500   269.2035       0              2            
    415600   305.47523      0              2            
    415700   329.03817      0              2            
    415800   257.61042      0              2            
    415900   295.85124      0              2            
    416000   270.36974      0              2            
    416100   299.50191      0              2            
    416200   298.14603      0              2            
    416300   283.70075      0              2            
    416400   268.17505      0              2            
    416500   293.43899      0              2            
    416600   315.60385      0              2            
    416700   290.65256      0              2            
    416800   306.98331      0              2            
    416900   308.57431      0              2            
    417000   305.08249      0              2            
    417100   291.34343      0              2            
    417200   289.66203      0              2            
    417300   291.82059      0              2            
    417400   328.6117       0              2            
    417500   294.02036      0              2            
    417600   284.29776      0              2            
    417700   311.21094      0              2            
    417800   293.41222      0              2            
    417900   323.10043      0              2            
    418000   316.45473      0              2            
    418100   289.86859      0              2            
    418200   262.9035       0              2            
    418300   278.5303       0              2            
    418400   323.14952      0              2            
    418500   332.07044      0              2            
    418600   301.55491      0              2            
    418700   306.82726      0              2            
    418800   337.44397      0              2            
    418900   282.21941      0              2            
    419000   273.89917      0              2            
    419100   275.32325      0              2            
    419200   301.9568       0              2            
    419300   321.22102      0              2            
    419400   345.78325      0              2            
    419500   297.37778      0              2            
    419600   305.12851      0              2            
    419700   297.68107      0              2            
    419800   311.9346       0              2            
    419900   346.09422      0              2            
    420000   345.33214      0              2            
    420100   337.41068      0              2            
    420200   283.01592      0              2            
    420300   292.94681      0              2            
    420400   308.89772      0              2            
    420500   276.42936      0              2            
    420600   270.47607      0              2            
    420700   299.50781      0              2            
    420800   307.6072       0              2            
    420900   290.93795      0              2            
    421000   269.93691      0              2            
    421100   264.611        0              2            
    421200   287.09542      0              2            
    421300   296.23204      0              2            
    421400   335.7974       0              2            
    421500   312.47258      0              2            
    421600   306.18499      0              2            
    421700   333.81496      0              2            
    421800   363.91696      0              2            
    421900   308.90084      0              2            
    422000   297.04643      0              2            
    422100   299.03381      0              2            
    422200   305.45039      0              2            
    422300   321.21888      0              2            
    422400   312.86497      0              2            
    422500   270.87156      0              2            
    422600   278.07492      0              2            
    422700   307.60772      0              2            
    422800   303.51742      0              2            
    422900   298.65439      0              2            
    423000   261.30326      0              2            
    423100   285.70137      0              2            
    423200   284.95194      0              2            
    423300   299.51286      0              2            
    423400   335.09145      0              2            
    423500   262.27143      0              2            
    423600   287.03283      0              2            
    423700   306.7792       0              2            
    423800   315.82767      0              2            
    423900   312.68855      0              2            
    424000   288.63264      0              2            
    424100   269.81679      0              2            
    424200   303.07745      0              2            
    424300   313.0188       0              2            
    424400   339.48527      0              2            
    424500   322.54573      0              2            
    424600   319.2522       0              2            
    424700   328.79015      0              2            
    424800   269.2544       0              2            
    424900   264.59986      0              2            
    425000   315.56959      0              2            
    425100   306.48904      0              2            
    425200   294.5598       0              2            
    425300   305.20772      0              2            
    425400   313.25297      0              2            
    425500   308.24457      0              2            
    425600   313.05073      0              2            
    425700   304.56168      0              2            
    425800   310.67636      0              2            
    425900   310.74273      0              2            
    426000   358.51082      0              2            
    426100   288.06664      0              2            
    426200   278.44327      0              2            
    426300   290.25332      0              2            
    426400   336.47146      0              2            
    426500   336.5358       0              2            
    426600   304.91774      0              2            
    426700   279.35993      0              2            
    426800   289.46497      0              2            
    426900   304.62679      0              2            
    427000   326.84391      0              2            
    427100   312.92795      0              2            
    427200   289.99585      0              2            
    427300   318.74544      0              2            
    427400   326.8617       0              2            
    427500   315.75211      0              2            
    427600   303.21922      0              2            
    427700   243.21107      0              2            
    427800   264.09189      0              2            
    427900   291.87741      0              2            
    428000   279.13706      0              2            
    428100   308.83679      0              2            
    428200   312.88709      0              2            
    428300   252.44487      0              2            
    428400   302.24092      0              2            
    428500   301.27638      0              2            
    428600   315.93488      0              2            
    428700   316.11359      0              2            
    428800   324.58621      0              2            
    428900   248.54543      0              2            
    429000   275.20121      0              2            
    429100   294.75706      0              2            
    429200   327.38396      0              2            
    429300   296.59363      0              2            
    429400   283.33478      0              2            
    429500   316.08301      0              2            
    429600   373.62763      0              2            
    429700   334.28424      0              2            
    429800   340.22017      0              2            
    429900   271.93516      0              2            
    430000   288.02566      0              2            
    430100   295.06255      0              2            
    430200   331.70167      0              2            
    430300   323.29968      0              2            
    430400   332.6512       0              2            
    430500   291.37108      0              2            
    430600   271.7406       0              2            
    430700   308.784        0              2            
    430800   314.28223      0              2            
    430900   307.75234      0              2            
    431000   250.60881      0              2            
    431100   281.34646      0              2            
    431200   296.25993      0              2            
    431300   310.87605      0              2            
    431400   287.5159       0              2            
    431500   277.32791      0              2            
    431600   288.72397      0              2            
    431700   307.5216       0              2            
    431800   308.77122      0              2            
    431900   273.47016      0              2            
    432000   273.0713       0              2            
    432100   318.45283      0              2            
    432200   303.18201      0              2            
    432300   301.59559      0              2            
    432400   274.92444      0              2            
    432500   255.77175      0              2            
    432600   240.40946      0              2            
    432700   249.69538      0              2            
    432800   293.72817      0              2            
    432900   317.5704       0              2            
    433000   305.38792      0              2            
    433100   325.30845      0              2            
    433200   309.55763      0              2            
    433300   282.68861      0              2            
    433400   302.68788      0              2            
    433500   321.62922      0              2            
    433600   350.35822      0              2            
    433700   336.02071      0              2            
    433800   277.97818      0              2            
    433900   273.33008      0              2            
    434000   283.86572      0              2            
    434100   277.74902      0              2            
    434200   294.51164      0              2            
    434300   275.41591      0              2            
    434400   296.03447      0              2            
    434500   275.04895      0              2            
    434600   304.69997      0              2            
    434700   257.03745      0              2            
    434800   294.40179      0              2            
    434900   317.09575      0              2            
    435000   317.77055      0              2            
    435100   389.68894      0              2            
    435200   332.37275      0              2            
    435300   325.55252      0              2            
    435400   286.75726      0              2            
    435500   265.95307      0              2            
    435600   323.49454      0              2            
    435700   324.17791      0              2            
    435800   333.70589      0              2            
    435900   330.19724      0              2            
    436000   314.0887       0              2            
    436100   300.53473      0              2            
    436200   329.72993      0              2            
    436300   318.46846      0              2            
    436400   298.34699      0              2            
    436500   292.7208       0              2            
    436600   241.24323      0              2            
    436700   272.28248      0              2            
    436800   285.00359      0              2            
    436900   308.65331      0              2            
    437000   323.26262      0              2            
    437100   330.49625      0              2            
    437200   290.18371      0              2            
    437300   295.24693      0              2            
    437400   314.22703      0              2            
    437500   289.39799      0              2            
    437600   273.50786      0              2            
    437700   295.9933       0              2            
    437800   300.21989      0              2            
    437900   319.57073      0              2            
    438000   291.99417      0              2            
    438100   298.22441      0              2            
    438200   347.80698      0              2            
    438300   286.58559      0              2            
    438400   304.17523      0              2            
    438500   312.21591      0              2            
    438600   290.4623       0              2            
    438700   260.6249       0              2            
    438800   263.02364      0              2            
    438900   331.49252      0              2            
    439000   316.85959      0              2            
    439100   316.50625      0              2            
    439200   321.32467      0              2            
    439300   260.28321      0              2            
    439400   248.47712      0              2            
    439500   250.9888       0              2            
    439600   301.83629      0              2            
    439700   293.59141      0              2            
    439800   289.68618      0              2            
    439900   301.95228      0              2            
    440000   266.01856      0              2            
    440100   296.03241      0              2            
    440200   294.47671      0              2            
    440300   296.41226      0              2            
    440400   270.01936      0              2            
    440500   306.8107       0              2            
    440600   312.50525      0              2            
    440700   231.30913      0              2            
    440800   273.26605      0              2            
    440900   296.07001      0              2            
    441000   300.93289      0              2            
    441100   290.97542      0              2            
    441200   318.17385      0              2            
    441300   353.01594      0              2            
    441400   314.20129      0              2            
    441500   305.73566      0              2            
    441600   289.86183      0              2            
    441700   282.48212      0              2            
    441800   349.69734      0              2            
    441900   329.59898      0              2            
    442000   293.17851      0              2            
    442100   306.23176      0              2            
    442200   299.01895      0              2            
    442300   257.78291      0              2            
    442400   313.05724      0              2            
    442500   318.39564      0              2            
    442600   348.75933      0              2            
    442700   317.85804      0              2            
    442800   288.35347      0              2            
    442900   287.97978      0              2            
    443000   322.36322      0              2            
    443100   333.22097      0              2            
    443200   297.78369      0              2            
    443300   350.92993      0              2            
    443400   315.22277      0              2            
    443500   286.20384      0              2            
    443600   298.30163      0              2            
    443700   313.86341      0              2            
    443800   336.95995      0              2            
    443900   321.33995      0              2            
    444000   327.17071      0              2            
    444100   271.96219      0              2            
    444200   290.54059      0              2            
    444300   251.49379      0              2            
    444400   293.33229      0              2            
    444500   321.24041      0              2            
    444600   289.97033      0              2            
    444700   314.87273      0              2            
    444800   255.54718      0              2            
    444900   312.2791       0              2            
    445000   310.47269      0              2            
    445100   349.38086      0              2            
    445200   293.79119      0              2            
    445300   283.24358      0              2            
    445400   274.0197       0              2            
    445500   310.06831      0              2            
    445600   322.00377      0              2            
    445700   338.2211       0              2            
    445800   325.36686      0              2            
    445900   318.58867      0              2            
    446000   273.67308      0              2            
    446100   304.31328      0              2            
    446200   282.54163      0              2            
    446300   330.65587      0              2            
    446400   300.62513      0              2            
    446500   307.20291      0              2            
    446600   320.51427      0              2            
    446700   300.36104      0              2            
    446800   274.82012      0              2            
    446900   310.34242      0              2            
    447000   284.66494      0              2            
    447100   330.62492      0              2            
    447200   318.11386      0              2            
    447300   271.11955      0              2            
    447400   271.00426      0              2            
    447500   302.58143      0              2            
    447600   278.31774      0              2            
    447700   278.18423      0              2            
    447800   291.80617      0              2            
    447900   301.80245      0              2            
    448000   267.71474      0              2            
    448100   256.62595      0              2            
    448200   272.68405      0              2            
    448300   277.86728      0              2            
    448400   300.98048      0              2            
    448500   327.13114      0              2            
    448600   280.2961       0              2            
    448700   278.32424      0              2            
    448800   276.61216      0              2            
    448900   307.48583      0              2            
    449000   292.15881      0              2            
    449100   282.1935       0              2            
    449200   269.03843      0              2            
    449300   297.02365      0              2            
    449400   277.63385      0              2            
    449500   309.29984      0              2            
    449600   276.88254      0              2            
    449700   215.72489      0              2            
    449800   268.6568       0              2            
    449900   277.93193      0              2            
    450000   297.90088      0              2            
    450100   312.41854      0              2            
    450200   349.08162      0              2            
    450300   282.47282      0              2            
    450400   269.18256      0              2            
    450500   295.97284      0              2            
    450600   307.86686      0              2            
    450700   318.33488      0              2            
    450800   257.17654      0              2            
    450900   267.77518      0              2            
    451000   307.71868      0              2            
    451100   274.64799      0              2            
    451200   304.79312      0              2            
    451300   337.55545      0              2            
    451400   337.46059      0              2            
    451500   303.31836      0              2            
    451600   281.98064      0              2            
    451700   302.90179      0              2            
    451800   308.37572      0              2            
    451900   321.80667      0              2            
    452000   314.42926      0              2            
    452100   288.70895      0              2            
    452200   273.55037      0              2            
    452300   334.52173      0              2            
    452400   304.56114      0              2            
    452500   302.87929      0              2            
    452600   323.54895      0              2            
    452700   283.83874      0              2            
    452800   302.07393      0              2            
    452900   320.32749      0              2            
    453000   298.71379      0              2            
    453100   282.87617      0              2            
    453200   295.2553       0              2            
    453300   303.16849      0              2            
    453400   306.57566      0              2            
    453500   319.52291      0              2            
    453600   307.3371       0              2            
    453700   278.94092      0              2            
    453800   294.89438      0              2            
    453900   268.69054      0              2            
    454000   309.38727      0              2            
    454100   309.83282      0              2            
    454200   325.00607      0              2            
    454300   345.50756      0              2            
    454400   355.0619       0              2            
    454500   293.82912      0              2            
    454600   285.18128      0              2            
    454700   296.22315      0              2            
    454800   307.75986      0              2            
    454900   282.97846      0              2            
    455000   314.85112      0              2            
    455100   340.51897      0              2            
    455200   325.54209      0              2            
    455300   299.05302      0              2            
    455400   257.17657      0              2            
    455500   233.68695      0              2            
    455600   262.19478      0              2            
    455700   285.43867      0              2            
    455800   326.28502      0              2            
    455900   310.80024      0              2            
    456000   344.6849       0              2            
    456100   291.72261      0              2            
    456200   281.65707      0              2            
    456300   299.27177      0              2            
    456400   305.11238      0              2            
    456500   310.02306      0              2            
    456600   289.86296      0              2            
    456700   303.42734      0              2            
    456800   340.69424      0              2            
    456900   378.30836      0              2            
    457000   283.57077      0              2            
    457100   280.58403      0              2            
    457200   297.68087      0              2            
    457300   295.05449      0              2            
    457400   286.04931      0              2            
    457500   278.77612      0              2            
    457600   306.69933      0              2            
    457700   317.69352      0              2            
    457800   305.55501      0              2            
    457900   283.81602      0              2            
    458000   254.07082      0              2            
    458100   344.99487      0              2            
    458200   311.15121      0              2            
    458300   294.85915      0              2            
    458400   307.98127      0              2            
    458500   298.95782      0              2            
    458600   278.00678      0              2            
    458700   290.68485      0              2            
    458800   314.73495      0              2            
    458900   287.69099      0              2            
    459000   268.09755      0              2            
    459100   300.79991      0              2            
    459200   311.69611      0              2            
    459300   329.82511      0              2            
    459400   332.3738       0              2            
    459500   282.77947      0              2            
    459600   286.4534       0              2            
    459700   297.00369      0              2            
    459800   345.85239      0              2            
    459900   325.71217      0              2            
    460000   311.53835      0              2            
    460100   304.99272      0              2            
    460200   305.61367      0              2            
    460300   289.15469      0              2            
    460400   341.20016      0              2            
    460500   317.40308      0              2            
    460600   294.45811      0              2            
    460700   264.18496      0              2            
    460800   297.67244      0              2            
    460900   331.17164      0              2            
    461000   331.91148      0              2            
    461100   312.36095      0              2            
    461200   304.22017      0              2            
    461300   289.2561       0              2            
    461400   276.1428       0              2            
    461500   275.69799      0              2            
    461600   327.29002      0              2            
    461700   308.91944      0              2            
    461800   282.50929      0              2            
    461900   295.11882      0              2            
    462000   314.70797      0              2            
    462100   293.16919      0              2            
    462200   270.3971       0              2            
    462300   274.38541      0              2            
    462400   327.51309      0              2            
    462500   350.4891       0              2            
    462600   265.35992      0              2            
    462700   276.54615      0              2            
    462800   252.78037      0              2            
    462900   300.9565       0              2            
    463000   333.28073      0              2            
    463100   321.58614      0              2            
    463200   271.28566      0              2            
    463300   282.47859      0              2            
    463400   308.93844      0              2            
    463500   319.58673      0              2            
    463600   288.05462      0              2            
    463700   293.64358      0              2            
    463800   269.81226      0              2            
    463900   252.61292      0              2            
    464000   292.98988      0              2            
    464100   311.93757      0              2            
    464200   336.91424      0              2            
    464300   270.04504      0              2            
    464400   277.67006      0              2            
    464500   278.43607      0              2            
    464600   318.38294      0              2            
    464700   336.73376      0              2            
    464800   278.53685      0              2            
    464900   262.40772      0              2            
    465000   288.51287      0              2            
    465100   301.34316      0              2            
    465200   313.31273      0              2            
    465300   298.08715      0              2            
    465400   304.07357      0              2            
    465500   289.6192       0              2            
    465600   301.80851      0              2            
    465700   337.81545      0              2            
    465800   352.72488      0              2            
    465900   334.37933      0              2            
    466000   285.10675      0              2            
    466100   249.9682       0              2            
    466200   305.6073       0              2            
    466300   292.39056      0              2            
    466400   311.96559      0              2            
    466500   307.15806      0              2            
    466600   299.55878      0              2            
    466700   249.9979       0              2            
    466800   297.24204      0              2            
    466900   302.44622      0              2            
    467000   330.89152      0              2            
    467100   298.42534      0              2            
    467200   311.75637      0              2            
    467300   290.67808      0              2            
    467400   325.39239      0              2            
    467500   331.95968      0              2            
    467600   330.29789      0              2            
    467700   256.44747      0              2            
    467800   266.78966      0              2            
    467900   273.30382      0              2            
    468000   293.94327      0              2            
    468100   337.1563       0              2            
    468200   294.65886      0              2            
    468300   283.20139      0              2            
    468400   299.0723       0              2            
    468500   295.80316      0              2            
    468600   363.61931      0              2            
    468700   299.11368      0              2            
    468800   306.79173      0              2            
    468900   277.65         0              2            
    469000   277.40428      0              2            
    469100   309.8143       0              2            
    469200   356.18881      0              2            
    469300   305.06755      0              2            
    469400   300.84006      0              2            
    469500   258.75513      0              2            
    469600   348.61608      0              2            
    469700   342.46301      0              2            
    469800   304.58471      0              2            
    469900   268.40828      0              2            
    470000   254.70473      0              2            
    470100   282.0188       0              2            
    470200   320.60964      0              2            
    470300   298.56375      0              2            
    470400   286.87268      0              2            
    470500   273.5008       0              2            
    470600   337.631        0              2            
    470700   273.65773      0              2            
    470800   265.90421      0              2            
    470900   304.06181      0              2            
    471000   317.7144       0              2            
    471100   318.22055      0              2            
    471200   282.98198      0              2            
    471300   295.52846      0              2            
    471400   268.80223      0              2            
    471500   291.65318      0              2            
    471600   247.2054       0              2            
    471700   262.37514      0              2            
    471800   312.99026      0              2            
    471900   332.22622      0              2            
    472000   276.93268      0              2            
    472100   286.48899      0              2            
    472200   221.85004      0              2            
    472300   299.74108      0              2            
    472400   296.75993      0              2            
    472500   329.2753       0              2            
    472600   269.56603      0              2            
    472700   273.15049      0              2            
    472800   333.98745      0              2            
    472900   327.3928       0              2            
    473000   305.76281      0              2            
    473100   276.04403      0              2            
    473200   284.76495      0              2            
    473300   291.04246      0              2            
    473400   293.21128      0              2            
    473500   346.46484      0              2            
    473600   300.98121      0              2            
    473700   281.67367      0              2            
    473800   262.99352      0              2            
    473900   329.48602      0              2            
    474000   361.75759      0              2            
    474100   315.11916      0              2            
    474200   313.60771      0              2            
    474300   289.81204      0              2            
    474400   296.50485      0              2            
    474500   318.7909       0              2            
    474600   329.77622      0              2            
    474700   344.94589      0              2            
    474800   307.56297      0              2            
    474900   280.79256      0              2            
    475000   316.2693       0              2            
    475100   293.8097       0              2            
    475200   355.54884      0              2            
    475300   344.0031       0              2            
    475400   324.11139      0              2            
    475500   313.49614      0              2            
    475600   307.54697      0              2            
    475700   330.12711      0              2            
    475800   320.50515      0              2            
    475900   323.33839      0              2            
    476000   308.80684      0              2            
    476100   272.07978      0              2            
    476200   305.04422      0              2            
    476300   293.63992      0              2            
    476400   332.49566      0              2            
    476500   315.35409      0              2            
    476600   272.61817      0              2            
    476700   307.27184      0              2            
    476800   283.98031      0              2            
    476900   323.47186      0              2            
    477000   327.04931      0              2            
    477100   281.20108      0              2            
    477200   273.90957      0              2            
    477300   292.57163      0              2            
    477400   322.2391       0              2            
    477500   303.29023      0              2            
    477600   312.61227      0              2            
    477700   303.73057      0              2            
    477800   290.3954       0              2            
    477900   255.30823      0              2            
    478000   278.92835      0              2            
    478100   277.66813      0              2            
    478200   305.7823       0              2            
    478300   305.69185      0              2            
    478400   313.35001      0              2            
    478500   296.00169      0              2            
    478600   268.62121      0              2            
    478700   284.31163      0              2            
    478800   281.64452      0              2            
    478900   301.81089      0              2            
    479000   308.6884       0              2            
    479100   294.1173       0              2            
    479200   249.70814      0              2            
    479300   259.36746      0              2            
    479400   335.09036      0              2            
    479500   292.40169      0              2            
    479600   308.1201       0              2            
    479700   277.59429      0              2            
    479800   306.80593      0              2            
    479900   295.68214      0              2            
    480000   290.94218      0              2            
    480100   303.79177      0              2            
    480200   310.27382      0              2            
    480300   279.61809      0              2            
    480400   315.61334      0              2            
    480500   258.67893      0              2            
    480600   304.70718      0              2            
    480700   331.71911      0              2            
    480800   314.02414      0              2            
    480900   294.47873      0              2            
    481000   268.69737      0              2            
    481100   299.02078      0              2            
    481200   308.43559      0              2            
    481300   348.96541      0              2            
    481400   348.36115      0              2            
    481500   400.33369      0              2            
    481600   378.1212       0              2            
    481700   326.46374      0              2            
    481800   288.09125      0              2            
    481900   251.70212      0              2            
    482000   309.90779      0              2            
    482100   314.33866      0              2            
    482200   346.1939       0              2            
    482300   274.34678      0              2            
    482400   273.74279      0              2            
    482500   307.45557      0              2            
    482600   289.64925      0              2            
    482700   280.77627      0              2            
    482800   269.99981      0              2            
    482900   263.7693       0              2            
    483000   246.7503       0              2            
    483100   313.40158      0              2            
    483200   279.04603      0              2            
    483300   308.65043      0              2            
    483400   309.62276      0              2            
    483500   251.93294      0              2            
    483600   275.10474      0              2            
    483700   313.45934      0              2            
    483800   317.1762       0              2            
    483900   259.72413      0              2            
    484000   270.65996      0              2            
    484100   303.86939      0              2            
    484200   305.16034      0              2            
    484300   363.10434      0              2            
    484400   304.14539      0              2            
    484500   288.3817       0              2            
    484600   285.56176      0              2            
    484700   284.59149      0              2            
    484800   318.84509      0              2            
    484900   339.38415      0              2            
    485000   328.79868      0              2            
    485100   331.68335      0              2            
    485200   308.7481       0              2            
    485300   296.21004      0              2            
    485400   313.01652      0              2            
    485500   287.02638      0              2            
    485600   315.74019      0              2            
    485700   342.72422      0              2            
    485800   297.41306      0              2            
    485900   281.87276      0              2            
    486000   294.12804      0              2            
    486100   315.23513      0              2            
    486200   298.13817      0              2            
    486300   339.53915      0              2            
    486400   269.60426      0              2            
    486500   281.28551      0              2            
    486600   314.88191      0              2            
    486700   310.29309      0              2            
    486800   306.99031      0              2            
    486900   284.20291      0              2            
    487000   296.75642      0              2            
    487100   350.97274      0              2            
    487200   342.22717      0              2            
    487300   328.82128      0              2            
    487400   302.03526      0              2            
    487500   290.4988       0              2            
    487600   293.04077      0              2            
    487700   291.0725       0              2            
    487800   306.02554      0              2            
    487900   288.36194      0              2            
    488000   316.92702      0              2            
    488100   281.13939      0              2            
    488200   306.84885      0              2            
    488300   360.79425      0              2            
    488400   285.32863      0              2            
    488500   283.27481      0              2            
    488600   307.86694      0              2            
    488700   268.40737      0              2            
    488800   286.09414      0              2            
    488900   308.6869       0              2            
    489000   321.52494      0              2            
    489100   293.69217      0              2            
    489200   276.88457      0              2            
    489300   288.99617      0              2            
    489400   303.94203      0              2            
    489500   304.96321      0              2            
    489600   353.42221      0              2            
    489700   361.689        0              2            
    489800   285.50934      0              2            
    489900   287.39542      0              2            
    490000   295.40494      0              2            
    490100   346.64133      0              2            
    490200   290.02752      0              2            
    490300   246.62745      0              2            
    490400   325.26639      0              2            
    490500   304.1655       0              2            
    490600   330.73393      0              2            
    490700   283.91638      0              2            
    490800   287.69075      0              2            
    490900   270.77078      0              2            
    491000   275.07075      0              2            
    491100   270.33019      0              2            
    491200   329.72705      0              2            
    491300   336.90354      0              2            
    491400   282.53519      0              2            
    491500   284.10596      0              2            
    491600   278.12348      0              2            
    491700   314.12833      0              2            
    491800   302.30811      0              2            
    491900   322.11108      0              2            
    492000   305.24472      0              2            
    492100   351.58943      0              2            
    492200   307.85782      0              2            
    492300   293.54637      0              2            
    492400   307.47036      0              2            
    492500   295.67677      0              2            
    492600   322.27362      0              2            
    492700   295.77533      0              2            
    492800   275.59143      0              2            
    492900   284.38232      0              2            
    493000   286.25852      0              2            
    493100   313.08551      0              2            
    493200   271.69371      0              2            
    493300   271.85835      0              2            
    493400   286.53676      0              2            
    493500   295.7193       0              2            
    493600   297.25824      0              2            
    493700   316.89081      0              2            
    493800   332.15887      0              2            
    493900   303.55924      0              2            
    494000   312.69094      0              2            
    494100   327.79657      0              2            
    494200   274.07225      0              2            
    494300   334.80816      0              2            
    494400   308.43222      0              2            
    494500   292.70595      0              2            
    494600   289.92256      0              2            
    494700   269.0572       0              2            
    494800   295.68922      0              2            
    494900   269.97483      0              2            
    495000   318.07801      0              2            
    495100   328.63777      0              2            
    495200   278.16531      0              2            
    495300   289.87966      0              2            
    495400   290.56049      0              2            
    495500   324.98509      0              2            
    495600   328.47628      0              2            
    495700   284.81571      0              2            
    495800   275.11203      0              2            
    495900   302.04516      0              2            
    496000   339.18017      0              2            
    496100   271.06969      0              2            
    496200   261.91259      0              2            
    496300   252.23289      0              2            
    496400   269.14067      0              2            
    496500   311.6578       0              2            
    496600   305.76474      0              2            
    496700   342.46458      0              2            
    496800   321.80988      0              2            
    496900   267.98591      0              2            
    497000   269.02566      0              2            
    497100   282.32313      0              2            
    497200   295.71334      0              2            
    497300   276.77109      0              2            
    497400   293.93207      0              2            
    497500   273.33806      0              2            
    497600   311.66631      0              2            
    497700   264.78876      0              2            
    497800   296.08815      0              2            
    497900   260.33358      0              2            
    498000   297.78753      0              2            
    498100   240.65359      0              2            
    498200   279.43775      0              2            
    498300   286.25456      0              2            
    498400   291.42694      0              2            
    498500   268.41365      0              2            
    498600   270.93247      0              2            
    498700   264.72315      0              2            
    498800   286.47886      0              2            
    498900   316.97368      0              2            
    499000   330.77901      0              2            
    499100   258.55753      0              2            
    499200   282.99768      0              2            
    499300   267.11437      0              2            
    499400   287.21655      0              2            
    499500   317.90888      0              2            
    499600   332.44386      0              2            
    499700   324.85112      0              2            
    499800   309.31327      0              2            
    499900   242.89883      0              2            
    500000   282.11523      0              2            
    500100   267.66119      0              2            
    500200   326.16673      0              2            
    500300   306.04002      0              2            
    500400   350.66922      0              2            
    500500   298.64482      0              2            
    500600   267.54291      0              2            
    500700   271.34401      0              2            
    500800   307.04775      0              2            
    500900   348.21542      0              2            
    501000   327.52738      0              2            
    501100   291.53529      0              2            
    501200   266.91574      0              2            
    501300   262.57828      0              2            
    501400   286.29537      0              2            
    501500   312.58109      0              2            
    501600   315.4962       0              2            
    501700   298.46594      0              2            
    501800   300.59468      0              2            
    501900   289.59391      0              2            
    502000   327.20706      0              2            
    502100   298.6969       0              2            
    502200   296.77753      0              2            
    502300   316.5974       0              2            
    502400   305.05793      0              2            
    502500   303.82248      0              2            
    502600   311.09728      0              2            
    502700   284.89253      0              2            
    502800   293.11207      0              2            
    502900   270.30197      0              2            
    503000   324.19069      0              2            
    503100   331.76206      0              2            
    503200   293.45566      0              2            
    503300   300.25908      0              2            
    503400   308.37598      0              2            
    503500   259.72515      0              2            
    503600   275.42316      0              2            
    503700   346.76426      0              2            
    503800   305.24149      0              2            
    503900   332.78669      0              2            
    504000   276.51287      0              2            
    504100   285.22984      0              2            
    504200   288.10302      0              2            
    504300   326.10407      0              2            
    504400   381.75029      0              2            
    504500   315.98561      0              2            
    504600   287.97724      0              2            
    504700   289.25537      0              2            
    504800   311.04812      0              2            
    504900   329.82067      0              2            
    505000   317.44098      0              2            
    505100   350.77646      0              2            
    505200   289.79217      0              2            
    505300   326.49954      0              2            
    505400   282.9095       0              2            
    505500   327.32065      0              2            
    505600   319.88909      0              2            
    505700   302.56272      0              2            
    505800   265.57775      0              2            
    505900   253.55498      0              2            
    506000   261.64844      0              2            
    506100   322.23814      0              2            
    506200   303.58323      0              2            
    506300   312.94998      0              2            
    506400   275.60129      0              2            
    506500   282.07432      0              2            
    506600   293.85601      0              2            
    506700   329.99304      0              2            
    506800   309.24564      0              2            
    506900   318.44493      0              2            
    507000   289.34876      0              2            
    507100   261.39031      0              2            
    507200   307.36768      0              2            
    507300   309.56677      0              2            
    507400   304.04385      0              2            
    507500   340.86763      0              2            
    507600   280.30958      0              2            
    507700   297.52566      0              2            
    507800   295.03508      0              2            
    507900   308.6221       0              2            
    508000   293.97526      0              2            
    508100   290.33991      0              2            
    508200   284.88852      0              2            
    508300   315.63413      0              2            
    508400   312.99489      0              2            
    508500   295.37725      0              2            
    508600   274.57993      0              2            
    508700   282.68329      0              2            
    508800   298.96676      0              2            
    508900   315.52542      0              2            
    509000   272.62353      0              2            
    509100   268.08964      0              2            
    509200   292.54335      0              2            
    509300   274.27257      0              2            
    509400   319.0815       0              2            
    509500   308.13873      0              2            
    509600   297.29539      0              2            
    509700   306.70913      0              2            
    509800   265.9963       0              2            
    509900   293.51109      0              2            
    510000   332.59848      0              2            
    510100   342.66235      0              2            
    510200   283.10644      0              2            
    510300   289.08222      0              2            
    510400   270.34386      0              2            
    510500   312.93577      0              2            
    510600   356.81311      0              2            
    510700   286.01426      0              2            
    510800   290.41742      0              2            
    510900   270.44253      0              2            
    511000   332.29103      0              2            
    511100   284.5658       0              2            
    511200   274.28717      0              2            
    511300   271.938        0              2            
    511400   308.71607      0              2            
    511500   329.66387      0              2            
    511600   320.41532      0              2            
    511700   277.99363      0              2            
    511800   267.10561      0              2            
    511900   239.91667      0              2            
    512000   250.25431      0              2            
    512100   270.98357      0              2            
    512200   300.55527      0              2            
    512300   312.29995      0              2            
    512400   298.57045      0              2            
    512500   306.94012      0              2            
    512600   289.85655      0              2            
    512700   305.86739      0              2            
    512800   280.73279      0              2            
    512900   323.91232      0              2            
    513000   313.96745      0              2            
    513100   360.10934      0              2            
    513200   280.6755       0              2            
    513300   340.68917      0              2            
    513400   318.30635      0              2            
    513500   282.50339      0              2            
    513600   282.95857      0              2            
    513700   302.90343      0              2            
    513800   320.17587      0              2            
    513900   271.27323      0              2            
    514000   315.52953      0              2            
    514100   293.3383       0              2            
    514200   293.13094      0              2            
    514300   289.45765      0              2            
    514400   346.60805      0              2            
    514500   330.73966      0              2            
    514600   307.74734      0              2            
    514700   299.05035      0              2            
    514800   254.94227      0              2            
    514900   288.06659      0              2            
    515000   373.21108      0              2            
    515100   297.51029      0              2            
    515200   277.66102      0              2            
    515300   284.96874      0              2            
    515400   297.45193      0              2            
    515500   334.55756      0              2            
    515600   317.2703       0              2            
    515700   317.75994      0              2            
    515800   301.5939       0              2            
    515900   281.97264      0              2            
    516000   309.19881      0              2            
    516100   304.01318      0              2            
    516200   338.54913      0              2            
    516300   305.61602      0              2            
    516400   306.90908      0              2            
    516500   309.50039      0              2            
    516600   275.03142      0              2            
    516700   278.20909      0              2            
    516800   337.63014      0              2            
    516900   318.32946      0              2            
    517000   275.34624      0              2            
    517100   272.09573      0              2            
    517200   290.08441      0              2            
    517300   320.4778       0              2            
    517400   333.75625      0              2            
    517500   297.07175      0              2            
    517600   283.26537      0              2            
    517700   295.94857      0              2            
    517800   343.21663      0              2            
    517900   310.43174      0              2            
    518000   279.68002      0              2            
    518100   303.47401      0              2            
    518200   295.39667      0              2            
    518300   308.83549      0              2            
    518400   327.03958      0              2            
    518500   353.61322      0              2            
    518600   330.52206      0              2            
    518700   296.6099       0              2            
    518800   291.30111      0              2            
    518900   316.63155      0              2            
    519000   324.32352      0              2            
    519100   277.80764      0              2            
    519200   260.663        0              2            
    519300   289.67157      0              2            
    519400   323.06292      0              2            
    519500   302.48386      0              2            
    519600   250.3617       0              2            
    519700   285.80093      0              2            
    519800   261.69839      0              2            
    519900   308.743        0              2            
    520000   316.96426      0              2            
    520100   326.23313      0              2            
    520200   298.99634      0              2            
    520300   297.64165      0              2            
    520400   273.46818      0              2            
    520500   369.99118      0              2            
    520600   303.98913      0              2            
    520700   348.1708       0              2            
    520800   292.74742      0              2            
    520900   308.61745      0              2            
    521000   290.08411      0              2            
    521100   301.61617      0              2            
    521200   304.73037      0              2            
    521300   319.67065      0              2            
    521400   313.39498      0              2            
    521500   298.24537      0              2            
    521600   297.45435      0              2            
    521700   294.13994      0              2            
    521800   325.77348      0              2            
    521900   333.3787       0              2            
    522000   307.86457      0              2            
    522100   287.36386      0              2            
    522200   263.74453      0              2            
    522300   283.34611      0              2            
    522400   328.54424      0              2            
    522500   338.10952      0              2            
    522600   334.44389      0              2            
    522700   313.55845      0              2            
    522800   284.55085      0              2            
    522900   313.15382      0              2            
    523000   323.22424      0              2            
    523100   330.22514      0              2            
    523200   304.5061       0              2            
    523300   274.82743      0              2            
    523400   296.18966      0              2            
    523500   313.43139      0              2            
    523600   337.22668      0              2            
    523700   287.9763       0              2            
    523800   302.90849      0              2            
    523900   270.17757      0              2            
    524000   287.79951      0              2            
    524100   305.75219      0              2            
    524200   313.5534       0              2            
    524300   316.81983      0              2            
    524400   278.9668       0              2            
    524500   256.85483      0              2            
    524600   278.69194      0              2            
    524700   308.03381      0              2            
    524800   334.13546      0              2            
    524900   319.75148      0              2            
    525000   305.04078      0              2            
    525100   267.61827      0              2            
    525200   245.58494      0              2            
    525300   263.73058      0              2            
    525400   305.40035      0              2            
    525500   283.51011      0              2            
    525600   286.1291       0              2            
    525700   275.54904      0              2            
    525800   279.07166      0              2            
    525900   262.17728      0              2            
    526000   319.9833       0              2            
    526100   282.00937      0              2            
    526200   314.55587      0              2            
    526300   258.10756      0              2            
    526400   272.15746      0              2            
    526500   276.6319       0              2            
    526600   324.16758      0              2            
    526700   320.24465      0              2            
    526800   293.91045      0              2            
    526900   309.82483      0              2            
    527000   246.82092      0              2            
    527100   255.43238      0              2            
    527200   293.76584      0              2            
    527300   329.47023      0              2            
    527400   310.14988      0              2            
    527500   292.74323      0              2            
    527600   290.27604      0              2            
    527700   267.25488      0              2            
    527800   287.7575       0              2            
    527900   302.52201      0              2            
    528000   320.9927       0              2            
    528100   284.90241      0              2            
    528200   254.79637      0              2            
    528300   285.48405      0              2            
    528400   291.46918      0              2            
    528500   278.57816      0              2            
    528600   293.49156      0              2            
    528700   277.00685      0              2            
    528800   286.22285      0              2            
    528900   330.41643      0              2            
    529000   307.55065      0              2            
    529100   261.64796      0              2            
    529200   275.20049      0              2            
    529300   307.98685      0              2            
    529400   321.84651      0              2            
    529500   341.79737      0              2            
    529600   372.3068       0              2            
    529700   344.55712      0              2            
    529800   323.24385      0              2            
    529900   319.93734      0              2            
    530000   269.31965      0              2            
    530100   306.96693      0              2            
    530200   316.95188      0              2            
    530300   342.65381      0              2            
    530400   345.29523      0              2            
    530500   313.12707      0              2            
    530600   281.13684      0              2            
    530700   261.57234      0              2            
    530800   320.32091      0              2            
    530900   316.45199      0              2            
    531000   307.07041      0              2            
    531100   289.03545      0              2            
    531200   317.93528      0              2            
    531300   256.58351      0              2            
    531400   324.25886      0              2            
    531500   327.28175      0              2            
    531600   303.18811      0              2            
    531700   277.07813      0              2            
    531800   252.51763      0              2            
    531900   263.82321      0              2            
    532000   279.52019      0              2            
    532100   307.90308      0              2            
    532200   317.40318      0              2            
    532300   302.24825      0              2            
    532400   272.60918      0              2            
    532500   274.14075      0              2            
    532600   304.01009      0              2            
    532700   292.37324      0              2            
    532800   252.56945      0              2            
    532900   267.96735      0              2            
    533000   265.17764      0              2            
    533100   296.49729      0              2            
    533200   301.51067      0              2            
    533300   287.75128      0              2            
    533400   273.18254      0              2            
    533500   322.84158      0              2            
    533600   323.53898      0              2            
    533700   287.61493      0              2            
    533800   332.03927      0              2            
    533900   317.13785      0              2            
    534000   275.40202      0              2            
    534100   314.14127      0              2            
    534200   301.83151      0              2            
    534300   337.64664      0              2            
    534400   289.29985      0              2            
    534500   270.89218      0              2            
    534600   303.44927      0              2            
    534700   294.206        0              2            
    534800   313.94904      0              2            
    534900   350.65158      0              2            
    535000   289.59992      0              2            
    535100   303.94289      0              2            
    535200   302.15418      0              2            
    535300   272.37068      0              2            
    535400   331.58068      0              2            
    535500   332.18884      0              2            
    535600   335.80651      0              2            
    535700   311.48024      0              2            
    535800   299.46415      0              2            
    535900   290.64911      0              2            
    536000   322.24213      0              2            
    536100   333.8497       0              2            
    536200   325.02084      0              2            
    536300   315.68218      0              2            
    536400   275.43124      0              2            
    536500   303.54648      0              2            
    536600   307.19568      0              2            
    536700   294.17161      0              2            
    536800   309.19001      0              2            
    536900   322.61702      0              2            
    537000   304.20591      0              2            
    537100   303.4837       0              2            
    537200   304.41014      0              2            
    537300   276.08917      0              2            
    537400   276.00858      0              2            
    537500   301.58468      0              2            
    537600   320.63832      0              2            
    537700   310.94164      0              2            
    537800   294.16035      0              2            
    537900   298.35305      0              2            
    538000   323.80353      0              2            
    538100   317.80277      0              2            
    538200   265.52802      0              2            
    538300   320.32132      0              2            
    538400   326.29881      0              2            
    538500   298.10541      0              2            
    538600   301.04703      0              2            
    538700   263.40957      0              2            
    538800   277.06103      0              2            
    538900   273.54311      0              2            
    539000   292.06669      0              2            
    539100   292.1501       0              2            
    539200   298.41415      0              2            
    539300   281.75046      0              2            
    539400   279.18929      0              2            
    539500   259.12117      0              2            
    539600   299.14257      0              2            
    539700   308.19611      0              2            
    539800   300.6163       0              2            
    539900   290.05634      0              2            
    540000   242.79567      0              2            
    540100   256.30656      0              2            
    540200   316.18488      0              2            
    540300   316.91658      0              2            
    540400   329.43803      0              2            
    540500   282.92251      0              2            
    540600   284.46439      0              2            
    540700   278.42819      0              2            
    540800   297.86148      0              2            
    540900   292.49107      0              2            
    541000   306.04405      0              2            
    541100   321.46609      0              2            
    541200   291.02591      0              2            
    541300   257.90088      0              2            
    541400   323.48989      0              2            
    541500   329.37144      0              2            
    541600   337.61936      0              2            
    541700   284.25261      0              2            
    541800   285.63797      0              2            
    541900   300.28525      0              2            
    542000   307.68178      0              2            
    542100   313.26015      0              2            
    542200   292.46266      0              2            
    542300   313.09367      0              2            
    542400   291.80079      0              2            
    542500   319.82306      0              2            
    542600   321.87196      0              2            
    542700   332.82215      0              2            
    542800   284.48249      0              2            
    542900   304.47827      0              2            
    543000   297.88137      0              2            
    543100   263.92302      0              2            
    543200   323.12634      0              2            
    543300   346.33122      0              2            
    543400   285.28667      0              2            
    543500   275.17714      0              2            
    543600   272.10116      0              2            
    543700   317.15122      0              2            
    543800   311.48104      0              2            
    543900   312.23286      0              2            
    544000   304.8781       0              2            
    544100   267.30164      0              2            
    544200   307.94266      0              2            
    544300   321.82237      0              2            
    544400   289.6649       0              2            
    544500   262.88091      0              2            
    544600   272.71934      0              2            
    544700   290.23495      0              2            
    544800   301.43015      0              2            
    544900   323.66315      0              2            
    545000   333.31828      0              2            
    545100   317.33165      0              2            
    545200   279.94525      0              2            
    545300   269.64372      0              2            
    545400   274.662        0              2            
    545500   297.22763      0              2            
    545600   305.33289      0              2            
    545700   289.63981      0              2            
    545800   273.21839      0              2            
    545900   265.57839      0              2            
    546000   261.82921      0              2            
    546100   290.63676      0              2            
    546200   280.81106      0              2            
    546300   321.51075      0              2            
    546400   331.99594      0              2            
    546500   362.49596      0              2            
    546600   302.88876      0              2            
    546700   279.72181      0              2            
    546800   279.88224      0              2            
    546900   315.82519      0              2            
    547000   338.69007      0              2            
    547100   300.86791      0              2            
    547200   285.31285      0              2            
    547300   306.75442      0              2            
    547400   295.38072      0              2            
    547500   300.55004      0              2            
    547600   325.06557      0              2            
    547700   309.11883      0              2            
    547800   319.11379      0              2            
    547900   296.80711      0              2            
    548000   283.50439      0              2            
    548100   276.16551      0              2            
    548200   293.39024      0              2            
    548300   289.26392      0              2            
    548400   333.59529      0              2            
    548500   326.69802      0              2            
    548600   310.98302      0              2            
    548700   300.72156      0              2            
    548800   277.74241      0              2            
    548900   282.69329      0              2            
    549000   328.84668      0              2            
    549100   302.65466      0              2            
    549200   267.26295      0              2            
    549300   265.11197      0              2            
    549400   291.48632      0              2            
    549500   312.82516      0              2            
    549600   301.32491      0              2            
    549700   283.91651      0              2            
    549800   270.85646      0              2            
    549900   256.73416      0              2            
    550000   303.67909      0              2            
    550100   305.91493      0              2            
    550200   305.44662      0              2            
    550300   336.83098      0              2            
    550400   254.26557      0              2            
    550500   263.75648      0              2            
    550600   305.78982      0              2            
    550700   346.91909      0              2            
    550800   307.27518      0              2            
    550900   279.16799      0              2            
    551000   250.94404      0              2            
    551100   237.54495      0              2            
    551200   281.25944      0              2            
    551300   330.45626      0              2            
    551400   281.41756      0              2            
    551500   304.52304      0              2            
    551600   312.47297      0              2            
    551700   320.88486      0              2            
    551800   304.89075      0              2            
    551900   339.57459      0              2            
    552000   339.16591      0              2            
    552100   291.77468      0              2            
    552200   312.71539      0              2            
    552300   289.11967      0              2            
    552400   316.55464      0              2            
    552500   368.49654      0              2            
    552600   330.80601      0              2            
    552700   270.84756      0              2            
    552800   279.66568      0              2            
    552900   323.93216      0              2            
    553000   349.70475      0              2            
    553100   335.69462      0              2            
    553200   324.5737       0              2            
    553300   291.49706      0              2            
    553400   293.88464      0              2            
    553500   290.79473      0              2            
    553600   357.58847      0              2            
    553700   310.17901      0              2            
    553800   282.76902      0              2            
    553900   298.41169      0              2            
    554000   278.70924      0              2            
    554100   274.60671      0              2            
    554200   292.38275      0              2            
    554300   315.7862       0              2            
    554400   275.15348      0              2            
    554500   281.17733      0              2            
    554600   311.76349      0              2            
    554700   264.12384      0              2            
    554800   272.07121      0              2            
    554900   316.6303       0              2            
    555000   322.62042      0              2            
    555100   301.51654      0              2            
    555200   273.55224      0              2            
    555300   287.93732      0              2            
    555400   338.67453      0              2            
    555500   332.31483      0              2            
    555600   305.40428      0              2            
    555700   293.09242      0              2            
    555800   311.40191      0              2            
    555900   277.28383      0              2            
    556000   321.09406      0              2            
    556100   334.80606      0              2            
    556200   351.7637       0              2            
    556300   318.01759      0              2            
    556400   286.99567      0              2            
    556500   286.62326      0              2            
    556600   286.58268      0              2            
    556700   339.90874      0              2            
    556800   288.43019      0              2            
    556900   279.531        0              2            
    557000   299.14949      0              2            
    557100   314.53604      0              2            
    557200   308.45267      0              2            
    557300   293.1351       0              2            
    557400   325.93616      0              2            
    557500   274.93373      0              2            
    557600   281.63821      0              2            
    557700   313.94079      0              2            
    557800   323.9305       0              2            
    557900   321.40515      0              2            
    558000   352.45929      0              2            
    558100   307.26355      0              2            
    558200   263.22857      0              2            
    558300   293.67188      0              2            
    558400   290.67064      0              2            
    558500   303.30796      0              2            
    558600   284.40717      0              2            
    558700   305.34297      0              2            
    558800   358.64719      0              2            
    558900   270.21094      0              2            
    559000   289.66355      0              2            
    559100   287.96029      0              2            
    559200   312.17129      0              2            
    559300   307.25755      0              2            
    559400   316.82584      0              2            
    559500   299.62678      0              2            
    559600   306.92427      0              2            
    559700   309.47528      0              2            
    559800   253.04668      0              2            
    559900   312.05638      0              2            
    560000   347.01474      0              2            
    560100   368.44447      0              2            
    560200   330.71279      0              2            
    560300   321.06134      0              2            
    560400   247.27367      0              2            
    560500   302.98229      0              2            
    560600   281.30121      0              2            
    560700   281.40673      0              2            
    560800   337.47671      0              2            
    560900   330.62673      0              2            
    561000   298.84887      0              2            
    561100   293.23215      0              2            
    561200   295.47429      0              2            
    561300   275.2197       0              2            
    561400   292.22144      0              2            
    561500   304.4557       0              2            
    561600   325.07628      0              2            
    561700   305.13279      0              2            
    561800   275.93211      0              2            
    561900   298.32233      0              2            
    562000   287.73217      0              2            
    562100   299.30208      0              2            
    562200   310.38366      0              2            
    562300   318.51999      0              2            
    562400   300.96658      0              2            
    562500   282.72962      0              2            
    562600   272.6778       0              2            
    562700   293.74085      0              2            
    562800   300.58294      0              2            
    562900   309.83199      0              2            
    563000   305.95013      0              2            
    563100   308.9058       0              2            
    563200   381.21224      0              2            
    563300   343.84882      0              2            
    563400   296.70948      0              2            
    563500   286.01002      0              2            
    563600   313.68483      0              2            
    563700   310.74854      0              2            
    563800   361.21024      0              2            
    563900   309.87716      0              2            
    564000   322.11726      0              2            
    564100   282.98242      0              2            
    564200   267.93453      0              2            
    564300   258.85028      0              2            
    564400   309.38266      0              2            
    564500   294.83334      0              2            
    564600   350.069        0              2            
    564700   350.81313      0              2            
    564800   306.22726      0              2            
    564900   284.64382      0              2            
    565000   295.35491      0              2            
    565100   320.9054       0              2            
    565200   307.19135      0              2            
    565300   303.53597      0              2            
    565400   299.59048      0              2            
    565500   320.39423      0              2            
    565600   306.93459      0              2            
    565700   298.69914      0              2            
    565800   276.13557      0              2            
    565900   294.72988      0              2            
    566000   311.19917      0              2            
    566100   285.19439      0              2            
    566200   270.17953      0              2            
    566300   252.48619      0              2            
    566400   247.58489      0              2            
    566500   292.85036      0              2            
    566600   316.93306      0              2            
    566700   329.86304      0              2            
    566800   274.09661      0              2            
    566900   289.75121      0              2            
    567000   276.34471      0              2            
    567100   248.42948      0              2            
    567200   277.96539      0              2            
    567300   281.82161      0              2            
    567400   317.07943      0              2            
    567500   276.51104      0              2            
    567600   288.31583      0              2            
    567700   324.20307      0              2            
    567800   308.7324       0              2            
    567900   304.71114      0              2            
    568000   321.75468      0              2            
    568100   315.84371      0              2            
    568200   276.55584      0              2            
    568300   296.59636      0              2            
    568400   344.52806      0              2            
    568500   286.96837      0              2            
    568600   274.025        0              2            
    568700   295.38841      0              2            
    568800   259.34669      0              2            
    568900   271.99366      0              2            
    569000   311.91534      0              2            
    569100   303.3121       0              2            
    569200   276.94232      0              2            
    569300   311.9644       0              2            
    569400   349.47527      0              2            
    569500   308.61161      0              2            
    569600   285.16235      0              2            
    569700   296.5481       0              2            
    569800   275.54374      0              2            
    569900   336.68532      0              2            
    570000   317.84584      0              2            
    570100   282.73583      0              2            
    570200   290.4701       0              2            
    570300   326.85462      0              2            
    570400   329.25565      0              2            
    570500   307.26651      0              2            
    570600   313.32893      0              2            
    570700   276.80853      0              2            
    570800   258.62957      0              2            
    570900   266.88537      0              2            
    571000   295.39908      0              2            
    571100   352.63469      0              2            
    571200   286.17027      0              2            
    571300   266.87344      0              2            
    571400   263.57063      0              2            
    571500   315.37815      0              2            
    571600   303.95018      0              2            
    571700   291.79942      0              2            
    571800   288.07192      0              2            
    571900   246.68139      0              2            
    572000   292.42434      0              2            
    572100   331.67027      0              2            
    572200   357.99981      0              2            
    572300   302.40044      0              2            
    572400   284.21464      0              2            
    572500   278.74747      0              2            
    572600   337.31724      0              2            
    572700   320.16879      0              2            
    572800   323.1235       0              2            
    572900   301.66307      0              2            
    573000   277.83805      0              2            
    573100   273.31759      0              2            
    573200   276.09214      0              2            
    573300   254.74618      0              2            
    573400   324.36094      0              2            
    573500   286.40619      0              2            
    573600   287.9384       0              2            
    573700   252.70079      0              2            
    573800   280.09333      0              2            
    573900   276.48867      0              2            
    574000   309.30236      0              2            
    574100   289.44786      0              2            
    574200   307.78485      0              2            
    574300   246.69236      0              2            
    574400   273.61645      0              2            
    574500   316.27579      0              2            
    574600   320.27519      0              2            
    574700   277.3966       0              2            
    574800   275.77796      0              2            
    574900   257.39396      0              2            
    575000   273.87626      0              2            
    575100   275.40762      0              2            
    575200   307.72408      0              2            
    575300   298.07147      0              2            
    575400   323.90328      0              2            
    575500   294.85691      0              2            
    575600   272.04283      0              2            
    575700   306.75024      0              2            
    575800   339.8833       0              2            
    575900   297.90787      0              2            
    576000   286.77381      0              2            
    576100   329.48202      0              2            
    576200   265.89586      0              2            
    576300   276.45989      0              2            
    576400   272.80146      0              2            
    576500   308.75516      0              2            
    576600   301.35417      0              2            
    576700   305.40728      0              2            
    576800   330.99813      0              2            
    576900   300.46163      0              2            
    577000   294.8942       0              2            
    577100   277.62757      0              2            
    577200   272.75785      0              2            
    577300   285.63104      0              2            
    577400   323.83651      0              2            
    577500   286.20953      0              2            
    577600   286.64858      0              2            
    577700   297.14167      0              2            
    577800   324.94381      0              2            
    577900   306.41256      0              2            
    578000   303.19576      0              2            
    578100   256.48523      0              2            
    578200   294.70563      0              2            
    578300   334.15274      0              2            
    578400   353.03424      0              2            
    578500   328.79281      0              2            
    578600   312.50405      0              2            
    578700   276.15554      0              2            
    578800   296.95243      0              2            
    578900   272.07462      0              2            
    579000   279.88991      0              2            
    579100   310.04994      0              2            
    579200   346.67173      0              2            
    579300   319.03507      0              2            
    579400   283.4486       0              2            
    579500   250.98563      0              2            
    579600   298.12544      0              2            
    579700   283.27629      0              2            
    579800   265.69895      0              2            
    579900   292.27006      0              2            
    580000   261.24976      0              2            
    580100   339.33195      0              2            
    580200   349.9474       0              2            
    580300   295.75117      0              2            
    580400   270.3704       0              2            
    580500   269.53645      0              2            
    580600   317.5685       0              2            
    580700   337.53971      0              2            
    580800   302.76589      0              2            
    580900   319.02887      0              2            
    581000   271.29175      0              2            
    581100   287.11024      0              2            
    581200   300.77882      0              2            
    581300   277.40936      0              2            
    581400   291.98065      0              2            
    581500   296.88385      0              2            
    581600   296.74937      0              2            
    581700   291.90692      0              2            
    581800   279.98472      0              2            
    581900   285.57524      0              2            
    582000   288.77846      0              2            
    582100   298.25001      0              2            
    582200   317.66225      0              2            
    582300   309.36772      0              2            
    582400   305.87241      0              2            
    582500   289.04977      0              2            
    582600   263.6412       0              2            
    582700   280.37003      0              2            
    582800   310.11491      0              2            
    582900   320.24742      0              2            
    583000   350.40636      0              2            
    583100   311.129        0              2            
    583200   266.53905      0              2            
    583300   277.68541      0              2            
    583400   286.78415      0              2            
    583500   277.11101      0              2            
    583600   310.08138      0              2            
    583700   353.90487      0              2            
    583800   296.52968      0              2            
    583900   277.9693       0              2            
    584000   258.01511      0              2            
    584100   300.0978       0              2            
    584200   295.53464      0              2            
    584300   322.03528      0              2            
    584400   300.73583      0              2            
    584500   317.0832       0              2            
    584600   243.46548      0              2            
    584700   271.67881      0              2            
    584800   268.23246      0              2            
    584900   256.39779      0              2            
    585000   287.95185      0              2            
    585100   301.87245      0              2            
    585200   283.63041      0              2            
    585300   278.27627      0              2            
    585400   273.70054      0              2            
    585500   287.04962      0              2            
    585600   303.78448      0              2            
    585700   301.33668      0              2            
    585800   314.35631      0              2            
    585900   312.76476      0              2            
    586000   257.23717      0              2            
    586100   278.89187      0              2            
    586200   294.10922      0              2            
    586300   307.69736      0              2            
    586400   328.41847      0              2            
    586500   275.17785      0              2            
    586600   289.73884      0              2            
    586700   326.38735      0              2            
    586800   328.12222      0              2            
    586900   335.45644      0              2            
    587000   279.86079      0              2            
    587100   267.65396      0              2            
    587200   317.5139       0              2            
    587300   321.92752      0              2            
    587400   311.69751      0              2            
    587500   287.56888      0              2            
    587600   281.52985      0              2            
    587700   295.80688      0              2            
    587800   315.67213      0              2            
    587900   292.24817      0              2            
    588000   309.21303      0              2            
    588100   266.45605      0              2            
    588200   274.24532      0              2            
    588300   318.41249      0              2            
    588400   336.25604      0              2            
    588500   278.67398      0              2            
    588600   279.51775      0              2            
    588700   248.52581      0              2            
    588800   290.29262      0              2            
    588900   332.43205      0              2            
    589000   305.14266      0              2            
    589100   311.01667      0              2            
    589200   285.21065      0              2            
    589300   285.82603      0              2            
    589400   286.84997      0              2            
    589500   299.34909      0              2            
    589600   271.08703      0              2            
    589700   299.99561      0              2            
    589800   340.65948      0              2            
    589900   314.28611      0              2            
    590000   318.70657      0              2            
    590100   275.83536      0              2            
    590200   329.04102      0              2            
    590300   289.59778      0              2            
    590400   327.02144      0              2            
    590500   342.8009       0              2            
    590600   300.55125      0              2            
    590700   288.62157      0              2            
    590800   285.15855      0              2            
    590900   317.92425      0              2            
    591000   322.9468       0              2            
    591100   340.55867      0              2            
    591200   296.8647       0              2            
    591300   319.45796      0              2            
    591400   268.98117      0              2            
    591500   294.36025      0              2            
    591600   266.94311      0              2            
    591700   241.1869       0              2            
    591800   285.45171      0              2            
    591900   309.01106      0              2            
    592000   329.73284      0              2            
    592100   299.72387      0              2            
    592200   256.75754      0              2            
    592300   294.12897      0              2            
    592400   271.60122      0              2            
    592500   317.75027      0              2            
    592600   266.10057      0              2            
    592700   303.59285      0              2            
    592800   321.85238      0              2            
    592900   334.47692      0              2            
    593000   286.45721      0              2            
    593100   318.51834      0              2            
    593200   305.89619      0              2            
    593300   343.34069      0              2            
    593400   313.99992      0              2            
    593500   273.60834      0              2            
    593600   298.38965      0              2            
    593700   262.76062      0              2            
    593800   282.12353      0              2            
    593900   297.33415      0              2            
    594000   327.63536      0              2            
    594100   277.19156      0              2            
    594200   278.35221      0              2            
    594300   296.81177      0              2            
    594400   319.19868      0              2            
    594500   304.50456      0              2            
    594600   309.78057      0              2            
    594700   284.84897      0              2            
    594800   274.78168      0              2            
    594900   288.64717      0              2            
    595000   318.43925      0              2            
    595100   317.01612      0              2            
    595200   334.59741      0              2            
    595300   254.2956       0              2            
    595400   277.18279      0              2            
    595500   307.05906      0              2            
    595600   297.1582       0              2            
    595700   313.85558      0              2            
    595800   305.20386      0              2            
    595900   316.59287      0              2            
    596000   336.97394      0              2            
    596100   318.53022      0              2            
    596200   306.03355      0              2            
    596300   280.19767      0              2            
    596400   298.91461      0              2            
    596500   339.3303       0              2            
    596600   280.35704      0              2            
    596700   288.61873      0              2            
    596800   287.06732      0              2            
    596900   297.34282      0              2            
    597000   304.70878      0              2            
    597100   279.4081       0              2            
    597200   265.85125      0              2            
    597300   306.95576      0              2            
    597400   348.2948       0              2            
    597500   311.01571      0              2            
    597600   268.23818      0              2            
    597700   271.13035      0              2            
    597800   312.17387      0              2            
    597900   297.71587      0              2            
    598000   325.97812      0              2            
    598100   289.78761      0              2            
    598200   278.00472      0              2            
    598300   281.7645       0              2            
    598400   300.3196       0              2            
    598500   304.99719      0              2            
    598600   270.99557      0              2            
    598700   257.38289      0              2            
    598800   286.44032      0              2            
    598900   254.70236      0              2            
    599000   255.64207      0              2            
    599100   321.55996      0              2            
    599200   310.62538      0              2            
    599300   319.15652      0              2            
    599400   292.0939       0              2            
    599500   252.97723      0              2            
    599600   275.29795      0              2            
    599700   268.73224      0              2            
    599800   297.83973      0              2            
    599900   308.23689      0              2            
    600000   332.07585      0              2            
    600100   388.39271      0              2            
    600200   315.11315      0              2            
    600300   307.63576      0              2            
    600400   311.38464      0              2            
    600500   276.10054      0              2            
    600600   268.43838      0              2            
    600700   288.13877      0              2            
    600800   321.12168      0              2            
    600900   316.90419      0              2            
    601000   293.34875      0              2            
    601100   281.95877      0              2            
    601200   320.435        0              2            
    601300   307.12062      0              2            
    601400   310.55709      0              2            
    601500   323.27481      0              2            
    601600   304.58299      0              2            
    601700   299.81546      0              2            
    601800   309.45879      0              2            
    601900   345.57533      0              2            
    602000   335.92425      0              2            
    602100   307.8015       0              2            
    602200   280.17914      0              2            
    602300   315.89352      0              2            
    602400   315.00212      0              2            
    602500   307.10558      0              2            
    602600   294.24554      0              2            
    602700   291.15716      0              2            
    602800   327.78928      0              2            
    602900   308.37565      0              2            
    603000   315.3937       0              2            
    603100   250.37924      0              2            
    603200   252.78397      0              2            
    603300   289.16198      0              2            
    603400   280.98015      0              2            
    603500   300.61         0              2            
    603600   270.45133      0              2            
    603700   274.62198      0              2            
    603800   278.79117      0              2            
    603900   270.56141      0              2            
    604000   304.63277      0              2            
    604100   287.72191      0              2            
    604200   298.8388       0              2            
    604300   265.57617      0              2            
    604400   259.60631      0              2            
    604500   281.13166      0              2            
    604600   326.94853      0              2            
    604700   307.81872      0              2            
    604800   305.79547      0              2            
    604900   312.65336      0              2            
    605000   281.13093      0              2            
    605100   315.53045      0              2            
    605200   315.42387      0              2            
    605300   323.33341      0              2            
    605400   293.01284      0              2            
    605500   283.24339      0              2            
    605600   307.01951      0              2            
    605700   311.02059      0              2            
    605800   290.02888      0              2            
    605900   307.2337       0              2            
    606000   355.42374      0              2            
    606100   325.9063       0              2            
    606200   297.77857      0              2            
    606300   280.37892      0              2            
    606400   293.30021      0              2            
    606500   282.4719       0              2            
    606600   372.91629      0              2            
    606700   293.56241      0              2            
    606800   308.31614      0              2            
    606900   309.90616      0              2            
    607000   317.69746      0              2            
    607100   282.42634      0              2            
    607200   292.66476      0              2            
    607300   354.27515      0              2            
    607400   323.05438      0              2            
    607500   297.1147       0              2            
    607600   294.01644      0              2            
    607700   279.2103       0              2            
    607800   312.80903      0              2            
    607900   325.12789      0              2            
    608000   266.18085      0              2            
    608100   309.80695      0              2            
    608200   297.50225      0              2            
    608300   324.49465      0              2            
    608400   312.47352      0              2            
    608500   290.19143      0              2            
    608600   275.93013      0              2            
    608700   294.05287      0              2            
    608800   304.08918      0              2            
    608900   314.2417       0              2            
    609000   274.98455      0              2            
    609100   270.25754      0              2            
    609200   284.90464      0              2            
    609300   297.62533      0              2            
    609400   318.04496      0              2            
    609500   318.21413      0              2            
    609600   275.17363      0              2            
    609700   267.8627       0              2            
    609800   235.36599      0              2            
    609900   285.40053      0              2            
    610000   288.88196      0              2            
    610100   296.88308      0              2            
    610200   333.37181      0              2            
    610300   296.52686      0              2            
    610400   270.96127      0              2            
    610500   253.77973      0              2            
    610600   353.94838      0              2            
    610700   283.67         0              2            
    610800   327.26141      0              2            
    610900   364.81933      0              2            
    611000   315.40747      0              2            
    611100   319.88062      0              2            
    611200   244.7344       0              2            
    611300   319.80197      0              2            
    611400   297.41311      0              2            
    611500   314.93524      0              2            
    611600   324.32037      0              2            
    611700   338.10899      0              2            
    611800   276.40734      0              2            
    611900   285.72462      0              2            
    612000   297.46798      0              2            
    612100   318.88865      0              2            
    612200   335.44933      0              2            
    612300   338.24448      0              2            
    612400   262.30464      0              2            
    612500   278.78258      0              2            
    612600   329.24791      0              2            
    612700   336.52156      0              2            
    612800   302.37723      0              2            
    612900   280.97692      0              2            
    613000   288.47929      0              2            
    613100   290.02144      0              2            
    613200   283.26293      0              2            
    613300   283.39733      0              2            
    613400   319.75536      0              2            
    613500   307.3599       0              2            
    613600   281.39807      0              2            
    613700   289.1261       0              2            
    613800   278.66487      0              2            
    613900   298.9879       0              2            
    614000   324.25647      0              2            
    614100   321.4535       0              2            
    614200   289.08846      0              2            
    614300   300.96023      0              2            
    614400   281.34574      0              2            
    614500   309.10852      0              2            
    614600   347.68322      0              2            
    614700   342.80126      0              2            
    614800   317.53049      0              2            
    614900   262.84795      0              2            
    615000   268.69797      0              2            
    615100   297.77232      0              2            
    615200   295.35853      0              2            
    615300   344.03824      0              2            
    615400   300.05027      0              2            
    615500   293.68027      0              2            
    615600   288.33414      0              2            
    615700   327.33722      0              2            
    615800   310.74899      0              2            
    615900   298.25009      0              2            
    616000   309.91596      0              2            
    616100   266.52872      0              2            
    616200   330.35973      0              2            
    616300   284.40334      0              2            
    616400   261.11194      0              2            
    616500   258.24529      0              2            
    616600   319.96508      0              2            
    616700   337.42269      0              2            
    616800   297.30869      0              2            
    616900   295.15657      0              2            
    617000   263.33284      0              2            
    617100   237.77123      0              2            
    617200   223.91678      0              2            
    617300   261.58779      0              2            
    617400   319.74854      0              2            
    617500   306.2706       0              2            
    617600   302.56675      0              2            
    617700   302.22442      0              2            
    617800   356.76411      0              2            
    617900   303.74307      0              2            
    618000   264.26752      0              2            
    618100   260.8698       0              2            
    618200   286.18895      0              2            
    618300   321.24016      0              2            
    618400   346.85754      0              2            
    618500   314.87912      0              2            
    618600   302.38929      0              2            
    618700   290.58089      0              2            
    618800   298.32959      0              2            
    618900   337.5185       0              2            
    619000   274.29596      0              2            
    619100   281.2689       0              2            
    619200   293.34919      0              2            
    619300   312.57932      0              2            
    619400   343.33747      0              2            
    619500   309.71047      0              2            
    619600   306.72385      0              2            
    619700   298.25054      0              2            
    619800   273.68358      0              2            
    619900   288.9968       0              2            
    620000   324.59812      0              2            
    620100   329.22244      0              2            
    620200   297.98703      0              2            
    620300   248.31628      0              2            
    620400   286.50576      0              2            
    620500   323.34415      0              2            
    620600   284.41658      0              2            
    620700   270.55687      0              2            
    620800   292.75808      0              2            
    620900   339.14446      0              2            
    621000   334.53939      0              2            
    621100   285.65246      0              2            
    621200   326.11157      0              2            
    621300   290.84069      0              2            
    621400   325.77853      0              2            
    621500   333.17809      0              2            
    621600   315.97578      0              2            
    621700   289.20146      0              2            
    621800   296.59335      0              2            
    621900   278.67103      0              2            
    622000   346.12664      0              2            
    622100   321.81128      0              2            
    622200   296.80526      0              2            
    622300   290.04062      0              2            
    622400   293.22012      0              2            
    622500   265.58069      0              2            
    622600   314.34652      0              2            
    622700   304.37547      0              2            
    622800   285.35884      0              2            
    622900   305.76762      0              2            
    623000   274.46327      0              2            
    623100   296.95538      0              2            
    623200   313.33718      0              2            
    623300   277.85653      0              2            
    623400   279.43441      0              2            
    623500   267.683        0              2            
    623600   286.39862      0              2            
    623700   323.67454      0              2            
    623800   342.63351      0              2            
    623900   280.08853      0              2            
    624000   264.04213      0              2            
    624100   295.29908      0              2            
    624200   329.16547      0              2            
    624300   308.31078      0              2            
    624400   274.99385      0              2            
    624500   323.11075      0              2            
    624600   329.96208      0              2            
    624700   283.33476      0              2            
    624800   262.03387      0              2            
    624900   301.01667      0              2            
    625000   344.94669      0              2            
    625100   301.20379      0              2            
    625200   269.37435      0              2            
    625300   266.33203      0              2            
    625400   290.60342      0              2            
    625500   315.12916      0              2            
    625600   298.8476       0              2            
    625700   282.03081      0              2            
    625800   275.06984      0              2            
    625900   256.99732      0              2            
    626000   298.53959      0              2            
    626100   289.28152      0              2            
    626200   274.183        0              2            
    626300   304.33515      0              2            
    626400   280.91526      0              2            
    626500   248.13295      0              2            
    626600   274.12921      0              2            
    626700   315.38104      0              2            
    626800   307.85227      0              2            
    626900   307.64408      0              2            
    627000   265.45811      0              2            
    627100   250.4585       0              2            
    627200   319.91337      0              2            
    627300   328.77314      0              2            
    627400   323.25198      0              2            
    627500   297.12444      0              2            
    627600   282.65221      0              2            
    627700   320.13582      0              2            
    627800   313.76903      0              2            
    627900   337.08623      0              2            
    628000   325.57918      0              2            
    628100   294.26195      0              2            
    628200   305.94285      0              2            
    628300   266.95591      0              2            
    628400   310.54151      0              2            
    628500   322.87276      0              2            
    628600   315.68615      0              2            
    628700   333.67085      0              2            
    628800   300.71928      0              2            
    628900   283.95887      0              2            
    629000   304.5892       0              2            
    629100   314.01076      0              2            
    629200   319.99368      0              2            
    629300   272.77042      0              2            
    629400   307.3774       0              2            
    629500   299.50466      0              2            
    629600   322.87264      0              2            
    629700   317.96823      0              2            
    629800   331.16557      0              2            
    629900   284.94307      0              2            
    630000   317.21341      0              2            
    630100   293.9287       0              2            
    630200   337.83263      0              2            
    630300   334.35755      0              2            
    630400   327.89912      0              2            
    630500   313.18695      0              2            
    630600   286.48249      0              2            
    630700   283.71107      0              2            
    630800   252.11483      0              2            
    630900   330.09996      0              2            
    631000   330.39125      0              2            
    631100   284.33295      0              2            
    631200   273.75669      0              2            
    631300   263.96088      0              2            
    631400   287.28617      0              2            
    631500   309.9936       0              2            
    631600   310.46028      0              2            
    631700   258.21748      0              2            
    631800   268.70425      0              2            
    631900   271.46237      0              2            
    632000   273.26121      0              2            
    632100   313.79361      0              2            
    632200   321.45216      0              2            
    632300   289.93896      0              2            
    632400   308.17204      0              2            
    632500   218.08312      0              2            
    632600   273.84235      0              2            
    632700   278.24664      0              2            
    632800   280.61994      0              2            
    632900   309.3919       0              2            
    633000   312.49014      0              2            
    633100   291.80473      0              2            
    633200   288.33125      0              2            
    633300   322.18753      0              2            
    633400   296.70946      0              2            
    633500   322.31029      0              2            
    633600   320.61256      0              2            
    633700   364.47984      0              2            
    633800   319.55476      0              2            
    633900   308.77482      0              2            
    634000   307.84523      0              2            
    634100   293.58236      0              2            
    634200   330.90507      0              2            
    634300   324.82601      0              2            
    634400   322.00494      0              2            
    634500   282.25294      0              2            
    634600   281.60658      0              2            
    634700   273.70225      0              2            
    634800   323.26237      0              2            
    634900   314.16234      0              2            
    635000   272.16686      0              2            
    635100   277.05601      0              2            
    635200   279.17136      0              2            
    635300   325.28736      0              2            
    635400   322.33062      0              2            
    635500   296.16477      0              2            
    635600   307.62183      0              2            
    635700   264.67152      0              2            
    635800   252.44741      0              2            
    635900   268.17174      0              2            
    636000   308.04961      0              2            
    636100   292.65411      0              2            
    636200   276.24624      0              2            
    636300   288.54736      0              2            
    636400   251.91427      0              2            
    636500   304.45552      0              2            
    636600   323.87572      0              2            
    636700   307.29253      0              2            
    636800   283.66764      0              2            
    636900   340.32563      0              2            
    637000   322.6492       0              2            
    637100   304.70587      0              2            
    637200   285.29911      0              2            
    637300   299.12213      0              2            
    637400   330.84725      0              2            
    637500   320.3213       0              2            
    637600   294.41892      0              2            
    637700   283.23688      0              2            
    637800   284.93351      0              2            
    637900   316.50199      0              2            
    638000   316.34519      0              2            
    638100   297.90961      0              2            
    638200   280.87775      0              2            
    638300   328.06039      0              2            
    638400   331.24354      0              2            
    638500   291.46014      0              2            
    638600   310.4908       0              2            
    638700   267.19118      0              2            
    638800   303.56452      0              2            
    638900   341.19915      0              2            
    639000   312.91212      0              2            
    639100   335.41431      0              2            
    639200   284.89043      0              2            
    639300   322.44217      0              2            
    639400   278.87205      0              2            
    639500   340.38569      0              2            
    639600   378.73775      0              2            
    639700   274.38055      0              2            
    639800   278.97045      0              2            
    639900   323.93959      0              2            
    640000   310.65652      0              2            
    640100   316.20543      0              2            
    640200   283.74953      0              2            
    640300   280.26263      0              2            
    640400   287.64105      0              2            
    640500   326.74472      0              2            
    640600   308.08119      0              2            
    640700   284.44302      0              2            
    640800   295.76857      0              2            
    640900   256.8449       0              2            
    641000   309.36122      0              2            
    641100   312.56166      0              2            
    641200   339.5344       0              2            
    641300   355.15529      0              2            
    641400   281.3735       0              2            
    641500   301.74858      0              2            
    641600   303.95489      0              2            
    641700   309.09089      0              2            
    641800   310.51808      0              2            
    641900   302.06679      0              2            
    642000   240.64673      0              2            
    642100   264.90896      0              2            
    642200   269.70199      0              2            
    642300   304.81699      0              2            
    642400   321.45509      0              2            
    642500   301.37991      0              2            
    642600   273.71969      0              2            
    642700   290.81154      0              2            
    642800   336.2221       0              2            
    642900   347.39698      0              2            
    643000   326.40306      0              2            
    643100   293.93928      0              2            
    643200   293.30017      0              2            
    643300   318.47565      0              2            
    643400   288.93674      0              2            
    643500   297.2408       0              2            
    643600   326.02462      0              2            
    643700   284.98041      0              2            
    643800   314.30565      0              2            
    643900   295.96334      0              2            
    644000   346.92103      0              2            
    644100   316.61925      0              2            
    644200   267.2942       0              2            
    644300   295.97352      0              2            
    644400   307.33359      0              2            
    644500   320.18272      0              2            
    644600   327.7231       0              2            
    644700   368.89498      0              2            
    644800   300.77329      0              2            
    644900   292.64914      0              2            
    645000   307.85368      0              2            
    645100   292.62334      0              2            
    645200   320.68053      0              2            
    645300   320.56773      0              2            
    645400   282.64827      0              2            
    645500   277.81083      0              2            
    645600   304.5483       0              2            
    645700   325.381        0              2            
    645800   331.34538      0              2            
    645900   287.58964      0              2            
    646000   247.41729      0              2            
    646100   281.37773      0              2            
    646200   295.76439      0              2            
    646300   318.00281      0              2            
    646400   299.45515      0              2            
    646500   266.99134      0              2            
    646600   288.15769      0              2            
    646700   297.67692      0              2            
    646800   311.36699      0              2            
    646900   308.68888      0              2            
    647000   262.47725      0              2            
    647100   270.99684      0              2            
    647200   279.39682      0              2            
    647300   339.16239      0              2            
    647400   356.21419      0              2            
    647500   291.98122      0              2            
    647600   291.82074      0              2            
    647700   287.54157      0              2            
    647800   319.68421      0              2            
    647900   334.57504      0              2            
    648000   335.66782      0              2            
    648100   274.64954      0              2            
    648200   297.38377      0              2            
    648300   301.45192      0              2            
    648400   309.76189      0              2            
    648500   349.25746      0              2            
    648600   364.45762      0              2            
    648700   327.67326      0              2            
    648800   271.49847      0              2            
    648900   288.03715      0              2            
    649000   311.53917      0              2            
    649100   266.7726       0              2            
    649200   280.16845      0              2            
    649300   247.44035      0              2            
    649400   294.49449      0              2            
    649500   298.879        0              2            
    649600   307.40874      0              2            
    649700   282.56955      0              2            
    649800   306.84623      0              2            
    649900   288.31116      0              2            
    650000   358.01925      0              2            
    650100   301.88942      0              2            
    650200   305.57197      0              2            
    650300   290.27865      0              2            
    650400   315.00225      0              2            
    650500   316.53249      0              2            
    650600   310.61695      0              2            
    650700   322.95328      0              2            
    650800   302.06631      0              2            
    650900   281.0885       0              2            
    651000   265.31106      0              2            
    651100   312.04681      0              2            
    651200   282.08985      0              2            
    651300   303.37424      0              2            
    651400   300.70697      0              2            
    651500   263.93283      0              2            
    651600   274.4759       0              2            
    651700   297.28406      0              2            
    651800   290.64165      0              2            
    651900   297.81986      0              2            
    652000   297.3205       0              2            
    652100   255.72304      0              2            
    652200   323.1532       0              2            
    652300   328.57041      0              2            
    652400   356.55947      0              2            
    652500   281.74772      0              2            
    652600   276.10222      0              2            
    652700   287.67336      0              2            
    652800   326.28782      0              2            
    652900   338.81854      0              2            
    653000   304.60619      0              2            
    653100   305.82409      0              2            
    653200   259.36448      0              2            
    653300   294.55546      0              2            
    653400   314.53636      0              2            
    653500   281.834        0              2            
    653600   252.25525      0              2            
    653700   254.95728      0              2            
    653800   319.70067      0              2            
    653900   309.12586      0              2            
    654000   317.93615      0              2            
    654100   307.21025      0              2            
    654200   334.12136      0              2            
    654300   278.68265      0              2            
    654400   258.56655      0              2            
    654500   261.08521      0              2            
    654600   281.16751      0              2            
    654700   324.57208      0              2            
    654800   311.20012      0              2            
    654900   275.56062      0              2            
    655000   229.47634      0              2            
    655100   266.65181      0              2            
    655200   291.19305      0              2            
    655300   298.13709      0              2            
    655400   319.6639       0              2            
    655500   298.75656      0              2            
    655600   279.77996      0              2            
    655700   268.40124      0              2            
    655800   340.96975      0              2            
    655900   333.58614      0              2            
    656000   291.01455      0              2            
    656100   298.50158      0              2            
    656200   251.24447      0              2            
    656300   322.89369      0              2            
    656400   326.80473      0              2            
    656500   326.13551      0              2            
    656600   325.85709      0              2            
    656700   284.05427      0              2            
    656800   280.87313      0              2            
    656900   314.92703      0              2            
    657000   337.16184      0              2            
    657100   312.06663      0              2            
    657200   272.94117      0              2            
    657300   253.34554      0              2            
    657400   308.86841      0              2            
    657500   306.81358      0              2            
    657600   307.17516      0              2            
    657700   277.00179      0              2            
    657800   269.01987      0              2            
    657900   316.53858      0              2            
    658000   291.34324      0              2            
    658100   339.98226      0              2            
    658200   286.49853      0              2            
    658300   255.9984       0              2            
    658400   273.21352      0              2            
    658500   293.38038      0              2            
    658600   296.34617      0              2            
    658700   316.82938      0              2            
    658800   324.02562      0              2            
    658900   263.21143      0              2            
    659000   261.74115      0              2            
    659100   287.55163      0              2            
    659200   341.99429      0              2            
    659300   299.28288      0              2            
    659400   303.01998      0              2            
    659500   258.64795      0              2            
    659600   285.71061      0              2            
    659700   301.153        0              2            
    659800   274.52712      0              2            
    659900   318.07385      0              2            
    660000   289.90551      0              2            
    660100   317.15193      0              2            
    660200   327.59686      0              2            
    660300   320.49792      0              2            
    660400   294.42604      0              2            
    660500   294.94518      0              2            
    660600   287.807        0              2            
    660700   314.8271       0              2            
    660800   330.30406      0              2            
    660900   352.88749      0              2            
    661000   287.48334      0              2            
    661100   266.47939      0              2            
    661200   293.34573      0              2            
    661300   278.60647      0              2            
    661400   331.12495      0              2            
    661500   308.27735      0              2            
    661600   276.68648      0              2            
    661700   284.96107      0              2            
    661800   293.29417      0              2            
    661900   315.59235      0              2            
    662000   328.58131      0              2            
    662100   292.53837      0              2            
    662200   286.65443      0              2            
    662300   325.67276      0              2            
    662400   327.82034      0              2            
    662500   327.77101      0              2            
    662600   306.76141      0              2            
    662700   330.60629      0              2            
    662800   271.63228      0              2            
    662900   322.30956      0              2            
    663000   349.56293      0              2            
    663100   297.53243      0              2            
    663200   295.47222      0              2            
    663300   305.56815      0              2            
    663400   293.98316      0              2            
    663500   334.69961      0              2            
    663600   330.38509      0              2            
    663700   288.38529      0              2            
    663800   277.1377       0              2            
    663900   313.76417      0              2            
    664000   293.02876      0              2            
    664100   284.43832      0              2            
    664200   275.22977      0              2            
    664300   299.33401      0              2            
    664400   343.52244      0              2            
    664500   264.39867      0              2            
    664600   278.22593      0              2            
    664700   279.16561      0              2            
    664800   302.66073      0              2            
    664900   286.25474      0              2            
    665000   300.29955      0              2            
    665100   339.68744      0              2            
    665200   340.43555      0              2            
    665300   301.56056      0              2            
    665400   313.01462      0              2            
    665500   257.53319      0              2            
    665600   268.57431      0              2            
    665700   290.82011      0              2            
    665800   311.65433      0              2            
    665900   266.70343      0              2            
    666000   334.53558      0              2            
    666100   289.87028      0              2            
    666200   298.38654      0              2            
    666300   313.6609       0              2            
    666400   352.8205       0              2            
    666500   331.60492      0              2            
    666600   293.42792      0              2            
    666700   327.75622      0              2            
    666800   296.19111      0              2            
    666900   310.73047      0              2            
    667000   314.98435      0              2            
    667100   263.32259      0              2            
    667200   265.60029      0              2            
    667300   297.73881      0              2            
    667400   286.39863      0              2            
    667500   331.71582      0              2            
    667600   352.98247      0              2            
    667700   315.0664       0              2            
    667800   313.04295      0              2            
    667900   295.8922       0              2            
    668000   277.83408      0              2            
    668100   316.05285      0              2            
    668200   353.12957      0              2            
    668300   321.471        0              2            
    668400   296.8485       0              2            
    668500   285.40203      0              2            
    668600   316.75825      0              2            
    668700   339.63793      0              2            
    668800   352.95755      0              2            
    668900   317.43767      0              2            
    669000   297.45547      0              2            
    669100   272.30635      0              2            
    669200   336.34357      0              2            
    669300   310.95499      0              2            
    669400   299.06865      0              2            
    669500   309.57767      0              2            
    669600   298.75154      0              2            
    669700   299.03585      0              2            
    669800   340.62844      0              2            
    669900   298.33507      0              2            
    670000   308.66528      0              2            
    670100   277.37936      0              2            
    670200   319.12514      0              2            
    670300   274.72353      0              2            
    670400   319.66494      0              2            
    670500   268.4162       0              2            
    670600   281.9245       0              2            
    670700   286.08441      0              2            
    670800   276.39121      0              2            
    670900   308.77111      0              2            
    671000   293.62306      0              2            
    671100   318.43107      0              2            
    671200   333.12787      0              2            
    671300   301.90403      0              2            
    671400   256.46874      0              2            
    671500   271.11914      0              2            
    671600   292.04188      0              2            
    671700   294.60408      0              2            
    671800   348.69355      0              2            
    671900   284.65632      0              2            
    672000   310.08737      0              2            
    672100   321.68535      0              2            
    672200   334.59203      0              2            
    672300   303.02531      0              2            
    672400   292.68959      0              2            
    672500   305.19489      0              2            
    672600   303.57974      0              2            
    672700   324.87114      0              2            
    672800   306.71447      0              2            
    672900   327.1359       0              2            
    673000   322.73131      0              2            
    673100   306.59443      0              2            
    673200   274.75453      0              2            
    673300   307.01748      0              2            
    673400   321.49196      0              2            
    673500   342.15357      0              2            
    673600   282.75213      0              2            
    673700   282.59414      0              2            
    673800   292.42188      0              2            
    673900   332.16655      0              2            
    674000   334.04231      0              2            
    674100   299.8392       0              2            
    674200   339.36073      0              2            
    674300   311.92848      0              2            
    674400   268.89669      0              2            
    674500   349.26924      0              2            
    674600   353.73373      0              2            
    674700   247.85916      0              2            
    674800   280.81623      0              2            
    674900   341.99956      0              2            
    675000   288.52107      0              2            
    675100   257.93281      0              2            
    675200   269.37673      0              2            
    675300   289.59899      0              2            
    675400   305.68196      0              2            
    675500   329.89699      0              2            
    675600   319.05048      0              2            
    675700   314.5595       0              2            
    675800   272.80339      0              2            
    675900   314.82729      0              2            
    676000   282.35706      0              2            
    676100   301.39717      0              2            
    676200   319.37489      0              2            
    676300   296.00539      0              2            
    676400   287.55652      0              2            
    676500   284.01938      0              2            
    676600   330.11777      0              2            
    676700   354.21281      0              2            
    676800   327.86223      0              2            
    676900   301.77971      0              2            
    677000   286.5822       0              2            
    677100   283.67764      0              2            
    677200   288.21738      0              2            
    677300   352.10861      0              2            
    677400   311.41974      0              2            
    677500   324.28112      0              2            
    677600   311.74057      0              2            
    677700   260.50066      0              2            
    677800   314.18962      0              2            
    677900   364.04416      0              2            
    678000   317.87264      0              2            
    678100   279.49073      0              2            
    678200   307.03381      0              2            
    678300   276.17198      0              2            
    678400   322.39443      0              2            
    678500   329.11617      0              2            
    678600   308.95866      0              2            
    678700   305.9443       0              2            
    678800   308.62259      0              2            
    678900   321.64169      0              2            
    679000   296.22535      0              2            
    679100   304.99817      0              2            
    679200   279.05958      0              2            
    679300   310.62374      0              2            
    679400   259.2848       0              2            
    679500   271.76689      0              2            
    679600   329.72043      0              2            
    679700   309.67186      0              2            
    679800   271.68614      0              2            
    679900   283.29323      0              2            
    680000   288.39544      0              2            
    680100   293.72074      0              2            
    680200   277.97914      0              2            
    680300   321.50216      0              2            
    680400   321.20688      0              2            
    680500   252.2707       0              2            
    680600   281.95285      0              2            
    680700   267.4358       0              2            
    680800   319.74321      0              2            
    680900   299.35357      0              2            
    681000   289.25495      0              2            
    681100   300.08846      0              2            
    681200   273.82098      0              2            
    681300   339.55132      0              2            
    681400   316.32322      0              2            
    681500   294.91683      0              2            
    681600   281.4608       0              2            
    681700   318.12636      0              2            
    681800   322.60942      0              2            
    681900   343.56031      0              2            
    682000   351.22867      0              2            
    682100   316.88036      0              2            
    682200   283.81006      0              2            
    682300   288.49061      0              2            
    682400   327.85562      0              2            
    682500   318.64142      0              2            
    682600   264.78442      0              2            
    682700   299.43964      0              2            
    682800   320.94498      0              2            
    682900   321.57196      0              2            
    683000   300.6025       0              2            
    683100   326.16042      0              2            
    683200   258.30866      0              2            
    683300   317.04144      0              2            
    683400   309.12977      0              2            
    683500   316.80407      0              2            
    683600   309.65422      0              2            
    683700   284.31997      0              2            
    683800   315.25963      0              2            
    683900   255.27354      0              2            
    684000   287.0533       0              2            
    684100   289.57257      0              2            
    684200   307.71758      0              2            
    684300   324.38386      0              2            
    684400   311.87424      0              2            
    684500   271.98876      0              2            
    684600   276.46732      0              2            
    684700   295.73076      0              2            
    684800   309.00025      0              2            
    684900   317.64658      0              2            
    685000   307.52724      0              2            
    685100   305.73107      0              2            
    685200   291.56932      0              2            
    685300   260.86283      0              2            
    685400   300.76219      0              2            
    685500   340.4297       0              2            
    685600   305.25972      0              2            
    685700   282.68449      0              2            
    685800   297.54853      0              2            
    685900   309.30191      0              2            
    686000   294.7458       0              2            
    686100   339.21991      0              2            
    686200   349.52447      0              2            
    686300   298.53879      0              2            
    686400   286.04429      0              2            
    686500   271.07263      0              2            
    686600   311.97959      0              2            
    686700   324.39558      0              2            
    686800   349.21772      0              2            
    686900   272.65045      0              2            
    687000   278.38354      0              2            
    687100   300.82765      0              2            
    687200   309.45952      0              2            
    687300   302.96851      0              2            
    687400   274.83491      0              2            
    687500   259.12701      0              2            
    687600   250.4304       0              2            
    687700   288.06077      0              2            
    687800   281.98491      0              2            
    687900   276.65172      0              2            
    688000   321.17184      0              2            
    688100   305.21567      0              2            
    688200   279.10364      0              2            
    688300   293.2461       0              2            
    688400   300.80735      0              2            
    688500   320.70924      0              2            
    688600   294.64494      0              2            
    688700   266.28844      0              2            
    688800   304.40574      0              2            
    688900   299.33411      0              2            
    689000   304.84817      0              2            
    689100   278.73653      0              2            
    689200   277.81804      0              2            
    689300   299.2787       0              2            
    689400   343.88267      0              2            
    689500   358.39915      0              2            
    689600   310.79518      0              2            
    689700   294.64         0              2            
    689800   312.31422      0              2            
    689900   306.94404      0              2            
    690000   305.30924      0              2            
    690100   296.5358       0              2            
    690200   335.09339      0              2            
    690300   272.23224      0              2            
    690400   268.00005      0              2            
    690500   282.95539      0              2            
    690600   339.22399      0              2            
    690700   338.05451      0              2            
    690800   350.28205      0              2            
    690900   271.35595      0              2            
    691000   291.32088      0              2            
    691100   281.93082      0              2            
    691200   327.53303      0              2            
    691300   329.64038      0              2            
    691400   325.37488      0              2            
    691500   298.48141      0              2            
    691600   276.51219      0              2            
    691700   300.31022      0              2            
    691800   309.95381      0              2            
    691900   362.26015      0              2            
    692000   321.27221      0              2            
    692100   295.43233      0              2            
    692200   300.4671       0              2            
    692300   310.89575      0              2            
    692400   301.60149      0              2            
    692500   298.05399      0              2            
    692600   314.45457      0              2            
    692700   297.29166      0              2            
    692800   282.01746      0              2            
    692900   301.76504      0              2            
    693000   322.57984      0              2            
    693100   325.0643       0              2            
    693200   273.61115      0              2            
    693300   271.62304      0              2            
    693400   285.65132      0              2            
    693500   298.90948      0              2            
    693600   290.23632      0              2            
    693700   312.70359      0              2            
    693800   310.53568      0              2            
    693900   338.14222      0              2            
    694000   319.33953      0              2            
    694100   305.28116      0              2            
    694200   282.11509      0              2            
    694300   311.71065      0              2            
    694400   325.71151      0              2            
    694500   288.48582      0              2            
    694600   251.78093      0              2            
    694700   274.5916       0              2            
    694800   321.96695      0              2            
    694900   304.7731       0              2            
    695000   304.72374      0              2            
    695100   311.58976      0              2            
    695200   302.47796      0              2            
    695300   315.96607      0              2            
    695400   333.30054      0              2            
    695500   312.85707      0              2            
    695600   310.87109      0              2            
    695700   288.02636      0              2            
    695800   292.52477      0              2            
    695900   315.35458      0              2            
    696000   320.55147      0              2            
    696100   327.14357      0              2            
    696200   316.79411      0              2            
    696300   310.89889      0              2            
    696400   262.7437       0              2            
    696500   292.69584      0              2            
    696600   303.10548      0              2            
    696700   323.87806