LAMMPS (22 Dec 2022)
# PREREQUISITES:
#
#     You must use moltemplate.sh to create 3 files:
#        system.data  system.in.init  system.in.settings
#     (Follow the instructions in README_setup.sh,
#      or run the file as a script using ./README_setup.sh)

# ------------------------------- Initialization Section --------------------

units real
atom_style full
pair_style lj/class2/coul/long 10.0 10.0
bond_style class2
angle_style class2
dihedral_style class2
improper_style class2
kspace_style pppm/cg 0.001

pair_modify     mix sixthpower tail yes
special_bonds   lj/coul 0 0 1


# ------------------------------- Atom Definition Section -------------------

read_data       "reacted_lmp.data"
Reading data file ...
  orthogonal box = (5.6756746 5.6756746 5.6756746) to (45.16714 45.16714 45.16714)
  2 by 3 by 4 MPI processor grid
  reading atoms ...
  5001 atoms
  reading velocities ...
  5001 velocities
  scanning bonds ...
  4 = max bonds/atom
  scanning angles ...
  6 = max angles/atom
  scanning dihedrals ...
  14 = max dihedrals/atom
  scanning impropers ...
  4 = max impropers/atom
  reading bonds ...
  5226 bonds
  reading angles ...
  9006 angles
  reading dihedrals ...
  12522 dihedrals
  reading impropers ...
  4266 impropers
Finding 1-2 1-3 1-4 neighbors ...
  special bond factors lj:    0        0        1       
  special bond factors coul:  0        0        1       
     4 = max # of 1-2 neighbors
     7 = max # of 1-3 neighbors
    11 = max # of special neighbors
  special bonds CPU = 0.004 seconds
  read_data CPU = 0.383 seconds

include calc.pram

# Masses

mass		1    12.01115  # c
mass		2    12.01115  # c1
mass		3    12.01115  # c3h
mass		4    12.01115  # cp
mass		5     1.00797  # h
mass		6     1.00797  # hc
mass		7    15.99940  # o3e
mass		8    15.99940  # oc
mass		9    15.99940  # oh

# Potentials

pair_coeff	 1  1    0.05400    4.01000  # c,c
pair_coeff	 2  2    0.05400    4.01000  # c1,c1
pair_coeff	 3  3    0.05400    4.01000  # c3h,c3h
pair_coeff	 4  4    0.06400    4.01000  # cp,cp
pair_coeff	 5  5    0.02000    2.99500  # h,h
pair_coeff	 6  6    0.02000    2.99500  # hc,hc
pair_coeff	 7  7    0.24000    3.53500  # o3e,o3e
pair_coeff	 8  8    0.24000    3.53500  # oc,oc
pair_coeff	 9  9    0.24000    3.53500  # oh,oh

# Bond Coeffs

bond_coeff	 1    1.53000  299.67000 -501.77000  679.81000  # c,c
bond_coeff	 2    1.53000  299.67000 -501.77000  679.81000  # c,c1
bond_coeff	 3    1.53000  299.67000 -501.77000  679.81000  # c,c3h
bond_coeff	 4    1.10100  345.00000 -691.89000  844.60000  # c,hc
bond_coeff	 5    1.42000  400.39540 -835.19510 1313.01420  # c,o3e
bond_coeff	 6    1.42000  400.39540 -835.19510 1313.01420  # c,oc
bond_coeff	 7    1.42000  400.39540 -835.19510 1313.01420  # c,oh
bond_coeff	 8    1.10100  345.00000 -691.89000  844.60000  # c1,hc
bond_coeff	 9    1.42000  400.39540 -835.19510 1313.01420  # c1,oc
bond_coeff	10    1.10100  345.00000 -691.89000  844.60000  # c3h,hc
bond_coeff	11    1.42000  400.39540 -835.19510 1313.01420  # c3h,o3e
bond_coeff	12    1.41700  470.83610 -627.61790 1327.63450  # cp,cp
bond_coeff	13    1.09820  372.82510 -803.45260  894.31730  # cp,hc
bond_coeff	14    1.37680  428.87980 -738.23510 1114.96550  # cp,oc
bond_coeff	15    0.96000  493.84800    0.00000    0.00000  # h,oh

# Angle Coeffs

angle_coeff	 1  112.67000   39.51600   -7.44300   -9.55830  # c,c,c
angle_coeff	 2  110.77000   41.45300  -10.60400    5.12900  # c,c,hc
angle_coeff	 3  111.27000   54.53810   -8.36420  -13.08380  # c,c,oc
angle_coeff	 4  112.67000   39.51600   -7.44300   -9.55830  # c,c1,c
angle_coeff	 5  110.77000   41.45300  -10.60400    5.12900  # c,c1,hc
angle_coeff	 6  111.27000   54.53810   -8.36420  -13.08380  # c,c1,oc
angle_coeff	 7  112.67000   39.51600   -7.44300   -9.55830  # c,c3h,c
angle_coeff	 8  110.77000   41.45300  -10.60400    5.12900  # c,c3h,hc
angle_coeff	 9  111.27000   54.53810   -8.36420  -13.08380  # c,c3h,o3e
angle_coeff	10  104.50000   35.74540  -10.00670   -6.27290  # c,o3e,c3h
angle_coeff	11  104.50000   35.74540  -10.00670   -6.27290  # c,oc,c1
angle_coeff	12  102.96950   38.97390   -6.25950   -8.17100  # c,oc,cp
angle_coeff	13  109.00000   58.50000    0.00000    0.00000  # c,oh,h
angle_coeff	14  110.77000   41.45300  -10.60400    5.12900  # c1,c,hc
angle_coeff	15  111.27000   54.53810   -8.36420  -13.08380  # c1,c,oc
angle_coeff	16  111.27000   54.53810   -8.36420  -13.08380  # c1,c,oh
angle_coeff	17  110.77000   41.45300  -10.60400    5.12900  # c3h,c,hc
angle_coeff	18  111.27000   54.53810   -8.36420  -13.08380  # c3h,c,o3e
angle_coeff	19  111.27000   54.53810   -8.36420  -13.08380  # c3h,c,oc
angle_coeff	20  118.90000   61.02260  -34.99310    0.00000  # cp,cp,cp
angle_coeff	21  117.94000   35.15580  -12.46820    0.00000  # cp,cp,hc
angle_coeff	22  123.42000   73.67810  -21.67870    0.00000  # cp,cp,oc
angle_coeff	23  107.66000   39.64100  -12.92100   -2.43180  # hc,c,hc
angle_coeff	24  108.72800   58.54460  -10.80880  -12.40060  # hc,c,o3e
angle_coeff	25  108.72800   58.54460  -10.80880  -12.40060  # hc,c,oc
angle_coeff	26  108.72800   58.54460  -10.80880  -12.40060  # hc,c,oh
angle_coeff	27  108.72800   58.54460  -10.80880  -12.40060  # hc,c1,oc
angle_coeff	28  108.72800   58.54460  -10.80880  -12.40060  # hc,c3h,o3e

# BondBond Coeffs

angle_coeff	 1 bb    0.00000    1.53000    1.53000  # c,c,c
angle_coeff	 2 bb    3.38720    1.53000    1.10100  # c,c,hc
angle_coeff	 3 bb   11.43180    1.53000    1.42000  # c,c,oc
angle_coeff	 4 bb    0.00000    1.53000    1.53000  # c,c1,c
angle_coeff	 5 bb    3.38720    1.53000    1.10100  # c,c1,hc
angle_coeff	 6 bb   11.43180    1.53000    1.42000  # c,c1,oc
angle_coeff	 7 bb    0.00000    1.53000    1.53000  # c,c3h,c
angle_coeff	 8 bb    3.38720    1.53000    1.10100  # c,c3h,hc
angle_coeff	 9 bb   11.43180    1.53000    1.42000  # c,c3h,o3e
angle_coeff	10 bb   -7.11310    1.42000    1.42000  # c,o3e,c3h
angle_coeff	11 bb   -7.11310    1.42000    1.42000  # c,oc,c1
angle_coeff	12 bb    0.00000    1.42000    1.37680  # c,oc,cp
angle_coeff	13 bb    0.00000    1.42000    0.96000  # c,oh,h
angle_coeff	14 bb    3.38720    1.53000    1.10100  # c1,c,hc
angle_coeff	15 bb   11.43180    1.53000    1.42000  # c1,c,oc
angle_coeff	16 bb   11.43180    1.53000    1.42000  # c1,c,oh
angle_coeff	17 bb    3.38720    1.53000    1.10100  # c3h,c,hc
angle_coeff	18 bb   11.43180    1.53000    1.42000  # c3h,c,o3e
angle_coeff	19 bb   11.43180    1.53000    1.42000  # c3h,c,oc
angle_coeff	20 bb   68.28560    1.41700    1.41700  # cp,cp,cp
angle_coeff	21 bb    1.07950    1.41700    1.09820  # cp,cp,hc
angle_coeff	22 bb   48.47540    1.41700    1.37680  # cp,cp,oc
angle_coeff	23 bb    5.33160    1.10100    1.10100  # hc,c,hc
angle_coeff	24 bb   23.19790    1.10100    1.42000  # hc,c,o3e
angle_coeff	25 bb   23.19790    1.10100    1.42000  # hc,c,oc
angle_coeff	26 bb   23.19790    1.10100    1.42000  # hc,c,oh
angle_coeff	27 bb   23.19790    1.10100    1.42000  # hc,c1,oc
angle_coeff	28 bb   23.19790    1.10100    1.42000  # hc,c3h,o3e

# BondAngle Coeffs

angle_coeff	 1 ba    8.01600    8.01600    1.53000    1.53000  # c,c,c
angle_coeff	 2 ba   20.75400   11.42100    1.53000    1.10100  # c,c,hc
angle_coeff	 3 ba   20.40330    2.68680    1.53000    1.42000  # c,c,oc
angle_coeff	 4 ba    8.01600    8.01600    1.53000    1.53000  # c,c1,c
angle_coeff	 5 ba   20.75400   11.42100    1.53000    1.10100  # c,c1,hc
angle_coeff	 6 ba   20.40330    2.68680    1.53000    1.42000  # c,c1,oc
angle_coeff	 7 ba    8.01600    8.01600    1.53000    1.53000  # c,c3h,c
angle_coeff	 8 ba   20.75400   11.42100    1.53000    1.10100  # c,c3h,hc
angle_coeff	 9 ba    2.68680   20.40330    1.53000    1.42000  # c,c3h,o3e
angle_coeff	10 ba   -2.81120   -2.81120    1.42000    1.42000  # c,o3e,c3h
angle_coeff	11 ba   -2.81120   -2.81120    1.42000    1.42000  # c,oc,c1
angle_coeff	12 ba    0.00000    0.00000    1.42000    1.37680  # c,oc,cp
angle_coeff	13 ba    0.00000    0.00000    1.42000    0.96000  # c,oh,h
angle_coeff	14 ba   11.42100   20.75400    1.53000    1.10100  # c1,c,hc
angle_coeff	15 ba   20.40330    2.68680    1.53000    1.42000  # c1,c,oc
angle_coeff	16 ba   20.40330    2.68680    1.53000    1.42000  # c1,c,oh
angle_coeff	17 ba   11.42100   20.75400    1.53000    1.10100  # c3h,c,hc
angle_coeff	18 ba    2.68680   20.40330    1.53000    1.42000  # c3h,c,o3e
angle_coeff	19 ba   20.40330    2.68680    1.53000    1.42000  # c3h,c,oc
angle_coeff	20 ba   28.87080   28.87080    1.41700    1.41700  # cp,cp,cp
angle_coeff	21 ba   20.00330   24.21830    1.41700    1.09820  # cp,cp,hc
angle_coeff	22 ba   58.47900  107.68060    1.41700    1.37680  # cp,cp,oc
angle_coeff	23 ba   18.10300   18.10300    1.10100    1.10100  # hc,c,hc
angle_coeff	24 ba    4.61890   55.32700    1.10100    1.42000  # hc,c,o3e
angle_coeff	25 ba   55.32700    4.61890    1.10100    1.42000  # hc,c,oc
angle_coeff	26 ba    4.61890   55.32700    1.10100    1.42000  # hc,c,oh
angle_coeff	27 ba   55.32700    4.61890    1.10100    1.42000  # hc,c1,oc
angle_coeff	28 ba    4.61890   55.32700    1.10100    1.42000  # hc,c3h,o3e

# Dihedral Coeffs

dihedral_coeff	 1    0.00000    0.00000    0.03160    0.00000   -0.16810    0.00000  # c,c,c,hc
dihedral_coeff	 2    0.71370    0.00000    0.26600    0.00000   -0.25450    0.00000  # c,c,c,oc
dihedral_coeff	 3   -0.52030    0.00000   -0.30280    0.00000   -0.34500    0.00000  # c,c,oc,c1
dihedral_coeff	 4    0.00000    0.00000    0.00000    0.00000    0.13000  180.00000  # c,c,oc,cp
dihedral_coeff	 5    0.00000    0.00000    0.03160    0.00000   -0.16810    0.00000  # c,c1,c,hc
dihedral_coeff	 6    0.71370    0.00000    0.26600    0.00000   -0.25450    0.00000  # c,c1,c,oc
dihedral_coeff	 7    0.71370    0.00000    0.26600    0.00000   -0.25450    0.00000  # c,c1,c,oh
dihedral_coeff	 8   -0.52030    0.00000   -0.30280    0.00000   -0.34500    0.00000  # c,c1,oc,c
dihedral_coeff	 9    0.00000    0.00000    0.03160    0.00000   -0.16810    0.00000  # c,c3h,c,hc
dihedral_coeff	10    0.71370    0.00000    0.26600    0.00000   -0.25450    0.00000  # c,c3h,c,o3e
dihedral_coeff	11    0.71370    0.00000    0.26600    0.00000   -0.25450    0.00000  # c,c3h,c,oc
dihedral_coeff	12   -0.52030    0.00000   -0.30280    0.00000   -0.34500    0.00000  # c,c3h,o3e,c
dihedral_coeff	13    0.53020    0.00000    0.00000    0.00000   -0.39660    0.00000  # c,o3e,c3h,hc
dihedral_coeff	14    0.53020    0.00000    0.00000    0.00000   -0.39660    0.00000  # c,oc,c1,hc
dihedral_coeff	15    0.00000    0.00000    1.50000    0.00000    0.00000    0.00000  # c,oc,cp,cp
dihedral_coeff	16   -0.52030    0.00000   -0.30280    0.00000   -0.34500    0.00000  # c1,c,oc,c1
dihedral_coeff	17    0.00000    0.00000    0.00000    0.00000    0.13000  180.00000  # c1,c,oc,cp
dihedral_coeff	18    0.00000    0.00000    0.00000    0.00000    0.13000  180.00000  # c1,c,oh,h
dihedral_coeff	19    0.53020    0.00000    0.00000    0.00000   -0.39660    0.00000  # c1,oc,c,hc
dihedral_coeff	20    0.00000    0.00000    0.00000    0.00000    0.13000  180.00000  # c3h,c,oc,cp
dihedral_coeff	21    0.53020    0.00000    0.00000    0.00000   -0.39660    0.00000  # c3h,o3e,c,hc
dihedral_coeff	22    8.36670    0.00000    1.19320    0.00000    0.00000    0.00000  # cp,cp,cp,cp
dihedral_coeff	23    0.00000    0.00000    3.96610    0.00000    0.00000    0.00000  # cp,cp,cp,hc
dihedral_coeff	24    0.00000    0.00000    4.84980    0.00000    0.00000    0.00000  # cp,cp,cp,oc
dihedral_coeff	25    0.95130    0.00000    0.11550    0.00000    0.07200    0.00000  # cp,oc,c,hc
dihedral_coeff	26    0.00000    0.00000    0.00000    0.00000    0.13000  180.00000  # h,oh,c,hc
dihedral_coeff	27   -0.14320    0.00000    0.06170    0.00000   -0.10830    0.00000  # hc,c,c,hc
dihedral_coeff	28   -0.14350    0.00000    0.25300    0.00000   -0.09050    0.00000  # hc,c,c,oc
dihedral_coeff	29   -0.14320    0.00000    0.06170    0.00000   -0.10830    0.00000  # hc,c,c1,hc
dihedral_coeff	30   -0.14350    0.00000    0.25300    0.00000   -0.09050    0.00000  # hc,c,c1,oc
dihedral_coeff	31   -0.14320    0.00000    0.06170    0.00000   -0.10830    0.00000  # hc,c,c3h,hc
dihedral_coeff	32   -0.14350    0.00000    0.25300    0.00000   -0.09050    0.00000  # hc,c,c3h,o3e
dihedral_coeff	33   -0.14350    0.00000    0.25300    0.00000   -0.09050    0.00000  # hc,c1,c,oc
dihedral_coeff	34   -0.14350    0.00000    0.25300    0.00000   -0.09050    0.00000  # hc,c1,c,oh
dihedral_coeff	35   -0.14350    0.00000    0.25300    0.00000   -0.09050    0.00000  # hc,c3h,c,o3e
dihedral_coeff	36   -0.14350    0.00000    0.25300    0.00000   -0.09050    0.00000  # hc,c3h,c,oc
dihedral_coeff	37    0.00000    0.00000    1.87690    0.00000    0.00000    0.00000  # hc,cp,cp,hc
dihedral_coeff	38    0.00000    0.00000    1.72340    0.00000    0.00000    0.00000  # hc,cp,cp,oc
dihedral_coeff	39   -0.18200    0.00000   -0.10840    0.00000   -0.70470    0.00000  # o3e,c3h,c,oc
dihedral_coeff	40   -0.18200    0.00000   -0.10840    0.00000   -0.70470    0.00000  # oc,c,c1,oc
dihedral_coeff	41   -0.18200    0.00000   -0.10840    0.00000   -0.70470    0.00000  # oc,c1,c,oh

# MiddleBondTorsion Coeffs

dihedral_coeff	 1 mbt  -14.87900   -3.65810   -0.31380    1.53000  # c,c,c,hc
dihedral_coeff	 2 mbt  -21.88420   -7.67640   -0.68680    1.53000  # c,c,c,oc
dihedral_coeff	 3 mbt   -5.92880   -2.70070   -0.31750    1.42000  # c,c,oc,c1
dihedral_coeff	 4 mbt    0.00000    0.00000    0.00000    1.42000  # c,c,oc,cp
dihedral_coeff	 5 mbt  -14.87900   -3.65810   -0.31380    1.53000  # c,c1,c,hc
dihedral_coeff	 6 mbt  -21.88420   -7.67640   -0.68680    1.53000  # c,c1,c,oc
dihedral_coeff	 7 mbt  -21.88420   -7.67640   -0.68680    1.53000  # c,c1,c,oh
dihedral_coeff	 8 mbt   -5.92880   -2.70070   -0.31750    1.42000  # c,c1,oc,c
dihedral_coeff	 9 mbt  -14.87900   -3.65810   -0.31380    1.53000  # c,c3h,c,hc
dihedral_coeff	10 mbt  -21.88420   -7.67640   -0.68680    1.53000  # c,c3h,c,o3e
dihedral_coeff	11 mbt  -21.88420   -7.67640   -0.68680    1.53000  # c,c3h,c,oc
dihedral_coeff	12 mbt   -5.92880   -2.70070   -0.31750    1.42000  # c,c3h,o3e,c
dihedral_coeff	13 mbt   -6.80070   -4.65460   -1.41010    1.42000  # c,o3e,c3h,hc
dihedral_coeff	14 mbt   -6.80070   -4.65460   -1.41010    1.42000  # c,oc,c1,hc
dihedral_coeff	15 mbt    0.00000    0.00000    0.00000    1.37680  # c,oc,cp,cp
dihedral_coeff	16 mbt   -5.92880   -2.70070   -0.31750    1.42000  # c1,c,oc,c1
dihedral_coeff	17 mbt    0.00000    0.00000    0.00000    1.42000  # c1,c,oc,cp
dihedral_coeff	18 mbt    0.00000    0.00000    0.00000    1.42000  # c1,c,oh,h
dihedral_coeff	19 mbt   -6.80070   -4.65460   -1.41010    1.42000  # c1,oc,c,hc
dihedral_coeff	20 mbt    0.00000    0.00000    0.00000    1.42000  # c3h,c,oc,cp
dihedral_coeff	21 mbt   -6.80070   -4.65460   -1.41010    1.42000  # c3h,o3e,c,hc
dihedral_coeff	22 mbt   27.59890   -2.31200    0.00000    1.41700  # cp,cp,cp,cp
dihedral_coeff	23 mbt    0.00000   -1.15210    0.00000    1.41700  # cp,cp,cp,hc
dihedral_coeff	24 mbt    0.00000    4.82550    0.00000    1.41700  # cp,cp,cp,oc
dihedral_coeff	25 mbt    0.00000    0.00000    0.00000    1.42000  # cp,oc,c,hc
dihedral_coeff	26 mbt    0.00000    0.00000    0.00000    1.42000  # h,oh,c,hc
dihedral_coeff	27 mbt  -14.26100   -0.53220   -0.48640    1.53000  # hc,c,c,hc
dihedral_coeff	28 mbt  -16.79750   -1.22960   -0.27500    1.53000  # hc,c,c,oc
dihedral_coeff	29 mbt  -14.26100   -0.53220   -0.48640    1.53000  # hc,c,c1,hc
dihedral_coeff	30 mbt  -16.79750   -1.22960   -0.27500    1.53000  # hc,c,c1,oc
dihedral_coeff	31 mbt  -14.26100   -0.53220   -0.48640    1.53000  # hc,c,c3h,hc
dihedral_coeff	32 mbt  -16.79750   -1.22960   -0.27500    1.53000  # hc,c,c3h,o3e
dihedral_coeff	33 mbt  -16.79750   -1.22960   -0.27500    1.53000  # hc,c1,c,oc
dihedral_coeff	34 mbt  -16.79750   -1.22960   -0.27500    1.53000  # hc,c1,c,oh
dihedral_coeff	35 mbt  -16.79750   -1.22960   -0.27500    1.53000  # hc,c3h,c,o3e
dihedral_coeff	36 mbt  -16.79750   -1.22960   -0.27500    1.53000  # hc,c3h,c,oc
dihedral_coeff	37 mbt    0.00000    4.82280    0.00000    1.41700  # hc,cp,cp,hc
dihedral_coeff	38 mbt    0.00000    5.54320    0.00000    1.41700  # hc,cp,cp,oc
dihedral_coeff	39 mbt  -17.25850   -3.61570   -0.83640    1.53000  # o3e,c3h,c,oc
dihedral_coeff	40 mbt  -17.25850   -3.61570   -0.83640    1.53000  # oc,c,c1,oc
dihedral_coeff	41 mbt  -17.25850   -3.61570   -0.83640    1.53000  # oc,c1,c,oh

# EndBondTorsion Coeffs

dihedral_coeff	 1 ebt    0.24860    0.24220   -0.09250    0.08140    0.05910    0.22190    1.53000    1.10100  # c,c,c,hc
dihedral_coeff	 2 ebt    1.15380    0.84090   -0.91380   -0.31900    0.44110   -0.71740    1.53000    1.42000  # c,c,c,oc
dihedral_coeff	 3 ebt   -0.24560    1.05170   -0.77950    0.47410    1.26350    0.55760    1.53000    1.42000  # c,c,oc,c1
dihedral_coeff	 4 ebt    0.00000    0.00000    0.00000    0.00000    0.00000    0.00000    1.53000    1.37680  # c,c,oc,cp
dihedral_coeff	 5 ebt    0.24860    0.24220   -0.09250    0.08140    0.05910    0.22190    1.53000    1.10100  # c,c1,c,hc
dihedral_coeff	 6 ebt    1.15380    0.84090   -0.91380   -0.31900    0.44110   -0.71740    1.53000    1.42000  # c,c1,c,oc
dihedral_coeff	 7 ebt   -0.31900    0.44110   -0.71740    1.15380    0.84090   -0.91380    1.53000    1.42000  # c,c1,c,oh
dihedral_coeff	 8 ebt    0.47410    1.26350    0.55760   -0.24560    1.05170   -0.77950    1.53000    1.42000  # c,c1,oc,c
dihedral_coeff	 9 ebt    0.24860    0.24220   -0.09250    0.08140    0.05910    0.22190    1.53000    1.10100  # c,c3h,c,hc
dihedral_coeff	10 ebt   -0.31900    0.44110   -0.71740    1.15380    0.84090   -0.91380    1.53000    1.42000  # c,c3h,c,o3e
dihedral_coeff	11 ebt    1.15380    0.84090   -0.91380   -0.31900    0.44110   -0.71740    1.53000    1.42000  # c,c3h,c,oc
dihedral_coeff	12 ebt   -0.24560    1.05170   -0.77950    0.47410    1.26350    0.55760    1.53000    1.42000  # c,c3h,o3e,c
dihedral_coeff	13 ebt   -0.16200    0.15640   -1.14080   -0.60540    1.33390    0.96480    1.42000    1.10100  # c,o3e,c3h,hc
dihedral_coeff	14 ebt   -0.16200    0.15640   -1.14080   -0.60540    1.33390    0.96480    1.42000    1.10100  # c,oc,c1,hc
dihedral_coeff	15 ebt    0.00000    0.00000    0.00000    0.00000    0.00000    0.00000    1.42000    1.41700  # c,oc,cp,cp
dihedral_coeff	16 ebt    0.47410    1.26350    0.55760   -0.24560    1.05170   -0.77950    1.53000    1.42000  # c1,c,oc,c1
dihedral_coeff	17 ebt    0.00000    0.00000    0.00000    0.00000    0.00000    0.00000    1.53000    1.37680  # c1,c,oc,cp
dihedral_coeff	18 ebt    0.00000    0.00000    0.00000    0.00000    0.00000    0.00000    1.53000    0.96000  # c1,c,oh,h
dihedral_coeff	19 ebt   -0.60540    1.33390    0.96480   -0.16200    0.15640   -1.14080    1.42000    1.10100  # c1,oc,c,hc
dihedral_coeff	20 ebt    0.00000    0.00000    0.00000    0.00000    0.00000    0.00000    1.53000    1.37680  # c3h,c,oc,cp
dihedral_coeff	21 ebt   -0.60540    1.33390    0.96480   -0.16200    0.15640   -1.14080    1.42000    1.10100  # c3h,o3e,c,hc
dihedral_coeff	22 ebt   -0.11850    6.32040    0.00000   -0.11850    6.32040    0.00000    1.41700    1.41700  # cp,cp,cp,cp
dihedral_coeff	23 ebt    0.00000   -6.89580    0.00000    0.00000   -0.46690    0.00000    1.41700    1.09820  # cp,cp,cp,hc
dihedral_coeff	24 ebt    0.00000    0.26550    0.00000    0.00000    4.89050    0.00000    1.41700    1.37680  # cp,cp,cp,oc
dihedral_coeff	25 ebt    0.00000    0.00000    0.00000    0.00000    0.00000    0.00000    1.37680    1.10100  # cp,oc,c,hc
dihedral_coeff	26 ebt    0.00000    0.00000    0.00000    0.00000    0.00000    0.00000    0.96000    1.10100  # h,oh,c,hc
dihedral_coeff	27 ebt    0.21300    0.31200    0.07770    0.21300    0.31200    0.07770    1.10100    1.10100  # hc,c,c,hc
dihedral_coeff	28 ebt    0.59030    0.66690    0.85840    0.96810    0.95510    0.04360    1.10100    1.42000  # hc,c,c,oc
dihedral_coeff	29 ebt    0.21300    0.31200    0.07770    0.21300    0.31200    0.07770    1.10100    1.10100  # hc,c,c1,hc
dihedral_coeff	30 ebt    0.59030    0.66690    0.85840    0.96810    0.95510    0.04360    1.10100    1.42000  # hc,c,c1,oc
dihedral_coeff	31 ebt    0.21300    0.31200    0.07770    0.21300    0.31200    0.07770    1.10100    1.10100  # hc,c,c3h,hc
dihedral_coeff	32 ebt    0.96810    0.95510    0.04360    0.59030    0.66690    0.85840    1.10100    1.42000  # hc,c,c3h,o3e
dihedral_coeff	33 ebt    0.59030    0.66690    0.85840    0.96810    0.95510    0.04360    1.10100    1.42000  # hc,c1,c,oc
dihedral_coeff	34 ebt    0.96810    0.95510    0.04360    0.59030    0.66690    0.85840    1.10100    1.42000  # hc,c1,c,oh
dihedral_coeff	35 ebt    0.96810    0.95510    0.04360    0.59030    0.66690    0.85840    1.10100    1.42000  # hc,c3h,c,o3e
dihedral_coeff	36 ebt    0.59030    0.66690    0.85840    0.96810    0.95510    0.04360    1.10100    1.42000  # hc,c3h,c,oc
dihedral_coeff	37 ebt    0.00000   -0.68900    0.00000    0.00000   -0.68900    0.00000    1.09820    1.09820  # hc,cp,cp,hc
dihedral_coeff	38 ebt    0.00000    4.26410    0.00000    0.00000   -1.58670    0.00000    1.09820    1.37680  # hc,cp,cp,oc
dihedral_coeff	39 ebt    1.01650    0.75530   -0.46090    1.01650    0.75530   -0.46090    1.42000    1.42000  # o3e,c3h,c,oc
dihedral_coeff	40 ebt    1.01650    0.75530   -0.46090    1.01650    0.75530   -0.46090    1.42000    1.42000  # oc,c,c1,oc
dihedral_coeff	41 ebt    1.01650    0.75530   -0.46090    1.01650    0.75530   -0.46090    1.42000    1.42000  # oc,c1,c,oh

# AngleTorsion Coeffs

dihedral_coeff	 1 at   -0.24540    0.00000   -0.11360    0.31130    0.45160   -0.19880  112.67000  110.77000  # c,c,c,hc
dihedral_coeff	 2 at    0.96720   -0.75660   -1.23310    0.56230   -0.30410   -0.40150  112.67000  111.27000  # c,c,c,oc
dihedral_coeff	 3 at   -2.74660    1.48770   -0.89550    0.56760    0.94500    0.07030  111.27000  104.50000  # c,c,oc,c1
dihedral_coeff	 4 at    0.00000    0.00000    0.00000    0.00000    0.00000    0.00000  111.27000  102.96950  # c,c,oc,cp
dihedral_coeff	 5 at   -0.24540    0.00000   -0.11360    0.31130    0.45160   -0.19880  112.67000  110.77000  # c,c1,c,hc
dihedral_coeff	 6 at    0.96720   -0.75660   -1.23310    0.56230   -0.30410   -0.40150  112.67000  111.27000  # c,c1,c,oc
dihedral_coeff	 7 at    0.56230   -0.30410   -0.40150    0.96720   -0.75660   -1.23310  112.67000  111.27000  # c,c1,c,oh
dihedral_coeff	 8 at    0.56760    0.94500    0.07030   -2.74660    1.48770   -0.89550  111.27000  104.50000  # c,c1,oc,c
dihedral_coeff	 9 at   -0.24540    0.00000   -0.11360    0.31130    0.45160   -0.19880  112.67000  110.77000  # c,c3h,c,hc
dihedral_coeff	10 at    0.56230   -0.30410   -0.40150    0.96720   -0.75660   -1.23310  112.67000  111.27000  # c,c3h,c,o3e
dihedral_coeff	11 at    0.96720   -0.75660   -1.23310    0.56230   -0.30410   -0.40150  112.67000  111.27000  # c,c3h,c,oc
dihedral_coeff	12 at   -2.74660    1.48770   -0.89550    0.56760    0.94500    0.07030  111.27000  104.50000  # c,c3h,o3e,c
dihedral_coeff	13 at   -0.77770    0.43400   -0.66530   -1.82340    1.63930    0.51440  104.50000  108.72800  # c,o3e,c3h,hc
dihedral_coeff	14 at   -0.77770    0.43400   -0.66530   -1.82340    1.63930    0.51440  104.50000  108.72800  # c,oc,c1,hc
dihedral_coeff	15 at    0.00000    0.00000    0.00000    0.00000    0.00000    0.00000  102.96950  123.42000  # c,oc,cp,cp
dihedral_coeff	16 at    0.56760    0.94500    0.07030   -2.74660    1.48770   -0.89550  111.27000  104.50000  # c1,c,oc,c1
dihedral_coeff	17 at    0.00000    0.00000    0.00000    0.00000    0.00000    0.00000  111.27000  102.96950  # c1,c,oc,cp
dihedral_coeff	18 at    0.00000    0.00000    0.00000    0.00000    0.00000    0.00000  111.27000  109.00000  # c1,c,oh,h
dihedral_coeff	19 at   -1.82340    1.63930    0.51440   -0.77770    0.43400   -0.66530  104.50000  108.72800  # c1,oc,c,hc
dihedral_coeff	20 at    0.00000    0.00000    0.00000    0.00000    0.00000    0.00000  111.27000  102.96950  # c3h,c,oc,cp
dihedral_coeff	21 at   -1.82340    1.63930    0.51440   -0.77770    0.43400   -0.66530  104.50000  108.72800  # c3h,o3e,c,hc
dihedral_coeff	22 at    1.97670    1.02390    0.00000    1.97670    1.02390    0.00000  118.90000  118.90000  # cp,cp,cp,cp
dihedral_coeff	23 at    0.00000    2.50140    0.00000    0.00000    2.71470    0.00000  118.90000  117.94000  # cp,cp,cp,hc
dihedral_coeff	24 at    0.00000   10.01550    0.00000    0.00000    1.74040    0.00000  118.90000  123.42000  # cp,cp,cp,oc
dihedral_coeff	25 at    0.00000    0.00000    0.00000    0.00000    0.00000    0.00000  102.96950  108.72800  # cp,oc,c,hc
dihedral_coeff	26 at    0.00000    0.00000    0.00000    0.00000    0.00000    0.00000  109.00000  108.72800  # h,oh,c,hc
dihedral_coeff	27 at   -0.80850    0.55690   -0.24660   -0.80850    0.55690   -0.24660  110.77000  110.77000  # hc,c,c,hc
dihedral_coeff	28 at   -0.18920    0.49180    0.72730    2.36680    2.49200   -1.01220  110.77000  111.27000  # hc,c,c,oc
dihedral_coeff	29 at   -0.80850    0.55690   -0.24660   -0.80850    0.55690   -0.24660  110.77000  110.77000  # hc,c,c1,hc
dihedral_coeff	30 at   -0.18920    0.49180    0.72730    2.36680    2.49200   -1.01220  110.77000  111.27000  # hc,c,c1,oc
dihedral_coeff	31 at   -0.80850    0.55690   -0.24660   -0.80850    0.55690   -0.24660  110.77000  110.77000  # hc,c,c3h,hc
dihedral_coeff	32 at    2.36680    2.49200   -1.01220   -0.18920    0.49180    0.72730  110.77000  111.27000  # hc,c,c3h,o3e
dihedral_coeff	33 at   -0.18920    0.49180    0.72730    2.36680    2.49200   -1.01220  110.77000  111.27000  # hc,c1,c,oc
dihedral_coeff	34 at    2.36680    2.49200   -1.01220   -0.18920    0.49180    0.72730  110.77000  111.27000  # hc,c1,c,oh
dihedral_coeff	35 at    2.36680    2.49200   -1.01220   -0.18920    0.49180    0.72730  110.77000  111.27000  # hc,c3h,c,o3e
dihedral_coeff	36 at   -0.18920    0.49180    0.72730    2.36680    2.49200   -1.01220  110.77000  111.27000  # hc,c3h,c,oc
dihedral_coeff	37 at    0.00000    2.45010    0.00000    0.00000    2.45010    0.00000  117.94000  117.94000  # hc,cp,cp,hc
dihedral_coeff	38 at    0.00000    2.57060    0.00000    0.00000    1.87290    0.00000  117.94000  123.42000  # hc,cp,cp,oc
dihedral_coeff	39 at    0.55110    0.97370   -0.66730    0.55110    0.97370   -0.66730  111.27000  111.27000  # o3e,c3h,c,oc
dihedral_coeff	40 at    0.55110    0.97370   -0.66730    0.55110    0.97370   -0.66730  111.27000  111.27000  # oc,c,c1,oc
dihedral_coeff	41 at    0.55110    0.97370   -0.66730    0.55110    0.97370   -0.66730  111.27000  111.27000  # oc,c1,c,oh

# AngleAngleTorsion Coeffs

dihedral_coeff	 1 aat  -16.16400  112.67000  110.77000  # c,c,c,hc
dihedral_coeff	 2 aat  -29.04200  112.67000  111.27000  # c,c,c,oc
dihedral_coeff	 3 aat  -19.00590  111.27000  104.50000  # c,c,oc,c1
dihedral_coeff	 4 aat    0.00000  111.27000  102.96950  # c,c,oc,cp
dihedral_coeff	 5 aat  -16.16400  112.67000  110.77000  # c,c1,c,hc
dihedral_coeff	 6 aat  -29.04200  112.67000  111.27000  # c,c1,c,oc
dihedral_coeff	 7 aat  -29.04200  112.67000  111.27000  # c,c1,c,oh
dihedral_coeff	 8 aat  -19.00590  111.27000  104.50000  # c,c1,oc,c
dihedral_coeff	 9 aat  -16.16400  112.67000  110.77000  # c,c3h,c,hc
dihedral_coeff	10 aat  -29.04200  112.67000  111.27000  # c,c3h,c,o3e
dihedral_coeff	11 aat  -29.04200  112.67000  111.27000  # c,c3h,c,oc
dihedral_coeff	12 aat  -19.00590  111.27000  104.50000  # c,c3h,o3e,c
dihedral_coeff	13 aat  -16.44380  104.50000  108.72800  # c,o3e,c3h,hc
dihedral_coeff	14 aat  -16.44380  104.50000  108.72800  # c,oc,c1,hc
dihedral_coeff	15 aat    0.00000  102.96950  123.42000  # c,oc,cp,cp
dihedral_coeff	16 aat  -19.00590  111.27000  104.50000  # c1,c,oc,c1
dihedral_coeff	17 aat    0.00000  111.27000  102.96950  # c1,c,oc,cp
dihedral_coeff	18 aat    0.00000  111.27000  109.00000  # c1,c,oh,h
dihedral_coeff	19 aat  -16.44380  104.50000  108.72800  # c1,oc,c,hc
dihedral_coeff	20 aat    0.00000  111.27000  102.96950  # c3h,c,oc,cp
dihedral_coeff	21 aat  -16.44380  104.50000  108.72800  # c3h,o3e,c,hc
dihedral_coeff	22 aat    0.00000  118.90000  118.90000  # cp,cp,cp,cp
dihedral_coeff	23 aat   -4.81410  118.90000  117.94000  # cp,cp,cp,hc
dihedral_coeff	24 aat  -21.02470  118.90000  123.42000  # cp,cp,cp,oc
dihedral_coeff	25 aat    0.00000  102.96950  108.72800  # cp,oc,c,hc
dihedral_coeff	26 aat    0.00000  109.00000  108.72800  # h,oh,c,hc
dihedral_coeff	27 aat  -12.56400  110.77000  110.77000  # hc,c,c,hc
dihedral_coeff	28 aat  -20.20060  110.77000  111.27000  # hc,c,c,oc
dihedral_coeff	29 aat  -12.56400  110.77000  110.77000  # hc,c,c1,hc
dihedral_coeff	30 aat  -20.20060  110.77000  111.27000  # hc,c,c1,oc
dihedral_coeff	31 aat  -12.56400  110.77000  110.77000  # hc,c,c3h,hc
dihedral_coeff	32 aat  -20.20060  110.77000  111.27000  # hc,c,c3h,o3e
dihedral_coeff	33 aat  -20.20060  110.77000  111.27000  # hc,c1,c,oc
dihedral_coeff	34 aat  -20.20060  110.77000  111.27000  # hc,c1,c,oh
dihedral_coeff	35 aat  -20.20060  110.77000  111.27000  # hc,c3h,c,o3e
dihedral_coeff	36 aat  -20.20060  110.77000  111.27000  # hc,c3h,c,oc
dihedral_coeff	37 aat    0.35980  117.94000  117.94000  # hc,cp,cp,hc
dihedral_coeff	38 aat    4.22960  117.94000  123.42000  # hc,cp,cp,oc
dihedral_coeff	39 aat  -14.04840  111.27000  111.27000  # o3e,c3h,c,oc
dihedral_coeff	40 aat  -14.04840  111.27000  111.27000  # oc,c,c1,oc
dihedral_coeff	41 aat  -14.04840  111.27000  111.27000  # oc,c1,c,oh

# BondBond13 Coeffs

dihedral_coeff	 1 bb13    0.00000    1.53000    1.10100  # c,c,c,hc
dihedral_coeff	 2 bb13    0.00000    1.53000    1.42000  # c,c,c,oc
dihedral_coeff	 3 bb13    0.00000    1.53000    1.42000  # c,c,oc,c1
dihedral_coeff	 4 bb13    0.00000    1.53000    1.37680  # c,c,oc,cp
dihedral_coeff	 5 bb13    0.00000    1.53000    1.10100  # c,c1,c,hc
dihedral_coeff	 6 bb13    0.00000    1.53000    1.42000  # c,c1,c,oc
dihedral_coeff	 7 bb13    0.00000    1.53000    1.42000  # c,c1,c,oh
dihedral_coeff	 8 bb13    0.00000    1.53000    1.42000  # c,c1,oc,c
dihedral_coeff	 9 bb13    0.00000    1.53000    1.10100  # c,c3h,c,hc
dihedral_coeff	10 bb13    0.00000    1.53000    1.42000  # c,c3h,c,o3e
dihedral_coeff	11 bb13    0.00000    1.53000    1.42000  # c,c3h,c,oc
dihedral_coeff	12 bb13    0.00000    1.53000    1.42000  # c,c3h,o3e,c
dihedral_coeff	13 bb13    0.00000    1.42000    1.10100  # c,o3e,c3h,hc
dihedral_coeff	14 bb13    0.00000    1.42000    1.10100  # c,oc,c1,hc
dihedral_coeff	15 bb13    0.00000    1.42000    1.41700  # c,oc,cp,cp
dihedral_coeff	16 bb13    0.00000    1.53000    1.42000  # c1,c,oc,c1
dihedral_coeff	17 bb13    0.00000    1.53000    1.37680  # c1,c,oc,cp
dihedral_coeff	18 bb13    0.00000    1.53000    0.96000  # c1,c,oh,h
dihedral_coeff	19 bb13    0.00000    1.42000    1.10100  # c1,oc,c,hc
dihedral_coeff	20 bb13    0.00000    1.53000    1.37680  # c3h,c,oc,cp
dihedral_coeff	21 bb13    0.00000    1.42000    1.10100  # c3h,o3e,c,hc
dihedral_coeff	22 bb13   53.00000    1.41700    1.41700  # cp,cp,cp,cp
dihedral_coeff	23 bb13   -6.27410    1.41700    1.09820  # cp,cp,cp,hc
dihedral_coeff	24 bb13   -2.24360    1.41700    1.37680  # cp,cp,cp,oc
dihedral_coeff	25 bb13    0.00000    1.37680    1.10100  # cp,oc,c,hc
dihedral_coeff	26 bb13    0.00000    0.96000    1.10100  # h,oh,c,hc
dihedral_coeff	27 bb13    0.00000    1.10100    1.10100  # hc,c,c,hc
dihedral_coeff	28 bb13    0.00000    1.10100    1.42000  # hc,c,c,oc
dihedral_coeff	29 bb13    0.00000    1.10100    1.10100  # hc,c,c1,hc
dihedral_coeff	30 bb13    0.00000    1.10100    1.42000  # hc,c,c1,oc
dihedral_coeff	31 bb13    0.00000    1.10100    1.10100  # hc,c,c3h,hc
dihedral_coeff	32 bb13    0.00000    1.10100    1.42000  # hc,c,c3h,o3e
dihedral_coeff	33 bb13    0.00000    1.10100    1.42000  # hc,c1,c,oc
dihedral_coeff	34 bb13    0.00000    1.10100    1.42000  # hc,c1,c,oh
dihedral_coeff	35 bb13    0.00000    1.10100    1.42000  # hc,c3h,c,o3e
dihedral_coeff	36 bb13    0.00000    1.10100    1.42000  # hc,c3h,c,oc
dihedral_coeff	37 bb13   -1.70770    1.09820    1.09820  # hc,cp,cp,hc
dihedral_coeff	38 bb13    2.05170    1.09820    1.37680  # hc,cp,cp,oc
dihedral_coeff	39 bb13    0.00000    1.42000    1.42000  # o3e,c3h,c,oc
dihedral_coeff	40 bb13    0.00000    1.42000    1.42000  # oc,c,c1,oc
dihedral_coeff	41 bb13    0.00000    1.42000    1.42000  # oc,c1,c,oh

# Improper Coeffs

improper_coeff	 1    0.00000    0.00000  # c,c,c,hc
improper_coeff	 2    0.00000    0.00000  # c,c,hc,hc
improper_coeff	 3    0.00000    0.00000  # c,c,hc,oc
improper_coeff	 4    0.00000    0.00000  # c,c,oc,hc
improper_coeff	 5    0.00000    0.00000  # c,c1,hc,hc
improper_coeff	 6    0.00000    0.00000  # c,c1,hc,oc
improper_coeff	 7    0.00000    0.00000  # c,c1,hc,oh
improper_coeff	 8    0.00000    0.00000  # c,c1,oc,hc
improper_coeff	 9    0.00000    0.00000  # c,c3h,hc,hc
improper_coeff	10    0.00000    0.00000  # c,c3h,hc,oc
improper_coeff	11    0.00000    0.00000  # c,c3h,o3e,hc
improper_coeff	12    0.00000    0.00000  # c,hc,hc,o3e
improper_coeff	13    0.00000    0.00000  # c,hc,hc,oc
improper_coeff	14    0.00000    0.00000  # c,hc,hc,oh
improper_coeff	15    0.00000    0.00000  # c1,c,c,hc
improper_coeff	16    0.00000    0.00000  # c1,c,c,oc
improper_coeff	17    0.00000    0.00000  # c1,c,oc,hc
improper_coeff	18    0.00000    0.00000  # c3h,c,c,hc
improper_coeff	19    0.00000    0.00000  # c3h,c,c,o3e
improper_coeff	20    0.00000    0.00000  # c3h,c,o3e,hc
improper_coeff	21    4.89120    0.00000  # cp,cp,cp,hc
improper_coeff	22   13.04210    0.00000  # cp,cp,cp,oc

# AngleAngle Coeffs

improper_coeff	 1 aa   -1.31990   -1.31990    0.11840  112.67000  110.77000  110.77000  # c,c,c,hc
improper_coeff	 2 aa    0.27380   -0.48250    0.27380  110.77000  110.77000  107.66000  # c,c,hc,hc
improper_coeff	 3 aa    0.00000    0.00000    0.16890  110.77000  111.27000  108.72800  # c,c,hc,oc
improper_coeff	 4 aa    0.16890    0.00000    0.00000  111.27000  110.77000  108.72800  # c,c,oc,hc
improper_coeff	 5 aa    0.00000   -0.48250    0.00000  110.77000  110.77000  107.66000  # c,c1,hc,hc
improper_coeff	 6 aa    0.00000    0.00000    0.00000  110.77000  111.27000  108.72800  # c,c1,hc,oc
improper_coeff	 7 aa    0.00000    2.59260    0.00000  110.77000  111.27000  108.72800  # c,c1,hc,oh
improper_coeff	 8 aa    0.00000    0.00000    0.00000  111.27000  110.77000  108.72800  # c,c1,oc,hc
improper_coeff	 9 aa    0.00000   -0.48250    0.00000  110.77000  110.77000  107.66000  # c,c3h,hc,hc
improper_coeff	10 aa    0.00000    0.00000    0.00000  110.77000  111.27000  108.72800  # c,c3h,hc,oc
improper_coeff	11 aa    0.00000    2.59260    3.91770  111.27000  110.77000  108.72800  # c,c3h,o3e,hc
improper_coeff	12 aa    2.42590    2.42590    2.12830  107.66000  108.72800  108.72800  # c,hc,hc,o3e
improper_coeff	13 aa    0.00000    0.00000    2.12830  107.66000  108.72800  108.72800  # c,hc,hc,oc
improper_coeff	14 aa    2.42590    2.42590    2.12830  107.66000  108.72800  108.72800  # c,hc,hc,oh
improper_coeff	15 aa   -1.31990   -1.31990    0.11840  112.67000  110.77000  110.77000  # c1,c,c,hc
improper_coeff	16 aa    0.00000    0.00000   -3.57440  112.67000  111.27000  111.27000  # c1,c,c,oc
improper_coeff	17 aa    0.16890    0.00000    0.00000  111.27000  110.77000  108.72800  # c1,c,oc,hc
improper_coeff	18 aa   -1.31990   -1.31990    0.11840  112.67000  110.77000  110.77000  # c3h,c,c,hc
improper_coeff	19 aa   -0.83300   -0.83300   -3.57440  112.67000  111.27000  111.27000  # c3h,c,c,o3e
improper_coeff	20 aa    0.16890    2.59260    3.91770  111.27000  110.77000  108.72800  # c3h,c,o3e,hc
improper_coeff	21 aa    0.00000    0.00000    0.00000  118.90000  117.94000  117.94000  # cp,cp,cp,hc
improper_coeff	22 aa    0.00000    0.00000    0.00000  118.90000  123.42000  123.42000  # cp,cp,cp,oc

# ------------------------------- OPT Section -------------------------------
minimize 1.0e-5 1.0e-7 100000 400000
PPPM initialization ...
  using 12-bit tables for long-range coulomb (../kspace.cpp:342)
  G vector (1/distance) = 0.11322774
  grid = 4 4 4
  stencil order = 5
  estimated absolute RMS force accuracy = 0.33520679
  estimated relative force accuracy = 0.0010094653
  using double precision KISS FFT
  3d grid and FFT values/proc = 294 4
Generated 36 of 36 mixed pair_coeff terms from sixthpower/sixthpower mixing rule
Neighbor list info ...
  update: every = 1 steps, delay = 0 steps, check = yes
  max neighbors/atom: 2000, page size: 100000
  master list distance cutoff = 12
  ghost atom cutoff = 12
  binsize = 6, bins = 7 7 7
  1 neighbor lists, perpetual/occasional/extra = 1 0 0
  (1) pair lj/class2/coul/long, perpetual
      attributes: half, newton on
      pair build: half/bin/newton
      stencil: half/bin/3d
      bin: standard
WARNING: Inconsistent image flags (../domain.cpp:815)
  PPPM/cg optimization cutoff: 1e-05
  Total charged atoms: 100.0%
  Min/max charged atoms/proc: 100.0% 100.0%
Per MPI rank memory allocation (min/avg/max) = 16.15 | 16.16 | 16.17 Mbytes
   Step          Temp          E_pair         E_mol          TotEng         Press     
         0   611.25775      19.797713      8412.984       17542.998      1726.9189    
       104   611.25775     -650.31175      350.41909      8810.3235      3836.4548    
Loop time of 1.29274 on 24 procs for 104 steps with 5001 atoms

99.3% CPU use with 24 MPI tasks x no OpenMP threads

Minimization stats:
  Stopping criterion = linesearch alpha is zero
  Energy initial, next-to-last, final = 
      8432.78171907848  -299.892656702892  -299.892656702892
  Force two-norm initial, final = 3566.9395 61.440834
  Force max component initial, final = 170.67875 3.1871846
  Final line search alpha, max atom move = 2.1124525e-12 6.7327761e-12
  Iterations, force evaluations = 104 335

MPI task timing breakdown:
Section |  min time  |  avg time  |  max time  |%varavg| %total
---------------------------------------------------------------
Pair    | 0.56599    | 0.75423    | 0.93842    |   9.9 | 58.34
Bond    | 0.15138    | 0.18535    | 0.21922    |   4.0 | 14.34
Kspace  | 0.093893   | 0.29842    | 0.52111    |  18.2 | 23.08
Neigh   | 0.0052703  | 0.0052991  | 0.0053148  |   0.0 |  0.41
Comm    | 0.03979    | 0.040879   | 0.042788   |   0.5 |  3.16
Output  | 0          | 0          | 0          |   0.0 |  0.00
Modify  | 0          | 0          | 0          |   0.0 |  0.00
Other   |            | 0.008552   |            |       |  0.66

Nlocal:        208.375 ave         232 max         176 min
Histogram: 1 1 0 3 5 3 4 2 2 3
Nghost:           4263 ave        4354 max        4147 min
Histogram: 1 0 1 3 3 5 5 4 1 1
Neighs:        61277.9 ave       76515 max       46615 min
Histogram: 1 1 2 5 3 4 5 0 2 1

Total # of neighbors = 1470670
Ave neighs/atom = 294.07518
Ave special neighs/atom = 5.6904619
Neighbor list builds = 2
Dangerous builds = 0
# ------------------------------- Run Section -------------------------------
#

timestep 0.25
neighbor        2.0 bin
neigh_modify    delay 0 every 1 check yes

thermo_style custom step temp pe evdwl ecoul ebond eangle edihed eimp density vol
thermo 20000

variable        Rho equal density
variable        Temp equal temp
variable        Volume equal vol
fix             fDENS all ave/time 100 100 300000 v_Temp v_Rho v_Volume file temp_vs_density.txt
fix def1 all print 100 "${Temp} ${Rho} ${Volume} " file press.dat screen no

label           loop
variable        a loop 26
variable        b equal 600-20*($a-1)
variable        b equal 600-20*(1-1)
fix             fMOM all momentum 100 linear 1 1 1 angular
fix             fNPT all npt temp $b $b $(100.0*dt) iso 1 1 $(100.0*dt)
fix             fNPT all npt temp 600 $b $(100.0*dt) iso 1 1 $(100.0*dt)
fix             fNPT all npt temp 600 600 $(100.0*dt) iso 1 1 $(100.0*dt)
fix             fNPT all npt temp 600 600 25 iso 1 1 $(100.0*dt)
fix             fNPT all npt temp 600 600 25 iso 1 1 25
run             1200000
PPPM initialization ...
  using 12-bit tables for long-range coulomb (../kspace.cpp:342)
  G vector (1/distance) = 0.11322774
  grid = 4 4 4
  stencil order = 5
  estimated absolute RMS force accuracy = 0.33520679
  estimated relative force accuracy = 0.0010094653
  using double precision KISS FFT
  3d grid and FFT values/proc = 294 4
Generated 36 of 36 mixed pair_coeff terms from sixthpower/sixthpower mixing rule
WARNING: Inconsistent image flags (../domain.cpp:815)
Per MPI rank memory allocation (min/avg/max) = 15.03 | 15.04 | 15.04 Mbytes
   Step          Temp          PotEng         E_vdwl         E_coul         E_bond        E_angle        E_dihed        E_impro        Density         Volume    
       104   611.25775     -299.89266     -926.30514      1787.8561      457.35964      1582.0739     -1690.2669      1.2524837      0.96026592     61589.935    
     20000   609.88346      8658.8729     -144.88092      1798.1026      3637.8891      4636.3493     -25.556438      269.31749      0.91644374     64535.02     
     40000   595.28555      8574.0851     -228.00645      1781.7751      3798.1581      4727.4936     -237.53618      243.10116      0.94729891     62433.002    
     60000   599.79941      8493.0812     -287.88117      1765.4885      3709.402       4736.5886     -159.86055      241.2741       0.95358478     62021.455    
     80000   597.01491      8444.6414     -298.13316      1784.6264      3629.7555      4741.7964     -147.71837      246.31262      0.96563052     61247.769    
    100000   603.49281      8447.2118     -178.1158       1839.4154      3700.0534      4725.7561     -361.83922      234.33769      0.94158705     62811.734    
    120000   608.28355      8611.7737     -286.40193      1774.0482      3794.7278      4715.0554     -128.99889      255.51808      0.94636567     62494.57     
    140000   599.04339      8520.7033     -217.87676      1804.23        3562.4798      4754.477      -109.87426      240.11373      0.9338682      63330.901    
    160000   598.55335      8256.8777     -245.08907      1735.9598      3731.0526      4648.6604     -340.85689      238.82803      0.95806423     61731.472    
    180000   609.94         8325.7379     -331.20466      1831.6705      3761.1946      4622.1384     -295.50828      249.32295      0.96625886     61207.941    
    200000   609.54537      8362.1185     -343.07306      1799.5288      3623.2049      4747.5135     -213.12218      259.62889      0.96593213     61228.645    
    220000   608.90976      8068.7047     -391.81769      1787.4613      3653.4853      4573.5999     -277.47244      236.15323      0.97955261     60377.273    
    240000   602.42929      8432.8345     -360.40371      1770.5582      3766.4047      4733.2697     -212.00731      246.60094      0.9538327      62005.334    
    260000   601.80281      8298.4853     -353.79889      1807.1591      3688.5163      4648.9287     -216.21757      236.15177      0.96716397     61150.66     
    280000   597.43992      8471.1858     -399.50759      1779.8846      3775.0949      4781.1548     -196.10294      242.56959      0.97498344     60660.225    
    300000   608.79315      8271.9367     -424.78974      1761.4851      3710.4957      4721.6518     -233.72047      248.96857      0.96265308     61437.206    
    320000   600.30876      8175.5488     -397.80137      1768.6505      3643.9913      4639.2491     -227.14073      260.92507      0.97370323     60739.981    
    340000   596.73094      8597.6374     -295.0192       1788.2328      3777.6844      4731.9027     -144.73767      251.68951      0.96641319     61198.166    
    360000   591.2533       8378.6573     -347.02492      1773.1818      3736.8577      4763.7038     -265.11088      228.85477      0.9792119      60398.281    
    380000   613.3902       8568.8276     -275.38441      1802.6644      3776.5291      4743.5501     -219.54753      252.20484      0.95667448     61821.149    
    400000   614.91791      8302.7681     -398.31416      1778.503       3658.2366      4818.9942     -278.59691      236.18039      0.95307799     62054.434    
    420000   610.22862      8510.9607     -266.88043      1771.5572      3783.8955      4792.5391     -286.95975      229.38971      0.95173968     62141.693    
    440000   603.31445      8227.6624     -383.09751      1783.6327      3680.3038      4692.463      -273.30466      239.55578      0.97071076     60927.227    
    460000   601.91872      8334.1833     -381.96114      1779.0662      3741.9385      4724.037      -257.445        241.32771      0.95935756     61648.25     
    480000   600.31285      8384.1247     -402.74347      1813.9352      3729.4858      4719.5187     -216.17818      251.55674      0.9695925      60997.497    
    500000   601.33338      8291.8193     -349.37153      1797.2277      3599.4247      4770.9198     -253.02029      238.42037      0.95926999     61653.878    
    520000   599.02213      8622.985      -256.20966      1774.6295      3822.4422      4866.0013     -325.4411       254.20743      0.94203935     62781.576    
    540000   595.71588      8569.8099     -291.04963      1746.5835      3766.6123      4699.8344     -86.232938      245.53544      0.952749       62075.862    
    560000   597.82802      8406.8274     -365.9673       1773.483       3771.5122      4730.0835     -222.69694      232.24268      0.94513301     62576.076    
    580000   601.02363      8438.5949     -336.27742      1794.2804      3779.7419      4710.1354     -228.65921      231.48014      0.96154284     61508.144    
    600000   603.38682      8572.9905     -321.99197      1779.7216      3764.9469      4857.4294     -235.7538       240.78959      0.95488704     61936.871    
    620000   596.74767      8343.6786     -294.83858      1773.55        3657.2298      4740.1356     -257.05672      235.68088      0.94912397     62312.951    
    640000   607.51662      8459.6395     -257.99955      1796.2353      3662.5997      4706.6779     -195.4001       259.03388      0.95899196     61671.753    
    660000   601.66936      8364.8722     -341.55821      1770.6088      3724.2886      4638.3347     -171.908        257.35429      0.97555175     60624.887    
    680000   599.44681      8488.7905     -334.1452       1768.8455      3786.7824      4649.7062     -115.94283      243.61788      0.9628486      61424.73     
    700000   600.52773      8119.2614     -361.01931      1762.592       3652.9979      4557.2688     -220.02523      239.41118      0.95998255     61608.115    
    720000   593.15613      8341.7566     -425.51778      1805.9004      3646.1916      4789.9472     -203.32745      240.93539      0.96784382     61107.706    
    740000   591.66565      8402.4055     -269.02215      1757.3125      3735.8176      4609.5971     -154.20576      235.11743      0.95874361     61687.728    
    760000   594.77143      8387.7435     -249.39075      1793.5748      3633.673       4713.8334     -237.16329      246.27803      0.94960213     62281.574    
    780000   593.78713      8539.2523     -262.98254      1819.3899      3726.8008      4603.6097     -92.374493      256.45863      0.95301801     62058.339    
    800000   605.31461      8411.9344     -284.82328      1793.5549      3669.2759      4716.9635     -223.74933      253.33902      0.96305886     61411.32     
    820000   593.01407      8425.7935     -358.01322      1818.6601      3653.525       4819.8792     -243.25287      245.48908      0.94611746     62510.965    
    840000   605.32004      8492.3192     -353.94474      1823.8917      3706.8767      4824.4754     -227.34035      230.76073      0.95367745     62015.428    
    860000   606.7902       8455.4575     -226.12152      1813.7803      3616.9368      4733.6014     -201.61415      231.21063      0.94266267     62740.063    
    880000   593.55411      8501.6829     -251.976        1811.1504      3730.5151      4763.4732     -268.25387      226.84608      0.94447271     62619.824    
    900000   599.22071      8453.4525     -289.68201      1774.1662      3679.8786      4765.5088     -202.03245      238.54639      0.94634911     62495.663    
    920000   592.22225      8446.3336     -209.65861      1772.4643      3616.275       4622.7939     -100.06636      256.07318      0.9329493      63393.279    
    940000   603.30457      8510.5758     -299.19626      1783.0961      3814.5761      4667.3501     -195.70539      252.66228      0.9541795      61982.798    
    960000   581.46436      8348.0235     -335.44251      1821.8631      3728.6477      4738.926      -336.22129      241.49337      0.95702957     61798.211    
    980000   603.96447      8481.9168     -370.24242      1769.2712      3755.6658      4783.4        -202.54818      257.66694      0.96411491     61344.052    
   1000000   606.87383      8592.2677     -323.29068      1827.4352      3783.8334      4872.5707     -305.23234      247.67231      0.95203511     62122.41     
   1020000   594.4276       8383.8597     -337.59035      1774.1857      3693.6339      4739.6176     -216.69164      242.67973      0.96036127     61583.819    
   1040000   609.02335      8492.5546     -312.42693      1792.9173      3726.2655      4681.0635     -150.84866      267.8225       0.9552693      61912.086    
   1060000   596.53577      8553.8259     -348.58975      1818.7531      3718.6573      4798.4671     -183.49372      261.7344       0.95008489     62249.927    
   1080000   599.88741      8407.7643     -301.14027      1763.4023      3796.5325      4667.7865     -253.28345      245.93318      0.94642512     62490.644    
   1100000   594.87755      8334.5078     -365.13862      1774.8109      3724.2511      4599.8321     -139.16779      251.5609       0.953041       62056.842    
   1120000   611.05376      8161.8669     -360.6378       1790.9944      3633.561       4711.7541     -331.2705       229.71315      0.96592295     61229.227    
   1140000   613.53632      8445.1113     -335.45653      1804.3322      3708.1527      4768.739      -232.83517      242.03407      0.97015322     60962.242    
   1160000   599.35589      8388.1608     -219.31281      1772.9527      3785.6308      4695.4443     -354.78166      220.10303      0.96394141     61355.094    
   1180000   582.03823      8496.8185     -322.2758       1783.5152      3768.523       4717.8429     -180.19088      241.05302      0.96676882     61175.654    
   1200000   592.55449      8347.2386     -266.64583      1821.1032      3728.4848      4647.2747     -299.16755      228.31351      0.94078193     62865.488    
   1200104   596.89891      8224.5629     -310.22745      1829.8093      3638.6989      4619.876      -264.99861      223.89884      0.94373543     62668.745    
Loop time of 3552.05 on 24 procs for 1200000 steps with 5001 atoms

Performance: 7.297 ns/day, 3.289 hours/ns, 337.833 timesteps/s, 1.690 Matom-step/s
99.5% CPU use with 24 MPI tasks x no OpenMP threads

MPI task timing breakdown:
Section |  min time  |  avg time  |  max time  |%varavg| %total
---------------------------------------------------------------
Pair    | 1673.7     | 1851.4     | 2044.7     | 266.6 | 52.12
Bond    | 583.53     | 612.36     | 654.08     |  78.3 | 17.24
Kspace  | 639.77     | 867.34     | 1073.1     | 423.2 | 24.42
Neigh   | 54.682     | 54.768     | 54.826     |   0.6 |  1.54
Comm    | 118.17     | 120.7      | 122.85     |  11.9 |  3.40
Output  | 0.0030458  | 0.0035944  | 0.015765   |   4.2 |  0.00
Modify  | 31.762     | 33.453     | 34.977     |  15.7 |  0.94
Other   |            | 12.05      |            |       |  0.34

Nlocal:        208.375 ave         232 max         187 min
Histogram: 2 3 4 3 2 2 1 0 4 3
Nghost:        4194.33 ave        4235 max        4136 min
Histogram: 1 1 2 0 4 3 4 3 3 3
Neighs:          60082 ave       71008 max       50328 min
Histogram: 2 1 3 6 4 1 3 0 0 4

Total # of neighbors = 1441968
Ave neighs/atom = 288.33593
Ave special neighs/atom = 5.6904619
Neighbor list builds = 19716
Dangerous builds = 0
unfix           fNPT
unfix           fMOM
next            a
jump            SELF loop
variable        a loop 26
variable        b equal 600-20*($a-1)
variable        b equal 600-20*(2-1)
fix             fMOM all momentum 100 linear 1 1 1 angular
fix             fNPT all npt temp $b $b $(100.0*dt) iso 1 1 $(100.0*dt)
fix             fNPT all npt temp 580 $b $(100.0*dt) iso 1 1 $(100.0*dt)
fix             fNPT all npt temp 580 580 $(100.0*dt) iso 1 1 $(100.0*dt)
fix             fNPT all npt temp 580 580 25 iso 1 1 $(100.0*dt)
fix             fNPT all npt temp 580 580 25 iso 1 1 25
run             1200000
PPPM initialization ...
  using 12-bit tables for long-range coulomb (../kspace.cpp:342)
  G vector (1/distance) = 0.11274675
  grid = 4 4 4
  stencil order = 5
  estimated absolute RMS force accuracy = 0.33594077
  estimated relative force accuracy = 0.0010116756
  using double precision KISS FFT
  3d grid and FFT values/proc = 294 4
Generated 36 of 36 mixed pair_coeff terms from sixthpower/sixthpower mixing rule
WARNING: Inconsistent image flags (../domain.cpp:815)
Per MPI rank memory allocation (min/avg/max) = 15.03 | 15.04 | 15.23 Mbytes
   Step          Temp          PotEng         E_vdwl         E_coul         E_bond        E_angle        E_dihed        E_impro        Density         Volume    
   1200104   596.89891      8224.309      -310.22745      1823.142       3638.6989      4619.876      -264.99861      223.89884      0.94373543     62668.745    
   1220000   583.14519      8074.5772     -256.5829       1819.7582      3598.7504      4557.6265     -368.94115      229.46602      0.96296842     61417.087    
   1240000   576.84658      7913.7039     -372.84931      1806.7224      3403.6294      4541.266      -207.98869      248.66383      0.97261104     60808.188    
   1260000   579.9821       8210.9229     -289.25288      1826.2316      3634.793       4623.5507     -308.70288      230.44825      0.95862652     61695.263    
   1280000   566.00975      8097.6501     -348.74995      1793.486       3639.3103      4669.5102     -376.88083      225.34752      0.97350854     60752.128    
   1300000   587.61189      8024.5538     -264.89206      1770.64        3460.3562      4486.4252     -162.23252      239.09201      0.95941141     61644.79     
   1320000   579.10176      8265.4307     -278.35626      1777.1384      3610.3468      4639.6067     -217.00243      239.06457      0.96700608     61160.644    
   1340000   582.20717      7821.3591     -350.09396      1749.6701      3608.2953      4487.842      -386.66153      217.76875      0.97382221     60732.56     
   1360000   579.58896      8246.1668     -369.38634      1778.5341      3644.3682      4643.3943     -178.7991       233.63979      0.95751233     61767.054    
   1380000   575.9561       8126.2549     -319.95121      1791.5959      3569.2836      4469.4217     -142.44199      264.13006      0.96953743     61000.962    
   1400000   586.72488      8149.5895     -378.13119      1765.9781      3619.4552      4623.5351     -218.58212      241.71718      0.96722824     61146.597    
   1420000   576.66806      8083.9521     -431.51163      1801.5663      3631.8177      4613.117      -259.05211      233.71451      0.9670714      61156.513    
   1440000   571.78173      8036.2705     -381.39159      1771.5004      3547.7999      4639.5509     -283.07751      246.76071      0.96923085     61020.257    
   1460000   574.12823      8061.6798     -403.94399      1764.5305      3694.7119      4615.7486     -337.32083      233.07214      0.98050277     60318.764    
   1480000   581.29848      8104.5087     -360.62455      1775.3235      3655.4213      4604.7414     -299.29259      234.10244      0.97002463     60970.323    
   1500000   592.34662      7885.0003     -449.79583      1769.1769      3553.2436      4632.9653     -341.91442      227.17552      0.98419396     60092.541    
   1520000   571.79337      7718.6009     -413.43631      1791.1294      3491.2845      4561.7871     -445.16946      238.69897      0.98602096     59981.195    
   1540000   573.52817      8220.697      -409.40383      1764.2464      3561.7987      4856.2541     -283.30893      237.23381      0.98550003     60012.9      
   1560000   572.209        7990.9315     -399.52359      1797.4062      3450.479       4685.3933     -262.93935      224.43769      0.97054681     60937.52     
   1580000   575.35019      8124.2777     -308.39943      1785.3919      3587.1663      4559.5595     -244.85756      249.56221      0.97773738     60489.367    
   1600000   587.59133      8052.0531     -382.49039      1766.2221      3607.5277      4604.9189     -269.78572      231.64844      0.97155617     60874.211    
   1620000   592.57053      8282.2075     -348.35724      1797.2156      3675.837       4715.9751     -299.74407      247.45414      0.96495562     61290.607    
   1640000   579.76979      8031.4692     -269.1002       1738.2599      3469.6417      4641.5151     -258.85437      215.76684      0.95663355     61823.794    
   1660000   585.88773      8075.7172     -414.82269      1787.0127      3465.131       4701.9312     -197.7798       239.76812      0.97074925     60924.812    
   1680000   586.16235      8003.6332     -373.77062      1785.0855      3563.2306      4559.9304     -257.68528      232.37797      0.96728384     61143.082    
   1700000   579.05087      8187.5967     -415.28396      1766.8179      3543.2728      4687.3755     -129.1849       239.32443      0.98727942     59904.738    
   1720000   577.95987      8370.8911     -397.63502      1767.4806      3752.124       4743.8988     -229.27498      240.44182      0.98088464     60295.281    
   1740000   584.85772      8203.1484     -375.98134      1766.4557      3660.862       4638.3778     -215.40559      234.74419      0.96990657     60977.745    
   1760000   570.53688      7911.6629     -421.33154      1747.2593      3556.6387      4506.8661     -204.2845       232.27144      0.97410188     60715.123    
   1780000   577.84556      8040.3376     -361.80306      1782.2857      3597.3315      4533.9442     -249.3813       243.06758      0.9541847      61982.46     
   1800000   582.19344      7937.3933     -451.42988      1806.2678      3607.6719      4526.233      -279.47189      233.23222      0.96107529     61538.067    
   1820000   581.76957      8096.4324     -375.25919      1788.3223      3563.191       4726.6211     -344.46578      244.42743      0.96409797     61345.13     
   1840000   577.74544      8038.7526     -410.12276      1777.2867      3558.1165      4689.1392     -320.97936      251.13541      0.97042806     60944.976    
   1860000   576.27146      8105.3236     -434.62773      1776.3335      3528.4958      4686.2191     -187.46603      242.34655      0.97505713     60655.641    
   1880000   577.31826      7906.3775     -384.06056      1785.3782      3563.7785      4597.3528     -383.52121      232.63602      0.97355764     60749.064    
   1900000   574.28758      8004.7892     -421.51281      1773.4892      3585.5321      4652.0312     -316.82231      237.03249      0.97276046     60798.848    
   1920000   584.99512      8023.5265     -477.79785      1742.7255      3576.7403      4553.018      -124.71618      256.51343      0.98690534     59927.445    
   1940000   583.79032      8241.4477     -387.03981      1791.9732      3698.6397      4578.2299     -190.2546       254.46376      0.97945631     60383.209    
   1960000   583.86928      7775.9838     -371.93737      1752.6935      3465.8005      4472.2757     -261.53187      224.5093       0.95799982     61735.623    
   1980000   570.956        8167.5005     -402.51271      1790.587       3608.0818      4599.3047     -173.27966      251.05696      0.95997364     61608.687    
   2000000   583.72325      8223.5976     -381.35824      1762.8237      3643.0779      4787.6275     -309.75641      226.94667      0.9683215      61077.56     
   2020000   587.17896      7999.404      -332.16009      1768.5623      3595.8826      4584.4591     -343.37927      232.11565      0.9468293      62463.968    
   2040000   585.17668      8083.9888     -345.69963      1796.4006      3560.4843      4690.8873     -340.10419      227.6698       0.94882294     62332.721    
   2060000   593.90907      8139.934      -359.38481      1795.4439      3512.9275      4696.0669     -237.9104       239.07175      0.97086985     60917.243    
   2080000   591.70997      8196.9661     -364.39124      1758.758       3727.4708      4606.3929     -267.76325      241.05326      0.97247649     60816.602    
   2100000   579.34983      8021.3151     -353.91279      1784.8722      3598.3975      4565.4396     -305.84375      237.66626      0.96425538     61335.116    
   2120000   570.38207      8275.8532     -406.75187      1789.5385      3708.3412      4692.5326     -248.37687      246.86587      0.96216986     61468.061    
   2140000   586.75835      8094.3616     -430.0382       1783.285       3490.4646      4670.8917     -168.52336      253.6308       0.97938673     60387.499    
   2160000   576.91817      8232.883      -323.52078      1781.6807      3592.2301      4670.3143     -225.12105      242.98249      0.9553186      61908.891    
   2180000   581.52354      8024.0212     -364.03255      1799.7367      3615.0506      4592.2459     -345.55677      232.99294      0.96946329     61005.626    
   2200000   576.90723      8065.4673     -334.80716      1763.5815      3655.9087      4555.1777     -295.76661      227.27328      0.97198877     60847.118    
   2220000   572.86502      8133.5417     -395.00899      1779.7038      3689.9816      4708.0386     -387.90258      244.63798      0.96946081     61005.783    
   2240000   581.83324      7950.7407     -363.46239      1766.3335      3570.3747      4525.7713     -289.60103      246.64143      0.97564254     60619.246    
   2260000   579.76007      8115.8265     -433.01223      1761.2931      3642.9425      4665.8682     -265.29519      250.01005      0.97656879     60561.751    
   2280000   575.45411      7933.5762     -408.17263      1777.2604      3598.393       4493.9296     -270.61307      248.87167      0.97720865     60522.096    
   2300000   594.78632      8181.3614     -397.09519      1757.8854      3696.2054      4689.6345     -294.13229      234.87176      0.97772784     60489.957    
   2320000   579.0642       7905.2543     -379.19871      1797.1262      3536.4739      4506.8453     -273.12685      222.48936      0.98091564     60293.376    
   2340000   577.0511       7971.4304     -435.834        1766.8208      3503.1928      4683.1718     -273.96747      232.29299      0.96612931     61216.149    
   2360000   580.47354      7861.3515     -434.11764      1769.0661      3518.8853      4582.2979     -298.21373      228.93754      0.97382216     60732.563    
   2380000   576.87047      8153.1965     -377.28346      1770.9662      3508.5173      4740.762      -242.91172      258.60777      0.96478383     61301.52     
   2400000   588.78806      8091.9452     -348.26739      1758.1916      3598.2188      4708.9115     -343.91574      224.35135      0.98084519     60297.706    
   2400104   573.35518      8139.2649     -417.72602      1759.5064      3571.6579      4746.3088     -255.41836      240.29281      0.97914796     60402.225    
Loop time of 3563.79 on 24 procs for 1200000 steps with 5001 atoms

Performance: 7.273 ns/day, 3.300 hours/ns, 336.721 timesteps/s, 1.684 Matom-step/s
99.5% CPU use with 24 MPI tasks x no OpenMP threads

MPI task timing breakdown:
Section |  min time  |  avg time  |  max time  |%varavg| %total
---------------------------------------------------------------
Pair    | 1711.3     | 1872.3     | 2082.1     | 276.1 | 52.54
Bond    | 589.52     | 608.92     | 648.45     |  58.4 | 17.09
Kspace  | 615.36     | 864.09     | 1039.4     | 429.6 | 24.25
Neigh   | 51.517     | 51.598     | 51.661     |   0.6 |  1.45
Comm    | 118.68     | 121.37     | 123.74     |  12.1 |  3.41
Output  | 0.0041378  | 0.0044439  | 0.011046   |   2.1 |  0.00
Modify  | 31.573     | 33.302     | 34.763     |  15.9 |  0.93
Other   |            | 12.16      |            |       |  0.34

Nlocal:        208.375 ave         237 max         185 min
Histogram: 1 4 2 3 4 4 1 3 1 1
Nghost:        4320.88 ave        4385 max        4270 min
Histogram: 3 4 2 4 1 3 1 1 3 2
Neighs:          62411 ave       73631 max       51363 min
Histogram: 1 1 2 5 5 3 2 2 1 2

Total # of neighbors = 1497864
Ave neighs/atom = 299.5129
Ave special neighs/atom = 5.6904619
Neighbor list builds = 19111
Dangerous builds = 0
unfix           fNPT
unfix           fMOM
next            a
jump            SELF loop
variable        a loop 26
variable        b equal 600-20*($a-1)
variable        b equal 600-20*(3-1)
fix             fMOM all momentum 100 linear 1 1 1 angular
fix             fNPT all npt temp $b $b $(100.0*dt) iso 1 1 $(100.0*dt)
fix             fNPT all npt temp 560 $b $(100.0*dt) iso 1 1 $(100.0*dt)
fix             fNPT all npt temp 560 560 $(100.0*dt) iso 1 1 $(100.0*dt)
fix             fNPT all npt temp 560 560 25 iso 1 1 $(100.0*dt)
fix             fNPT all npt temp 560 560 25 iso 1 1 25
run             1200000
PPPM initialization ...
  using 12-bit tables for long-range coulomb (../kspace.cpp:342)
  G vector (1/distance) = 0.11376846
  grid = 4 4 4
  stencil order = 5
  estimated absolute RMS force accuracy = 0.33435715
  estimated relative force accuracy = 0.0010069066
  using double precision KISS FFT
  3d grid and FFT values/proc = 294 4
Generated 36 of 36 mixed pair_coeff terms from sixthpower/sixthpower mixing rule
WARNING: Inconsistent image flags (../domain.cpp:815)
Per MPI rank memory allocation (min/avg/max) = 15.03 | 15.04 | 15.23 Mbytes
   Step          Temp          PotEng         E_vdwl         E_coul         E_bond        E_angle        E_dihed        E_impro        Density         Volume    
   2400104   573.35518      8140.9168     -417.72602      1774.774       3571.6579      4746.3088     -255.41836      240.29281      0.97914796     60402.225    
   2420000   555.15998      7891.3176     -458.00447      1752.6958      3569.5678      4563.1243     -253.33021      235.9752       0.9809691      60290.09     
   2440000   566.05593      7567.0662     -430.44403      1790.391       3415.6641      4497.1557     -409.71989      222.03522      0.98363911     60126.437    
   2460000   559.21906      7633.5964     -425.92178      1765.1382      3435.6953      4667.2978     -507.4509       217.27277      0.9976938      59279.426    
   2480000   568.68825      7596.1773     -598.11494      1792.1321      3563.6219      4527.4472     -400.83898      231.60285      0.98122711     60274.237    
   2500000   569.7516       7651.8164     -466.88132      1803.9378      3523.3983      4484.4614     -401.47545      227.71547      0.99451964     59468.625    
   2520000   565.47468      7608.4562     -444.83466      1762.0229      3568.827       4396.2868     -389.62477      234.61356      0.99285966     59568.051    
   2540000   556.62897      7411.9746     -544.93437      1771.3194      3547.1535      4398.2791     -459.26621      218.62198      0.9895127      59769.536    
   2560000   559.14979      7864.7716     -379.50074      1811.2359      3538.1698      4601.4895     -419.56912      230.90826      0.97145708     60880.42     
   2580000   557.74752      7733.8571     -430.30247      1771.1075      3470.3822      4519.9717     -307.55583      229.36834      0.96652903     61190.832    
   2600000   561.49351      7860.8202     -373.22671      1829.5474      3496.2441      4540.3454     -350.62024      235.69536      0.9714202      60882.731    
   2620000   567.87946      7608.4988     -576.99551      1808.2235      3487.0139      4542.3053     -342.70691      210.06628      0.98424573     60089.38     
   2640000   547.16098      7628.8212     -387.33321      1792.8249      3420.2668      4485.4321     -373.38221      209.77977      0.97540549     60633.978    
   2660000   564.23572      7603.7646     -413.1087       1781.3404      3415.1104      4401.5483     -287.56148      226.39395      0.97778026     60486.714    
   2680000   565.44154      7672.6        -440.77216      1771.8737      3459.3088      4478.2278     -307.76702      230.38558      0.97816907     60462.671    
   2700000   562.32683      7786.6434     -406.74801      1803.0369      3442.9083      4659.3443     -424.22859      231.98882      0.97443514     60694.358    
   2720000   566.58704      7662.3057     -458.42865      1792.7365      3494.5345      4476.9853     -342.23946      217.44207      0.97795842     60475.695    
   2740000   569.41907      7786.8369     -393.93477      1807.3498      3609.2077      4431.4251     -365.08276      217.1337       0.97694994     60538.122    
   2760000   559.4894       7944.6827     -467.90954      1807.1305      3544.7161      4679.8526     -353.26107      253.1517       0.99174782     59634.832    
   2780000   548.23173      7715.3844     -376.84804      1757.2225      3496.3945      4476.6392     -351.79494      233.40069      0.98265837     60186.446    
   2800000   556.30768      8006.1854     -419.81678      1757.6238      3627.3906      4661.6342     -339.28282      238.38208      0.96221248     61465.338    
   2820000   552.1963       7699.317      -369.87778      1770.9073      3543.3564      4418.989      -385.79965      240.95738      0.97809235     60467.414    
   2840000   561.90753      7545.8989     -487.28756      1781.3451      3359.1586      4523.5655     -339.16122      227.76075      0.99044765     59713.116    
   2860000   559.6827       7735.2937     -429.80089      1779.2437      3535.9595      4527.4142     -384.81556      226.06377      0.98833635     59840.676    
   2880000   559.38959      7576.3159     -476.02854      1795.48        3475.5212      4444.4329     -372.61521      229.46606      0.99730594     59302.48     
   2900000   564.3266       7640.0814     -441.05384      1765.9692      3466.8636      4543.6889     -399.69642      223.93358      0.98826153     59845.206    
   2920000   563.44297      7844.8036     -386.79962      1786.5542      3595.5568      4475.5681     -338.25894      231.89402      0.97698487     60535.958    
   2940000   569.13999      7586.2679     -475.87699      1770.9323      3503.8586      4454.9653     -382.56785      234.19585      0.98644173     59955.61     
   2960000   559.15693      7693.2727     -421.08663      1810.1694      3521.1008      4413.352      -348.8812       237.71657      0.98027154     60332.992    
   2980000   559.93048      7743.8868     -431.56006      1788.0664      3647.8162      4407.9615     -389.23888      239.83275      0.97939543     60386.962    
   3000000   563.36444      7752.8215     -476.36526      1764.3546      3454.8369      4621.6944     -325.13596      231.91585      0.98592568     59986.991    
   3020000   568.20391      7663.0052     -411.73424      1786.9203      3480.0381      4502.707      -408.0015       231.75252      0.97030329     60952.813    
   3040000   566.49973      7687.1337     -495.16472      1776.4952      3457.5425      4555.9423     -333.96156      244.6915       1.0052458      58834.086    
   3060000   554.43303      7681.0044     -486.50227      1759.0133      3475.4712      4569.3119     -341.58152      224.54107      0.98909194     59794.962    
   3080000   547.91856      7901.8721     -367.65249      1838.245       3575.5747      4537.8695     -383.05121      220.77723      0.96629038     61205.944    
   3100000   562.95342      7744.3335     -401.13507      1776.967       3488.2251      4486.9858     -331.97079      244.27182      0.9714526      60880.701    
   3120000   550.74349      7748.7971     -414.10805      1805.2302      3444.7379      4484.6324     -282.3506       229.68942      0.96165775     61500.794    
   3140000   554.09458      7610.5723     -395.11893      1797.8026      3498.4858      4440.114      -427.37964      215.55714      0.98355251     60131.731    
   3160000   570.6251       7883.3516     -448.29453      1770.0484      3577.9138      4622.9675     -358.39743      236.9547       0.98215915     60217.039    
   3180000   560.69219      7837.4506     -517.64274      1790.4814      3491.1748      4801.0384     -422.06743      213.70157      0.98174167     60242.645    
   3200000   548.80856      7798.0937     -432.81939      1765.5288      3609.8388      4527.5794     -384.7274       232.27048      0.97837185     60450.14     
   3220000   547.55581      7539.6246     -469.19912      1780.2665      3446.1239      4404.4085     -334.02997      231.28717      0.98226085     60210.803    
   3240000   551.7301       7635.9837     -546.47676      1792.5112      3481.2371      4554.3144     -348.27152      221.59923      0.99402154     59498.424    
   3260000   567.32299      7510.3894     -459.72216      1799.7195      3453.1818      4439.8508     -435.79757      231.28504      0.97697956     60536.287    
   3280000   563.63088      7715.2172     -435.01171      1771.9562      3386.5331      4584.8253     -319.14449      245.03764      0.9945069      59469.386    
   3300000   554.24644      7849.886      -360.2532       1804.6111      3545.3739      4458.2715     -318.35288      240.70642      0.96844758     61069.609    
   3320000   562.95852      7836.4649     -407.03555      1767.3968      3533.0786      4570.5632     -344.25544      236.11242      0.98011269     60342.77     
   3340000   561.21666      7581.4762     -480.34183      1778.4227      3398.6721      4529.529      -355.4467       229.79028      0.9704343      60944.585    
   3360000   561.81865      7814.2154     -441.77648      1760.5591      3522.3762      4553.9957     -299.91584      237.84954      0.96876232     61049.769    
   3380000   562.77625      7875.6871     -391.65184      1771.9002      3433.2557      4551.6007     -208.60685      238.0861       0.97213291     60838.096    
   3400000   562.19978      7600.4362     -411.7819       1756.5604      3502.1551      4414.4959     -373.08773      231.17076      0.97317221     60773.124    
   3420000   559.27283      7879.6686     -451.86179      1748.4295      3623.2523      4599.229      -362.77604      242.34595      0.98308228     60160.494    
   3440000   557.32753      7572.1099     -394.19348      1798.3767      3425.184       4454.2877     -433.94488      241.16517      0.96805328     61094.484    
   3460000   574.57414      7960.814      -407.06754      1745.9282      3613.1849      4560.65       -274.35115      241.26479      0.98131906     60268.589    
   3480000   553.44929      7694.4016     -416.48639      1779.1506      3507.0574      4508.2011     -380.97856      216.96717      0.97641454     60571.318    
   3500000   560.1368       7557.9764     -400.46621      1775.76        3555.2397      4405.131      -473.66332      215.00984      0.98464277     60065.149    
   3520000   556.66918      7780.6636     -472.20218      1770.9206      3500.2645      4577.8603     -309.31656      232.00551      0.97486179     60667.795    
   3540000   560.33778      7802.2932     -429.83858      1797.9306      3445.6269      4491.5599     -221.34906      237.43668      0.98044981     60322.022    
   3560000   562.98174      7689.0722     -400.47192      1793.3329      3592.4416      4376.5032     -386.87718      233.01677      0.97427984     60704.033    
   3580000   554.85534      7719.3967     -496.46256      1795.6898      3468.1299      4484.6921     -252.89847      239.32034      0.99693788     59324.373    
   3600000   564.30168      7705.6862     -405.49652      1782.5413      3567.0891      4501.1245     -441.48928      222.42115      0.96639808     61199.124    
   3600104   562.78865      7648.5088     -369.67049      1778.2844      3418.1776      4487.1286     -366.78839      221.33552      0.97152988     60875.858    
Loop time of 3569.88 on 24 procs for 1200000 steps with 5001 atoms

Performance: 7.261 ns/day, 3.305 hours/ns, 336.146 timesteps/s, 1.681 Matom-step/s
99.5% CPU use with 24 MPI tasks x no OpenMP threads

MPI task timing breakdown:
Section |  min time  |  avg time  |  max time  |%varavg| %total
---------------------------------------------------------------
Pair    | 1733.4     | 1896.2     | 2059.7     | 237.6 | 53.12
Bond    | 570.78     | 608.65     | 639.51     |  82.0 | 17.05
Kspace  | 681        | 847.58     | 1032.5     | 367.7 | 23.74
Neigh   | 50.26      | 50.3       | 50.324     |   0.3 |  1.41
Comm    | 119.64     | 122.09     | 124.11     |  11.4 |  3.42
Output  | 0.0029413  | 0.0032896  | 0.010822   |   2.7 |  0.00
Modify  | 31.485     | 33.186     | 34.521     |  15.9 |  0.93
Other   |            | 11.87      |            |       |  0.33

Nlocal:        208.375 ave         234 max         184 min
Histogram: 2 3 2 1 3 5 3 2 1 2
Nghost:        4298.25 ave        4351 max        4189 min
Histogram: 1 0 1 1 0 5 6 2 4 4
Neighs:        61833.8 ave       70899 max       49662 min
Histogram: 2 0 1 3 4 3 3 2 4 2

Total # of neighbors = 1484012
Ave neighs/atom = 296.74305
Ave special neighs/atom = 5.6904619
Neighbor list builds = 18522
Dangerous builds = 0
unfix           fNPT
unfix           fMOM
next            a
jump            SELF loop
variable        a loop 26
variable        b equal 600-20*($a-1)
variable        b equal 600-20*(4-1)
fix             fMOM all momentum 100 linear 1 1 1 angular
fix             fNPT all npt temp $b $b $(100.0*dt) iso 1 1 $(100.0*dt)
fix             fNPT all npt temp 540 $b $(100.0*dt) iso 1 1 $(100.0*dt)
fix             fNPT all npt temp 540 540 $(100.0*dt) iso 1 1 $(100.0*dt)
fix             fNPT all npt temp 540 540 25 iso 1 1 $(100.0*dt)
fix             fNPT all npt temp 540 540 25 iso 1 1 25
run             1200000
PPPM initialization ...
  using 12-bit tables for long-range coulomb (../kspace.cpp:342)
  G vector (1/distance) = 0.1135514
  grid = 4 4 4
  stencil order = 5
  estimated absolute RMS force accuracy = 0.33470132
  estimated relative force accuracy = 0.0010079431
  using double precision KISS FFT
  3d grid and FFT values/proc = 294 4
Generated 36 of 36 mixed pair_coeff terms from sixthpower/sixthpower mixing rule
WARNING: Inconsistent image flags (../domain.cpp:815)
Per MPI rank memory allocation (min/avg/max) = 15.03 | 15.04 | 15.23 Mbytes
   Step          Temp          PotEng         E_vdwl         E_coul         E_bond        E_angle        E_dihed        E_impro        Density         Volume    
   3600104   562.78865      7648.1953     -369.67049      1775.0757      3418.1776      4487.1286     -366.78839      221.33552      0.97152988     60875.858    
   3620000   529.3399       7402.0136     -418.0866       1809.2773      3404.0239      4281.8858     -393.2336       234.97976      0.98574379     59998.06     
   3640000   548.77054      7392.3665     -377.65301      1780.3372      3361.4974      4375.7742     -449.83893      218.72374      0.97394447     60724.935    
   3660000   531.57386      7104.645      -519.78293      1772.3281      3343.881       4272.4845     -458.8134       209.08263      1.0106848      58517.466    
   3680000   526.97349      7514.3517     -521.08399      1810.955       3497.261       4475.6917     -457.53773      223.63251      0.99172672     59636.101    
   3700000   543.21445      7334.6575     -510.91184      1809.4325      3342.5072      4377.9241     -384.81572      217.02994      0.99382568     59510.15     
   3720000   540.01681      7329.4679     -519.04922      1783.2594      3346.2593      4444.5295     -423.35595      215.14556      0.98840116     59836.752    
   3740000   525.18683      7404.9501     -500.99037      1792.5625      3463.4988      4386.9572     -438.17959      218.16139      0.99244978     59592.653    
   3760000   544.25817      7302.4006     -491.4404       1780.6046      3317.2857      4470.811      -468.71871      210.85698      0.98957825     59765.577    
   3780000   546.53565      7393.1656     -465.59691      1773.4165      3384.5285      4365.9434     -386.02575      238.07491      0.99449853     59469.887    
   3800000   532.22932      7379.578      -468.54667      1774.3879      3384.6813      4401.6811     -410.66772      214.67396      0.97857134     60437.816    
   3820000   528.59435      7289.4689     -560.18994      1751.9057      3337.9928      4404.2294     -347.49201      219.81576      1.0027455      58980.783    
   3840000   545.50109      7445.2139     -531.68897      1757.6912      3418.6801      4515.9974     -400.94484      202.38178      0.97908504     60406.106    
   3860000   531.90065      7434.0961     -447.2033       1799.3777      3370.2247      4351.3341     -349.67803      225.77942      0.97690638     60540.822    
   3880000   539.62034      7368.7994     -433.79314      1773.0494      3346.258       4479.2494     -494.21637      213.8452       0.99625246     59365.189    
   3900000   531.61069      7382.2858     -386.03594      1789.4298      3292.1603      4420.2702     -440.50186      222.81034      0.97817014     60462.606    
   3920000   551.50548      7283.4535     -470.91545      1745.426       3307.048       4329.3323     -322.93989      211.21962      0.9898909      59746.701    
   3940000   535.08272      7363.937      -499.01393      1780.9949      3354.3914      4377.6994     -352.40907      218.40375      1.0044077      58883.176    
   3960000   537.62609      7397.1532     -480.68964      1781.4823      3368.332       4360.8878     -344.17335      226.89264      0.99471541     59456.92     
   3980000   542.05386      7369.9595     -490.10596      1761.1908      3328.0205      4446.3743     -375.90899      217.33074      0.97125678     60892.975    
   4000000   532.66391      7424.9449     -494.24229      1782.0323      3366.0982      4412.0171     -359.2318       234.57474      0.9966017      59344.385    
   4020000   534.51282      7396.8552     -410.27131      1794.4615      3340.1512      4355.959      -392.07407      225.31883      0.97780551     60485.152    
   4040000   533.18796      7440.0365     -412.46152      1762.1738      3378.3615      4351.7388     -340.14884      216.22159      0.97936741     60388.69     
   4060000   534.10726      7412.6296     -537.08793      1788.8327      3374.6969      4456.0134     -367.72503      214.22216      1.0017546      59039.127    
   4080000   532.55996      7339.8329     -416.92689      1759.4295      3320.3891      4372.3863     -412.12224      232.28719      0.98986457     59748.29     
   4100000   545.30087      7412.7055     -479.38306      1762.7628      3358.8106      4433.0195     -375.70157      229.35529      0.98361118     60128.145    
   4120000   531.46605      7299.22       -592.38503      1757.6798      3440.1569      4422.1364     -432.71016      220.83999      0.9941845      59488.672    
   4140000   542.84548      7471.9913     -458.8682       1787.1935      3387.7937      4434.0874     -397.49176      235.63457      0.98212164     60219.338    
   4160000   530.87367      7452.0074     -483.7705       1781.9537      3478.7644      4433.9538     -467.91143      226.12627      0.97826842     60456.531    
   4180000   548.62201      7361.7346     -516.53336      1800.2262      3308.501       4423.9738     -359.95425      221.20785      1.0007526      59098.239    
   4200000   547.50126      7372.3911     -449.61497      1758.9956      3380.5042      4431.8094     -454.1433       221.75101      0.97870229     60429.73     
   4220000   553.62971      7608.8117     -407.36797      1800.0593      3458.3806      4435.0359     -379.16554      217.93979      0.96556822     61251.721    
   4240000   549.38297      7328.3932     -534.44694      1780.0804      3354.6083      4401.2463     -375.9819       218.68343      0.99268328     59578.635    
   4260000   540.70779      7468.0348     -476.4221       1776.5275      3348.1987      4554.9        -439.12383      219.7864       0.99448813     59470.509    
   4280000   523.85151      7572.9952     -443.34981      1758.7368      3427.107       4460.5505     -343.45404      230.21153      0.99750549     59290.616    
   4300000   544.22945      7339.2925     -479.6943       1803.5151      3457.3328      4459.1267     -587.92901      203.3391       1.0020029      59024.493    
   4320000   535.52604      7415.2663     -447.37186      1748.3708      3418.6846      4331.0801     -352.31831      233.29682      1.0050744      58844.118    
   4340000   537.70017      7346.0443     -537.95636      1743.1057      3380.1347      4449.2574     -388.15073      215.59035      0.99746205     59293.198    
   4360000   534.69485      7180.5684     -503.41678      1776.3671      3380.0806      4334.1657     -500.51006      210.49339      1.0094192      58590.836    
   4380000   550.22331      7401.0563     -481.46529      1769.822       3520.4047      4303.5796     -411.56528      217.55607      0.99063983     59701.532    
   4400000   543.35123      7519.2726     -504.32652      1797.5765      3409.7192      4436.8405     -319.55585      215.68689      0.98662365     59944.554    
   4420000   547.06364      7373.4925     -418.72521      1776.8094      3387.9597      4466.8589     -540.9179       218.17236      0.98572478     59999.217    
   4440000   535.70416      7410.9964     -482.57817      1805.881       3331.2792      4264.0711     -227.62209      235.51804      0.99348127     59530.78     
   4460000   538.12299      7542.0707     -399.284        1764.0521      3515.4415      4425.4515     -470.71673      221.31999      0.96716857     61150.369    
   4480000   534.79794      7308.3567     -440.28445      1773.7869      3318.4278      4403.8235     -448.77996      218.31403      0.97680739     60546.957    
   4500000   554.09821      7473.0774     -421.10216      1793.6489      3391.9032      4298.6786     -302.00862      226.07124      0.98458997     60068.37     
   4520000   539.0039       7215.9393     -563.32693      1781.0699      3373.9957      4310.8609     -387.94864      217.37673      0.98623625     59968.101    
   4540000   535.83697      7156.6862     -474.98703      1764.2639      3293.3936      4304.7231     -439.44131      225.07427      0.99561399     59403.259    
   4560000   543.85111      7433.9494     -534.59379      1782.8518      3443.6636      4467.632      -418.65923      209.20868      0.99664288     59341.933    
   4580000   531.20164      7296.2457     -521.66268      1765.6126      3355.9814      4353.2826     -361.77074      221.40545      1.0062087      58777.784    
   4600000   544.91547      7301.8437     -503.89919      1787.8243      3417.9476      4297.6537     -397.79122      215.97026      0.98742304     59896.025    
   4620000   538.30035      7348.9247     -522.50763      1760.8813      3330.6495      4537.8074     -453.78221      211.75852      1.0021929      59013.302    
   4640000   532.8936       7384.7034     -399.81518      1755.5746      3378.5132      4272.4187     -322.11142      216.47665      0.97694354     60538.519    
   4660000   530.8849       7201.82       -506.28864      1768.346       3351.8995      4254.0994     -377.91916      227.17778      1.0074337      58706.311    
   4680000   542.46888      7225.0853     -597.07585      1764.7992      3331.9355      4320.8266     -305.66867      227.32239      1.0091847      58604.453    
   4700000   547.37047      7304.0717     -564.37173      1787.8504      3411.3883      4471.6089     -501.66776      215.95008      0.9911455      59671.073    
   4720000   540.35219      7369.9044     -519.91733      1807.9799      3280.4865      4460.5178     -361.99167      219.96039      0.99147819     59651.05     
   4740000   547.84532      7194.581      -404.03511      1767.2318      3426.8616      4218.6879     -515.69896      218.55426      0.99048833     59710.663    
   4760000   545.9029       7283.6812     -486.82304      1745.8611      3240.158       4449.5192     -370.66169      221.85161      0.96997831     60973.235    
   4780000   540.26273      7300.647      -542.67414      1740.9873      3315.8386      4394.4871     -321.77156      230.2087       0.99284632     59568.852    
   4800000   543.62563      7291.5517     -500.01182      1743.3287      3349.472       4367.6109     -378.47636      226.1396       0.99000252     59739.964    
   4800104   529.25773      7340.1726     -493.9233       1755.4669      3390.7721      4373.3591     -380.97331      211.83414      0.98837137     59838.556    
Loop time of 3576.45 on 24 procs for 1200000 steps with 5001 atoms

Performance: 7.247 ns/day, 3.312 hours/ns, 335.528 timesteps/s, 1.678 Matom-step/s
99.5% CPU use with 24 MPI tasks x no OpenMP threads

MPI task timing breakdown:
Section |  min time  |  avg time  |  max time  |%varavg| %total
---------------------------------------------------------------
Pair    | 1718.5     | 1916.6     | 2117.2     | 259.3 | 53.59
Bond    | 572.66     | 608.47     | 649.88     |  72.3 | 17.01
Kspace  | 614.65     | 836.13     | 1040.2     | 398.5 | 23.38
Neigh   | 47.782     | 47.854     | 47.895     |   0.4 |  1.34
Comm    | 119.49     | 122.12     | 124.39     |  11.6 |  3.41
Output  | 0.0036896  | 0.004241   | 0.016373   |   3.9 |  0.00
Modify  | 31.605     | 33.269     | 34.613     |  15.5 |  0.93
Other   |            | 12.03      |            |       |  0.34

Nlocal:        208.375 ave         229 max         192 min
Histogram: 1 3 5 1 4 3 4 1 1 1
Nghost:        4344.71 ave        4382 max        4303 min
Histogram: 2 1 2 1 4 3 4 3 3 1
Neighs:        63014.2 ave       71698 max       53232 min
Histogram: 2 3 2 0 2 7 2 1 1 4

Total # of neighbors = 1512342
Ave neighs/atom = 302.40792
Ave special neighs/atom = 5.6904619
Neighbor list builds = 17660
Dangerous builds = 0
unfix           fNPT
unfix           fMOM
next            a
jump            SELF loop
variable        a loop 26
variable        b equal 600-20*($a-1)
variable        b equal 600-20*(5-1)
fix             fMOM all momentum 100 linear 1 1 1 angular
fix             fNPT all npt temp $b $b $(100.0*dt) iso 1 1 $(100.0*dt)
fix             fNPT all npt temp 520 $b $(100.0*dt) iso 1 1 $(100.0*dt)
fix             fNPT all npt temp 520 520 $(100.0*dt) iso 1 1 $(100.0*dt)
fix             fNPT all npt temp 520 520 25 iso 1 1 $(100.0*dt)
fix             fNPT all npt temp 520 520 25 iso 1 1 25
run             1200000
PPPM initialization ...
  using 12-bit tables for long-range coulomb (../kspace.cpp:342)
  G vector (1/distance) = 0.1140293
  grid = 4 4 4
  stencil order = 5
  estimated absolute RMS force accuracy = 0.33393808
  estimated relative force accuracy = 0.0010056446
  using double precision KISS FFT
  3d grid and FFT values/proc = 294 4
Generated 36 of 36 mixed pair_coeff terms from sixthpower/sixthpower mixing rule
WARNING: Inconsistent image flags (../domain.cpp:815)
Per MPI rank memory allocation (min/avg/max) = 15.03 | 15.05 | 15.23 Mbytes
   Step          Temp          PotEng         E_vdwl         E_coul         E_bond        E_angle        E_dihed        E_impro        Density         Volume    
   4800104   529.25773      7340.6193     -493.9233       1762.2846      3390.7721      4373.3591     -380.97331      211.83414      0.98837137     59838.556    
   4820000   524.27487      6952.6447     -546.78489      1731.0343      3265.338       4301.6753     -485.3835       208.68895      1.0056801      58808.678    
   4840000   521.02351      6810.4785     -564.60966      1796.3787      3299.6047      4142.6187     -543.45634      202.71728      1.0004453      59116.389    
   4860000   518.24086      7117.2456     -571.93465      1784.0011      3230.9302      4330.9727     -349.3413       215.23902      0.99962657     59164.809    
   4880000   507.66472      6842.853      -569.28761      1751.3777      3260.3582      4227.7721     -520.23692      215.23749      1.0098799      58564.107    
   4900000   512.07477      7036.052      -564.90223      1764.6498      3272.8296      4235.2555     -363.97491      213.92564      1.0084289      58648.372    
   4920000   528.64514      6936.9385     -566.27165      1702.2575      3253.7284      4381.0645     -527.60884      215.83805      0.99965251     59163.274    
   4940000   516.73056      6740.1751     -648.13677      1780.3393      3145.0779      4285.2711     -506.94062      205.95796      1.0126075      58406.357    
   4960000   516.2754       6903.6976     -633.3743       1752.6001      3251.3358      4335.0156     -488.27953      207.9071       1.0184808      58069.545    
   4980000   528.66737      6770.2132     -590.28742      1776.8403      3313.2414      4132.0688     -558.41338      219.09832      1.0204861      57955.434    
   5000000   526.27859      7054.5799     -608.26442      1758.7583      3365.9143      4318.2585     -473.95063      216.5151       1.0141975      58314.792    
   5020000   524.17602      7008.716      -519.07857      1757.6941      3312.0431      4283.6727     -515.23009      210.48604      1.0086947      58632.922    
   5040000   511.91473      7000.7271     -581.15874      1778.3259      3335.0799      4225.1535     -453.4047       218.62617      0.99613599     59372.13     
   5060000   524.97661      7169.8353     -594.75023      1773.7386      3333.4677      4330.6649     -362.85525      211.73721      1.0104744      58529.651    
   5080000   533.43369      6978.1456     -547.90129      1756.8912      3186.6604      4262.7682     -380.26753      222.39768      1.0015861      59049.058    
   5100000   521.47621      6930.0499     -621.02205      1750.1259      3188.5958      4346.2985     -409.93598      198.95502      1.0066313      58753.107    
   5120000   525.38709      6908.0669     -556.88253      1738.1708      3207.2211      4251.5917     -419.42019      210.35464      1.0072615      58716.349    
   5140000   517.20659      6870.6213     -509.26475      1758.9464      3176.4802      4276.6202     -512.21491      203.20089      1.00259        58989.932    
   5160000   531.95598      6911.7829     -610.87374      1740.2573      3340.7733      4173.1961     -413.39743      204.1694       1.0151548      58259.8      
   5180000   525.29634      7104.0514     -497.03053      1748.645       3251.685       4425.7995     -512.69906      209.72951      0.99541029     59415.415    
   5200000   524.35894      6987.7072     -501.48311      1799.4942      3343.4759      4224.2552     -557.61865      201.59235      0.98798442     59861.992    
   5220000   520.45309      6858.1367     -609.02091      1789.6987      3384.4112      4235.2237     -612.73997      193.53898      1.0111106      58492.823    
   5240000   527.3992       6978.4383     -602.64357      1782.8434      3355.4649      4247.4294     -503.84947      221.63537      0.99763106     59283.154    
   5260000   517.87746      6910.8043     -574.81768      1782.9861      3237.2162      4226.4417     -446.45134      208.19238      0.99112712     59672.179    
   5280000   518.80297      7065.3122     -545.40707      1803.4915      3310.9466      4310.5256     -506.86372      213.82203      0.99332326     59540.25     
   5300000   516.81867      6898.3895     -583.47123      1779.8907      3156.2397      4317.2489     -460.57342      210.87585      1.005467       58821.137    
   5320000   507.42282      6795.6215     -519.41797      1766.3108      3201.8765      4250.9388     -578.7641       197.4722       1.0096619      58576.75     
   5340000   510.51149      7034.4242     -526.08081      1763.4143      3301.4392      4239.196      -421.57227      200.26941      0.9863882      59958.863    
   5360000   528.75764      7013.3749     -498.84596      1759.4522      3288.5548      4334.4672     -550.19544      203.19891      1.0013612      59062.319    
   5380000   530.32585      7154.5152     -513.53614      1757.2024      3339.0924      4366.2714     -483.31041      210.852        0.99262099     59582.374    
   5400000   532.06263      6997.7963     -550.33328      1788.8536      3218.4202      4465.1553     -594.95843      192.85497      1.002919       58970.58     
   5420000   531.51835      7010.1496     -520.7851       1760.5361      3341.4562      4354.5531     -614.4802       211.54353      0.99245819     59592.148    
   5440000   528.27646      6965.8172     -516.69182      1756.645       3156.0297      4284.4774     -403.88182      211.72951      1.0073611      58710.543    
   5460000   518.65474      7033.1693     -493.63975      1751.3365      3249.6686      4225.2731     -395.44774      219.64341      1.00528        58832.084    
   5480000   512.16188      6993.1189     -612.51848      1738.714       3348.0535      4302.857      -469.93823      209.40177      1.0081385      58665.267    
   5500000   520.38015      6995.5843     -617.37126      1748.5933      3326.5784      4213.1069     -370.45823      217.33116      1.0097406      58572.187    
   5520000   507.35701      7133.0631     -538.24486      1791.2449      3313.1496      4274.6611     -405.8012       220.07848      0.99615969     59370.717    
   5540000   514.4441       7019.1255     -584.05566      1771.2293      3268.1786      4319.3534     -461.49586      229.33466      0.99992185     59147.337    
   5560000   524.13141      6960.247      -647.94287      1787.9415      3361.6498      4196.6989     -427.79603      212.19632      1.0175869      58120.557    
   5580000   519.59302      6914.5561     -579.87846      1754.8622      3306.5185      4241.8506     -491.71877      206.27392      1.009403       58591.778    
   5600000   523.16338      6841.6071     -570.66062      1789.7173      3294.9305      4134.8302     -503.41289      218.5748       0.99779498     59273.414    
   5620000   521.4454       6920.3098     -558.47597      1758.1095      3277.3135      4291.9957     -532.59904      207.15159      1.0005578      59109.746    
   5640000   517.83958      6928.0875     -629.37349      1769.9084      3365.6928      4139.5021     -414.46461      220.27839      1.0117311      58456.953    
   5660000   524.38875      7009.02       -553.9832       1760.9832      3357.3612      4245.5102     -497.89166      219.17696      0.99682253     59331.239    
   5680000   516.13735      6904.6461     -545.66714      1777.8181      3227.5916      4157.7541     -409.56158      219.6739       1.0026412      58986.919    
   5700000   514.13115      6991.2601     -597.44291      1769.2325      3308.8064      4252.8072     -418.95423      199.49681      1.0206632      57945.378    
   5720000   530.87249      6993.4038     -692.07846      1787.3433      3320.3643      4390.1533     -508.82444      218.68842      1.02627        57628.807    
   5740000   513.05797      7013.5088     -569.94305      1777.28        3268.7111      4391.6499     -550.43082      218.6873       1.0116744      58460.226    
   5760000   520.62044      6942.4669     -657.33364      1756.6585      3338.1721      4220.0571     -416.96072      224.05555      1.0131467      58375.273    
   5780000   517.73956      6847.6119     -609.05533      1747.4352      3244.0557      4277.268      -501.24384      211.16795      1.0102857      58540.582    
   5800000   514.5659       6905.1084     -555.39643      1733.5053      3165.6607      4261.2037     -396.83226      219.69805      1.0106114      58521.716    
   5820000   518.40328      7001.4182     -575.92454      1758.8914      3205.6924      4409.7026     -474.25439      199.62504      0.99958771     59167.11     
   5840000   521.30178      6930.203      -503.56817      1769.5193      3300.947       4142.7649     -469.63442      212.99763      1.0126519      58403.797    
   5860000   525.74482      7046.6945     -528.37318      1766.4828      3254.0927      4229.8452     -364.99114      212.55225      0.99755249     59287.823    
   5880000   509.65803      7258.4934     -454.18018      1793.8227      3399.2924      4152.8263     -330.12279      220.01977      0.98470532     60061.334    
   5900000   515.73925      6919.6676     -553.05657      1780.0699      3265.9373      4275.6911     -531.47069      205.73818      0.99855248     59228.449    
   5920000   522.65702      6979.3679     -494.56262      1752.7355      3281.2341      4209.6999     -450.06011      202.7668       1.0023264      59005.446    
   5940000   525.48144      6942.9548     -584.56931      1772.1217      3188.202       4292.0481     -410.8372       207.85755      1.0046552      58868.673    
   5960000   512.41394      7107.1607     -533.25752      1805.3377      3340.7019      4305.9529     -483.95713      195.81014      0.99829399     59243.786    
   5980000   527.5284       6966.5207     -482.61828      1762.4845      3234.8195      4244.5588     -492.90301      223.23608      0.99897277     59203.531    
   6000000   524.141        6927.5332     -586.89575      1757.3865      3239.0823      4317.4905     -496.88106      220.66082      1.0104429      58531.475    
   6000104   522.56551      6906.9664     -588.81893      1781.4635      3215.6943      4289.2474     -476.86682      209.4509       1.016886       58160.616    
Loop time of 3613.57 on 24 procs for 1200000 steps with 5001 atoms

Performance: 7.173 ns/day, 3.346 hours/ns, 332.082 timesteps/s, 1.661 Matom-step/s
99.5% CPU use with 24 MPI tasks x no OpenMP threads

MPI task timing breakdown:
Section |  min time  |  avg time  |  max time  |%varavg| %total
---------------------------------------------------------------
Pair    | 1726.9     | 1944       | 2148.1     | 284.0 | 53.80
Bond    | 571.8      | 608.14     | 657.59     |  76.9 | 16.83
Kspace  | 625.69     | 846.9      | 1080       | 450.1 | 23.44
Neigh   | 45.905     | 45.96      | 46         |   0.4 |  1.27
Comm    | 120.81     | 123.25     | 125.81     |  11.8 |  3.41
Output  | 0.0028748  | 0.0031848  | 0.0098686  |   2.5 |  0.00
Modify  | 31.635     | 33.189     | 34.495     |  15.0 |  0.92
Other   |            | 12.13      |            |       |  0.34

Nlocal:        208.375 ave         229 max         189 min
Histogram: 2 2 1 4 3 4 2 3 1 2
Nghost:        4413.92 ave        4466 max        4357 min
Histogram: 2 1 2 2 4 4 4 1 2 2
Neighs:        64822.2 ave       77111 max       55472 min
Histogram: 1 3 3 6 3 2 1 3 1 1

Total # of neighbors = 1555734
Ave neighs/atom = 311.08458
Ave special neighs/atom = 5.6904619
Neighbor list builds = 16981
Dangerous builds = 0
unfix           fNPT
unfix           fMOM
next            a
jump            SELF loop
variable        a loop 26
variable        b equal 600-20*($a-1)
variable        b equal 600-20*(6-1)
fix             fMOM all momentum 100 linear 1 1 1 angular
fix             fNPT all npt temp $b $b $(100.0*dt) iso 1 1 $(100.0*dt)
fix             fNPT all npt temp 500 $b $(100.0*dt) iso 1 1 $(100.0*dt)
fix             fNPT all npt temp 500 500 $(100.0*dt) iso 1 1 $(100.0*dt)
fix             fNPT all npt temp 500 500 25 iso 1 1 $(100.0*dt)
fix             fNPT all npt temp 500 500 25 iso 1 1 25
run             1200000
PPPM initialization ...
  using 12-bit tables for long-range coulomb (../kspace.cpp:342)
  G vector (1/distance) = 0.11482254
  grid = 4 4 4
  stencil order = 5
  estimated absolute RMS force accuracy = 0.33262735
  estimated relative force accuracy = 0.0010016974
  using double precision KISS FFT
  3d grid and FFT values/proc = 294 4
Generated 36 of 36 mixed pair_coeff terms from sixthpower/sixthpower mixing rule
WARNING: Inconsistent image flags (../domain.cpp:815)
Per MPI rank memory allocation (min/avg/max) = 15.03 | 15.05 | 15.23 Mbytes
   Step          Temp          PotEng         E_vdwl         E_coul         E_bond        E_angle        E_dihed        E_impro        Density         Volume    
   6000104   522.56551      6908.0068     -588.81893      1793.0802      3215.6943      4289.2474     -476.86682      209.4509       1.016886       58160.616    
   6020000   492.54582      6690.76       -634.55488      1804.1995      3137.679       4175.942      -469.21942      210.05761      1.0174402      58128.935    
   6040000   498.22762      6504.2027     -668.54761      1779.0104      3115.5605      4069.2435     -464.24546      206.77919      1.0312508      57350.469    
   6060000   499.53045      6804.4074     -556.34969      1760.0733      3306.7294      4149.2293     -537.4958       214.59966      1.0145246      58295.988    
   6080000   494.58806      6551.6499     -624.17194      1758.6472      3127.1623      4236.8579     -615.61943      201.96858      1.015197       58257.38     
   6100000   495.49137      6460.0858     -689.60436      1786.5418      3172.1228      4136.3135     -617.06926      204.89138      1.0191998      58028.577    
   6120000   499.62677      6657.061      -576.70669      1778.7053      3143.162       4212.491      -571.90125      204.96329      1.0048899      58854.921    
   6140000   487.82485      6582.1187     -570.68784      1761.3133      3153.202       4098.1428     -536.40645      210.29745      1.0133         58366.444    
   6160000   500.50985      6619.0864     -631.96367      1748.7824      3132.3359      4194.0478     -492.01649      201.26316      1.0158271      58221.239    
   6180000   496.14718      6673.0688     -655.51111      1795.0319      3132.3917      4086.706      -366.12575      212.67392      1.0251452      57692.04     
   6200000   501.07487      6837.1559     -583.98765      1793.6435      3227.6584      4200.1143     -475.58391      208.00421      1.0008555      59092.164    
   6220000   501.04473      6716.9979     -546.40571      1781.5911      3096.5537      4222.1511     -510.42188      206.84501      1.0044917      58878.251    
   6240000   500.00947      6546.4069     -589.25187      1804.7261      3104.2146      4119.0412     -554.35885      194.88293      1.0067104      58748.49     
   6260000   489.94731      6621.2446     -584.64647      1788.8758      3202.523       4175.0324     -627.01856      199.37287      1.0070788      58726.998    
   6280000   515.05909      6451.7383     -686.55211      1773.0664      3038.7663      4188.8812     -510.96371      181.60343      1.0125944      58407.113    
   6300000   500.05895      6567.5752     -593.5319       1740.6717      3203.0498      4173.4685     -607.98018      185.31281      0.99915477     59192.747    
   6320000   516.75275      6615.9838     -521.27182      1790.7975      3188.8077      4144.5036     -649.10689      195.30114      1.0007697      59097.225    
   6340000   501.17863      6577.0174     -691.53285      1757.5466      3146.8169      4279.8356     -584.90141      203.21213      1.0170282      58152.481    
   6360000   502.06765      6487.0223     -674.24877      1739.3602      3153.2336      4150.6418     -546.88632      198.47272      1.0232309      57799.969    
   6380000   505.44014      6542.8012     -600.0608       1762.8025      3186.7606      4084.342      -568.60018      211.33005      1.0168927      58160.23     
   6400000   507.8577       6563.2254     -620.83411      1750.327       3116.7183      4124.64       -479.80954      205.85215      1.0167261      58169.76     
   6420000   503.67579      6707.541      -518.93526      1795.116       3200.5128      4124.9572     -569.55851      209.39491      1.0025962      58989.566    
   6440000   499.789        6596.7651     -594.39724      1742.3761      3103.9944      4090.0105     -420.75608      209.5456       1.0125376      58410.389    
   6460000   499.31298      6740.7093     -606.65881      1774.1795      3141.6062      4191.08       -424.94348      199.2913       1.0099355      58560.884    
   6480000   501.54728      6615.5834     -603.1158       1760.8838      3049.1922      4248.6363     -514.44932      208.04914      1.0184385      58071.956    
   6500000   509.10713      6704.9124     -531.19755      1805.4678      3103.7525      4240.8418     -572.11495      192.50205      1.0100029      58556.977    
   6520000   501.25031      6713.7686     -572.05541      1793.8055      3189.211       4128.9885     -507.72081      215.38215      1.0089091      58620.459    
   6540000   500.76736      6529.881      -651.43604      1746.4985      3224.098       4133.7662     -584.21459      195.46084      1.0214617      57900.081    
   6560000   494.20346      6677.2897     -563.92584      1757.7641      3159.7544      4238.988      -586.9707       204.79065      1.0077801      58686.13     
   6580000   503.71576      6696.934      -589.18218      1772.2646      3147.8702      4178.8821     -487.51316      208.5562       1.0198856      57989.559    
   6600000   500.55053      6550.3836     -594.25428      1768.1133      3077.9049      4226.221      -589.15966      194.4917       1.0281059      57525.896    
   6620000   499.51371      6632.5489     -628.94881      1749.7576      3201.5019      4148.2556     -511.60173      206.8147       1.0142151      58313.777    
   6640000   499.67481      6555.7034     -721.39372      1748.2486      3210.7531      4126.0697     -472.93106      198.73654      1.023774       57769.305    
   6660000   501.10615      6669.9675     -615.62225      1794.9868      3128.9582      4120.4411     -440.43404      215.75913      1.0003296      59123.23     
   6680000   499.88204      6595.2019     -668.36681      1762.5618      3174.0333      4163.5177     -516.98105      213.12825      1.0143942      58303.484    
   6700000   489.0796       6511.752      -589.53422      1750.2189      3177.3453      4067.7395     -560.72198      200.69653      1.0221201      57862.787    
   6720000   510.22599      6375.7579     -700.87315      1770.8457      3140.6782      4025.8089     -528.69482      200.43164      1.0355096      57114.596    
   6740000   498.78766      6621.0878     -647.87135      1772.0734      3090.2559      4254.8522     -534.20911      219.58494      1.0220068      57869.201    
   6760000   494.4712       6656.3219     -608.21902      1775.2601      3250.5466      4168.8066     -614.2372       217.54662      1.0204534      57957.292    
   6780000   504.93204      6687.0184     -672.20493      1766.5843      3158.5121      4135.274      -384.46869      215.66415      1.0227498      57827.158    
   6800000   501.46923      6673.0068     -665.14773      1808.7515      3112.9251      4243.2421     -498.32885      204.87064      1.0186042      58062.511    
   6820000   496.38017      6517.5616     -624.33762      1754.9045      3198.4027      4110.3343     -587.89953      199.23159      1.0158378      58220.629    
   6840000   503.99802      6396.2934     -758.24125      1753.2295      3077.0711      4262.8796     -603.55576      198.22232      1.024806       57711.135    
   6860000   499.54858      6592.789      -569.50239      1747.2191      3107.3529      4218.5443     -583.98759      206.52822      1.0140512      58323.204    
   6880000   496.78219      6695.2522     -711.60845      1800.9236      3200.9147      4285.3124     -555.02177      207.71843      1.0203246      57964.608    
   6900000   505.31863      6697.6394     -571.11973      1763.1877      3293.5814      4097.5874     -549.30103      197.06797      1.0150223      58267.407    
   6920000   491.42187      6514.0325     -625.77055      1757.7467      3149.6348      4005.6066     -445.33178      204.18977      1.0106259      58520.877    
   6940000   495.18763      6688.9657     -525.31541      1739.7616      3189.3624      4059.952      -464.84689      224.05586      1.0122216      58428.626    
   6960000   509.21365      6671.6093     -606.36844      1771.3395      3155.9598      4106.9842     -435.68872      212.96666      1.01082        58509.639    
   6980000   501.32182      6541.9294     -602.09866      1782.572       3147.4104      4129.9771     -581.20291      199.45024      1.0071756      58721.352    
   7000000   490.78481      6470.0455     -579.45934      1775.3281      3121.3215      4115.522      -624.51941      195.2737       1.0168983      58159.909    
   7020000   509.13684      6624.2159     -537.99137      1791.6528      3209.6737      4161.7723     -671.37061      203.93017      1.0037044      58924.434    
   7040000   505.29284      6522.8776     -660.27371      1782.1499      3163.6372      4065.3819     -495.31974      200.9932       1.0159645      58213.366    
   7060000   509.73915      6566.9392     -573.38691      1786.4064      3150.6895      4061.0762     -529.59406      206.12752      0.99793094     59265.339    
   7080000   511.53096      6520.9642     -589.57057      1774.7174      3034.4599      4071.3178     -441.90871      205.38936      1.0076958      58691.041    
   7100000   494.48461      6495.7326     -647.74526      1775.6643      3132.1228      4124.0681     -560.02538      203.9673       1.0353691      57122.351    
   7120000   502.52695      6625.6336     -628.12181      1773.0046      3140.1539      4255.4974     -581.66341      200.35202      1.0136982      58343.515    
   7140000   496.74101      6559.519      -583.22259      1780.7839      3130.0223      4157.6225     -592.10218      200.2762       1.0071524      58722.705    
   7160000   502.88455      6577.3661     -604.86835      1771.8576      3114.1661      4158.3684     -540.01228      211.87709      1.0126714      58402.673    
   7180000   498.9674       6646.9426     -549.25741      1762.3305      3113.4931      4152.0653     -505.76405      207.4178       1.0113402      58479.544    
   7200000   496.46505      6565.859      -697.61675      1762.3231      3154.0231      4157.2539     -490.86599      213.91777      1.0138074      58337.229    
   7200104   487.99227      6496.2894     -642.46994      1751.2751      3082.6746      4064.428      -432.44973      206.79124      1.0194077      58016.746    
Loop time of 3673.09 on 24 procs for 1200000 steps with 5001 atoms

Performance: 7.057 ns/day, 3.401 hours/ns, 326.700 timesteps/s, 1.634 Matom-step/s
99.5% CPU use with 24 MPI tasks x no OpenMP threads

MPI task timing breakdown:
Section |  min time  |  avg time  |  max time  |%varavg| %total
---------------------------------------------------------------
Pair    | 1741.7     | 1958.1     | 2217.9     | 301.2 | 53.31
Bond    | 564.07     | 607.77     | 658.08     | 114.3 | 16.55
Kspace  | 584.6      | 893.17     | 1153.2     | 495.0 | 24.32
Neigh   | 44.782     | 44.836     | 44.873     |   0.4 |  1.22
Comm    | 121.35     | 123.49     | 125.92     |  11.0 |  3.36
Output  | 0.0033296  | 0.0041315  | 0.022175   |   5.9 |  0.00
Modify  | 31.492     | 33.34      | 34.654     |  16.0 |  0.91
Other   |            | 12.35      |            |       |  0.34

Nlocal:        208.375 ave         229 max         179 min
Histogram: 3 1 1 2 2 2 2 2 6 3
Nghost:        4393.96 ave        4440 max        4367 min
Histogram: 4 1 7 2 4 2 1 1 1 1
Neighs:        64531.3 ave       76246 max       52138 min
Histogram: 2 2 2 1 2 6 3 2 2 2

Total # of neighbors = 1548752
Ave neighs/atom = 309.68846
Ave special neighs/atom = 5.6904619
Neighbor list builds = 16197
Dangerous builds = 0
unfix           fNPT
unfix           fMOM
next            a
jump            SELF loop
variable        a loop 26
variable        b equal 600-20*($a-1)
variable        b equal 600-20*(7-1)
fix             fMOM all momentum 100 linear 1 1 1 angular
fix             fNPT all npt temp $b $b $(100.0*dt) iso 1 1 $(100.0*dt)
fix             fNPT all npt temp 480 $b $(100.0*dt) iso 1 1 $(100.0*dt)
fix             fNPT all npt temp 480 480 $(100.0*dt) iso 1 1 $(100.0*dt)
fix             fNPT all npt temp 480 480 25 iso 1 1 $(100.0*dt)
fix             fNPT all npt temp 480 480 25 iso 1 1 25
run             1200000
PPPM initialization ...
  using 12-bit tables for long-range coulomb (../kspace.cpp:342)
  G vector (1/distance) = 0.11489176
  grid = 4 4 4
  stencil order = 5
  estimated absolute RMS force accuracy = 0.33251041
  estimated relative force accuracy = 0.0010013452
  using double precision KISS FFT
  3d grid and FFT values/proc = 294 4
Generated 36 of 36 mixed pair_coeff terms from sixthpower/sixthpower mixing rule
WARNING: Inconsistent image flags (../domain.cpp:815)
Per MPI rank memory allocation (min/avg/max) = 15.03 | 15.05 | 15.23 Mbytes
   Step          Temp          PotEng         E_vdwl         E_coul         E_bond        E_angle        E_dihed        E_impro        Density         Volume    
   7200104   487.99227      6496.3899     -642.46994      1752.2986      3082.6746      4064.428      -432.44973      206.79124      1.0194077      58016.746    
   7220000   487.14238      6233.8013     -698.96065      1766.251       3024.2543      3961.3512     -484.47054      200.16449      1.0157895      58223.397    
   7240000   482.25139      6119.7738     -675.62331      1744.8578      3015.3616      3991.6773     -622.18069      199.71343      1.026706       57604.332    
   7260000   473.60278      6199.4951     -683.71157      1763.3031      3047.9889      3996.0758     -586.08062      196.54411      1.0319374      57312.311    
   7280000   485.66129      6217.6819     -592.25453      1792.4726      2961.7415      4026.0569     -623.13432      187.50994      1.0186688      58058.825    
   7300000   489.44782      6225.0358     -709.85896      1752.65        3009.5781      4060.437      -552.48097      199.18566      1.0292909      57459.671    
   7320000   483.61295      6250.1692     -585.32126      1770.5442      2964.5844      4041.3339     -610.40496      204.26458      1.0202501      57968.839    
   7340000   469.71137      6418.9089     -589.55386      1770.0113      3147.2133      4010.4075     -598.1468       213.3373       1.0252949      57683.613    
   7360000   486.08629      6102.7438     -673.80483      1756.0579      2980.3331      4029.8516     -646.38511      191.36108      1.0382449      56964.129    
   7380000   488.45658      6041.7588     -637.28441      1772.6077      2997.4956      3939.1653     -683.45898      188.41124      1.0220909      57864.438    
   7400000   483.24619      6224.6152     -662.45522      1786.9069      3051.4659      4027.2797     -638.21194      194.26601      1.0353513      57123.333    
   7420000   477.93567      6232.329      -625.22187      1765.7638      3052.0829      4034.6504     -653.50335      193.68996      1.0232369      57799.632    
   7440000   484.13553      6200.713      -709.3273       1779.6083      3056.5424      4005.0206     -580.42255      183.35725      1.0376845      56994.89     
   7460000   481.20231      6205.5233     -669.08809      1783.037       3136.2311      3902.3519     -614.80878      202.59764      1.0218414      57878.566    
   7480000   476.80072      6223.8147     -622.34533      1783.3504      3052.2192      3905.1718     -557.04628      196.46764      1.0173612      58133.451    
   7500000   475.99137      6268.2272     -665.81273      1765.4927      3094.9261      4003.4803     -596.70308      201.7092       1.0305276      57390.713    
   7520000   481.60832      6107.4302     -631.7891       1777.1653      3044.0988      3938.7308     -676.42302      190.73895      1.0193066      58022.496    
   7540000   483.27919      6279.2752     -650.53749      1770.4925      3061.756       4038.765      -588.98156      182.01477      1.0180332      58095.077    
   7560000   474.42095      6059.5438     -735.50723      1770.3742      3082.4811      3939.6076     -658.72286      195.17449      1.0370272      57031.014    
   7580000   478.05572      6038.2926     -772.95927      1756.4332      3026.1321      3909.6431     -550.20422      203.46449      1.0393386      56904.182    
   7600000   475.41595      6149.7385     -759.62586      1755.8954      3103.6356      4035.4298     -652.82071      201.00707      1.0309981      57364.523    
   7620000   485.25329      6108.9643     -758.94328      1772.8672      3003.2867      3989.5996     -557.67578      193.88072      1.0435468      56674.715    
   7640000   485.00432      6057.0938     -734.75463      1785.2953      2973.5469      3997.3335     -615.87195      184.71219      1.0330144      57252.554    
   7660000   475.31976      6236.075      -739.39549      1760.5808      2994.8499      4046.1103     -495.76616      202.93992      1.030217       57408.016    
   7680000   475.07587      6337.8523     -691.31636      1788.2707      2989.129       4092.4464     -508.85806      201.22815      1.0306428      57384.301    
   7700000   485.72896      6306.7851     -624.56505      1765.4418      2990.2363      4107.0707     -602.59943      203.8627       1.0144027      58302.995    
   7720000   481.489        6199.93       -673.46022      1787.2046      3069.7642      4007.3856     -660.38079      202.46659      1.035548       57112.48     
   7740000   473.57221      6492.1003     -575.36846      1769.3523      3061.2547      4038.2318     -473.43046      206.18007      1.0171109      58147.755    
   7760000   485.25346      6334.9738     -646.99309      1756.715       3044.5112      4025.2946     -503.4466       192.2514       1.0207206      57942.12     
   7780000   479.67763      6308.3432     -577.39771      1790.1707      3009.528       4029.2799     -593.94386      184.89808      1.017461       58127.744    
   7800000   469.59081      6185.5026     -581.1725       1782.1825      2917.0968      3978.6506     -567.83011      190.35753      1.0158066      58222.419    
   7820000   480.66031      6224.5341     -635.21878      1749.4369      2929.093       4082.5547     -569.13555      202.26602      1.008656       58635.172    
   7840000   476.02164      6258.1419     -709.88649      1758.7851      3056.6595      3999.3585     -509.54956      196.31671      1.0308663      57371.857    
   7860000   477.60933      6240.5648     -674.02566      1759.5389      3128.0927      4043.8387     -669.99527      186.54726      1.0351236      57135.896    
   7880000   477.61289      6185.7045     -669.23322      1715.5251      3098.1053      3975.5117     -599.88187      199.02321      1.0232317      57799.924    
   7900000   488.93579      6246.0503     -676.72667      1771.861       3018.0984      4050.9934     -575.1763       191.63234      1.0222068      57857.879    
   7920000   472.13787      6396.8868     -648.98046      1780.3509      3124.7225      4017.9688     -539.78877      196.78714      1.0214847      57898.78     
   7940000   479.0957       6295.3496     -599.03353      1751.2747      3013.7649      3983.2979     -519.60814      200.0701       1.0046102      58871.307    
   7960000   470.36336      6350.2424     -690.06365      1767.461       3125.6649      4017.3638     -530.19027      193.72517      1.0193209      58021.683    
   7980000   476.34979      6018.717      -656.35127      1763.4585      2945.7856      3960.5726     -650.00799      189.60424      1.0244148      57733.17     
   8000000   477.18361      6254.1178     -672.195        1806.8148      3040.3658      4022.9027     -601.27445      191.59869      1.0178413      58106.027    
   8020000   485.86036      6211.9175     -685.44142      1760.1132      3018.2702      4048.1302     -596.211        201.22149      1.0172791      58138.14     
   8040000   480.10269      6130.048      -689.61963      1781.7128      2996.3323      4001.8464     -630.63528      203.90056      1.0294241      57452.235    
   8060000   477.91993      6123.8592     -699.97109      1744.9057      3038.6597      3974.6865     -596.78313      197.57086      1.0284218      57508.229    
   8080000   477.08101      6222.667      -669.66169      1760.9167      3067.2858      4036.4704     -640.85587      203.20779      1.0176564      58116.584    
   8100000   482.88589      6304.0423     -608.84466      1757.3195      3149.5135      4017.1968     -668.6895       190.96358      1.018701       58056.991    
   8120000   482.44052      6122.7967     -683.86361      1748.1802      3001.2089      4004.2034     -619.91855      207.86048      1.0306076      57386.262    
   8140000   480.77539      6180.6585     -678.83332      1773.6017      3053.7242      4010.2306     -633.72862      190.1498       1.0189112      58045.012    
   8160000   478.2831       6171.7447     -733.20399      1749.6766      3079.8975      4075.9845     -657.43705      190.87978      1.0380424      56975.242    
   8180000   475.01486      6194.0612     -735.45007      1746.8968      3107.4833      3995.6427     -589.96873      203.89598      1.031096       57359.076    
   8200000   484.68125      6090.7122     -779.47204      1757.8546      3020.6549      4041.7108     -606.94901      191.50332      1.0328421      57262.106    
   8220000   483.73419      6189.8172     -668.36991      1752.1648      2999.1164      3995.7279     -551.97873      197.2078       1.0371949      57021.796    
   8240000   478.17609      6349.2478     -709.47088      1795.4034      3094.3657      4068.7971     -564.08826      199.21838      1.0295072      57447.598    
   8260000   490.0163       6256.965      -636.06904      1744.4185      3129.3694      4050.1048     -687.89646      191.68199      1.0232516      57798.798    
   8280000   483.10125      6094.0683     -645.73726      1744.7643      2973.643       3990.663      -632.69067      198.28585      1.028007       57531.435    
   8300000   481.23497      6169.1556     -650.54781      1734.9734      3066.2551      3986.9761     -629.28766      195.79296      1.0362938      57071.377    
   8320000   482.36845      6147.2629     -719.70107      1750.6104      3041.2586      3983.0868     -565.9683       192.9625       1.0386505      56941.883    
   8340000   482.3923       6086.7625     -754.43308      1732.2341      2981.2257      3966.7561     -508.39303      203.74424      1.026975       57589.246    
   8360000   480.78051      6261.0778     -710.42147      1771.4128      3008.7469      4154.1066     -624.48768      196.62453      1.0449625      56597.93     
   8380000   480.82778      6245.2304     -740.1586       1761.1977      3061.3197      4046.1425     -538.954        190.65801      1.0227004      57829.951    
   8400000   479.38091      6392          -663.8924       1785.6458      3082.2915      4093.5712     -570.61452      199.44524      1.0197662      57996.351    
   8400104   477.25885      6322.201      -673.43296      1771.3872      3109.7943      4119.6644     -669.93522      199.30751      1.0175776      58121.086    
Loop time of 3641.31 on 24 procs for 1200000 steps with 5001 atoms

Performance: 7.118 ns/day, 3.372 hours/ns, 329.552 timesteps/s, 1.648 Matom-step/s
99.5% CPU use with 24 MPI tasks x no OpenMP threads

MPI task timing breakdown:
Section |  min time  |  avg time  |  max time  |%varavg| %total
---------------------------------------------------------------
Pair    | 1771.7     | 1976.7     | 2221.5     | 283.8 | 54.29
Bond    | 557.19     | 607.11     | 677.82     | 128.1 | 16.67
Kspace  | 555.68     | 845.35     | 1086       | 480.7 | 23.22
Neigh   | 42.088     | 42.14      | 42.174     |   0.4 |  1.16
Comm    | 121.96     | 124.27     | 126.77     |  11.7 |  3.41
Output  | 0.002893   | 0.0033841  | 0.014154   |   3.9 |  0.00
Modify  | 31.734     | 33.375     | 34.784     |  15.4 |  0.92
Other   |            | 12.31      |            |       |  0.34

Nlocal:        208.375 ave         232 max         185 min
Histogram: 1 2 1 4 4 4 5 1 1 1
Nghost:        4460.46 ave        4508 max        4411 min
Histogram: 3 2 2 3 1 2 2 4 2 3
Neighs:        64722.1 ave       75342 max       53465 min
Histogram: 1 0 4 3 5 3 3 1 1 3

Total # of neighbors = 1553331
Ave neighs/atom = 310.60408
Ave special neighs/atom = 5.6904619
Neighbor list builds = 15407
Dangerous builds = 0
unfix           fNPT
unfix           fMOM
next            a
jump            SELF loop
variable        a loop 26
variable        b equal 600-20*($a-1)
variable        b equal 600-20*(8-1)
fix             fMOM all momentum 100 linear 1 1 1 angular
fix             fNPT all npt temp $b $b $(100.0*dt) iso 1 1 $(100.0*dt)
fix             fNPT all npt temp 460 $b $(100.0*dt) iso 1 1 $(100.0*dt)
fix             fNPT all npt temp 460 460 $(100.0*dt) iso 1 1 $(100.0*dt)
fix             fNPT all npt temp 460 460 25 iso 1 1 $(100.0*dt)
fix             fNPT all npt temp 460 460 25 iso 1 1 25
run             1200000
PPPM initialization ...
  using 12-bit tables for long-range coulomb (../kspace.cpp:342)
  G vector (1/distance) = 0.11484154
  grid = 4 4 4
  stencil order = 5
  estimated absolute RMS force accuracy = 0.33259529
  estimated relative force accuracy = 0.0010016008
  using double precision KISS FFT
  3d grid and FFT values/proc = 294 4
Generated 36 of 36 mixed pair_coeff terms from sixthpower/sixthpower mixing rule
WARNING: Inconsistent image flags (../domain.cpp:815)
Per MPI rank memory allocation (min/avg/max) = 15.03 | 15.05 | 15.23 Mbytes
   Step          Temp          PotEng         E_vdwl         E_coul         E_bond        E_angle        E_dihed        E_impro        Density         Volume    
   8400104   477.25885      6322.1441     -673.43296      1770.6608      3109.7943      4119.6644     -669.93522      199.30751      1.0175776      58121.086    
   8420000   456.46004      5696.0603     -774.28444      1746.2085      2908.7845      3900.5551     -729.43316      178.37705      1.0340089      57197.489    
   8440000   459.8836       5794.0571     -752.14417      1761.5078      2993.0587      3829.6294     -677.89922      174.18437      1.0406355      56833.266    
   8460000   465.82819      6000.0488     -727.15459      1769.6248      2989.9151      3993.6064     -682.60468      190.46874      1.042426       56735.65     
   8480000   466.1302       5786.3493     -717.6122       1710.7815      2940.879       3901.2642     -697.62497      181.74132      1.0403942      56846.449    
   8500000   464.51764      5841.6522     -760.58883      1753.1031      2876.436       3987.6943     -672.89714      191.92805      1.0509888      56273.4      
   8520000   454.24617      5775.3975     -737.29505      1754.4999      2935.5421      3949.7085     -775.20144      181.16635      1.0393086      56905.826    
   8540000   459.28557      5872.5195     -780.2042       1758.0784      2922.6747      4044.5903     -717.34664      179.21474      1.0323421      57289.841    
   8560000   462.70548      6010.6163     -731.41421      1723.9756      2994.5691      4055.3509     -679.28213      181.3209       1.031141       57356.572    
   8580000   455.54122      5940.3071     -747.96201      1758.5331      3001.6725      3992.3361     -720.323        190.04044      1.0414308      56789.866    
   8600000   467.05388      5941.7163     -786.23442      1721.0525      3044.3384      3965.6382     -656.89514      187.66378      1.04894        56383.315    
   8620000   454.21524      5995.6185     -736.2596       1774.2035      3024.4159      3993.0026     -714.06262      188.24202      1.0371708      57023.12     
   8640000   454.085        5819.2546     -701.30875      1727.3799      2924.1169      3902.4876     -688.65004      189.12642      1.0319173      57313.423    
   8660000   451.06358      5932.6439     -722.45187      1739.0177      3068.5744      3901.3954     -703.63529      184.03876      1.044097       56644.846    
   8680000   459.508        5919.1239     -702.04109      1738.6449      2943.4249      3974.5846     -689.52634      187.52155      1.0240048      57756.288    
   8700000   455.55184      5890.6939     -816.23418      1771.4043      2985.811       4017.7944     -718.29321      184.19795      1.0412423      56800.148    
   8720000   462.13483      5835.3338     -734.67742      1737.3722      2943.8373      3950.2739     -710.16178      182.27878      1.0635835      55607.028    
   8740000   455.02802      5793.7817     -749.82866      1747.4438      2898.4249      3931.3473     -678.76476      179.25691      1.038796       56933.905    
   8760000   457.80746      5805.0015     -735.46616      1740.1662      2868.9801      3946.2929     -660.09853      179.08883      1.0387688      56935.398    
   8780000   456.38304      5796.7829     -680.95992      1723.3986      2964.6758      3846.1057     -707.53928      185.45522      1.0450442      56593.504    
   8800000   457.77772      5927.565      -706.28325      1746.2909      2903.6107      3969.491      -635.38748      183.70547      1.0374616      57007.137    
   8820000   459.88941      5851.3277     -764.7079       1753.6987      2998.209       3911.0875     -688.43518      175.23219      1.0357646      57100.537    
   8840000   463.56442      5792.232      -705.84227      1733.7122      2809.3459      3929.1141     -636.11901      195.51498      1.0404466      56843.585    
   8860000   461.27702      5770.6734     -755.0753       1726.4082      2958.2581      3831.9632     -643.49397      187.25133      1.0462158      56530.131    
   8880000   452.86688      5789.2905     -826.79458      1724.6499      2931.1608      3964.1107     -663.20953      193.87896      1.0440265      56648.671    
   8900000   462.66096      5827.6125     -785.23112      1754.6649      2878.5839      3924.529      -598.26717      187.23961      1.0326833      57270.911    
   8920000   460.72279      5910.3198     -746.14082      1739.0742      2875.9211      4022.1801     -637.06132      190.91847      1.0522896      56203.837    
   8940000   459.13762      5785.707      -828.64922      1751.7194      2928.4692      3875.0166     -603.4285       196.63074      1.0558712      56013.191    
   8960000   464.58006      5955.518      -756.48365      1749.8738      2991.4205      3974.7937     -665.19602      194.24344      1.0432713      56689.679    
   8980000   457.39426      5830.5996     -752.99744      1738.5889      2965.8171      3848.8842     -621.84305      184.73515      1.0495667      56349.65     
   9000000   457.82772      5688.4313     -698.92718      1740.2888      2747.0694      3864.0948     -613.37099      183.27197      1.0449125      56600.638    
   9020000   455.09521      5817.5534     -805.07149      1773.8565      2932.09        3930.6277     -665.32223      185.02246      1.0490805      56375.766    
   9040000   452.67344      5881.9498     -772.44299      1724.6199      2880.65        3952.4791     -564.41028      196.0276       1.0421024      56753.264    
   9060000   459.13016      5867.1157     -731.04967      1734.7921      2869.5289      3997.2623     -649.13853      179.75418      1.0551031      56053.969    
   9080000   458.04284      5889.8681     -675.53278      1764.4566      2926.6945      3881.4104     -670.8571       197.35275      1.0360905      57082.577    
   9100000   454.54383      5922.9631     -691.01943      1736.143       2939.8484      3935.7671     -658.33684      193.88602      1.0443069      56633.464    
   9120000   467.52805      5692.8874     -753.67247      1752.1709      2924.0715      3889.5336     -764.75363      180.16662      1.0333682      57232.957    
   9140000   459.93233      5850.4666     -753.61487      1767.5016      2839.1567      3923.3528     -591.65526      198.99893      1.0444044      56628.178    
   9160000   474.28636      6007.6693     -720.14063      1725.4887      3078.3718      3953.8145     -688.54885      192.99485      1.0320038      57308.623    
   9180000   462.89779      5760.6975     -788.42969      1740.9533      2898.0174      3889.334      -626.65963      180.47162      1.0371249      57025.642    
   9200000   459.7754       5823.9499     -748.20272      1743.0898      2910.3771      3900.9901     -635.82323      185.90752      1.0403864      56846.872    
   9220000   463.33989      5964.5506     -724.96613      1753.3576      2981.7821      3889.0153     -601.93064      201.56237      1.0406739      56831.172    
   9240000   458.86004      6038.758      -721.67438      1736.8452      3041.3295      3965.2967     -648.48516      199.4401       1.0341963      57187.126    
   9260000   457.95778      6031.1114     -746.84644      1719.7789      3015.5572      3962.673      -578.68639      193.18383      1.0263953      57621.77     
   9280000   457.34397      5766.877      -720.75299      1730.3097      2837.5419      3898.8197     -640.73533      195.49823      1.0420381      56756.767    
   9300000   462.12694      5824.9641     -768.20617      1736.464       2934.1072      3974.2912     -694.67875      177.17568      1.0323486      57289.478    
   9320000   460.15588      5749.7975     -721.632        1729.8682      2935.7381      3804.2903     -645.10374      179.80237      1.0458281      56551.086    
   9340000   455.60212      5947.5859     -620.49037      1727.5231      2960.5772      3801.9388     -581.97804      193.76605      1.0270574      57584.626    
   9360000   459.46254      5965.5381     -746.85676      1751.9621      2971.1074      4009.1571     -673.41124      187.14453      1.0344174      57174.903    
   9380000   460.42823      5831.3387     -672.77703      1741.8659      2875.5887      3906.1494     -674.37359      187.92553      1.0293654      57455.512    
   9400000   458.47965      5945.1463     -801.39207      1727.4058      2915.2462      3988.2045     -546.78209      195.57899      1.0393144      56905.51     
   9420000   458.37782      5905.8909     -730.48818      1754.9021      2910.9576      3933.2914     -617.8721       187.41945      1.0233383      57793.903    
   9440000   463.20665      5950.2203     -687.19952      1747.4736      2999.6239      3949.5463     -712.03396      186.8581       1.0261828      57633.702    
   9460000   460.27389      5779.8964     -751.73419      1728.5032      2887.1612      3899.4218     -636.83197      187.14375      1.0439965      56650.299    
   9480000   465.16252      5808.1426     -798.13759      1736.7305      2926.8462      3972.8664     -680.91692      184.67891      1.0553637      56040.127    
   9500000   465.50134      5800.5631     -736.7423       1767.1491      2909.9076      3825.1437     -610.27797      178.79989      1.0275267      57558.327    
   9520000   455.9808       5765.0412     -793.03442      1751.0363      2833.1968      3983.1617     -651.85537      175.96419      1.0368404      57041.292    
   9540000   461.00021      5914.1843     -741.06646      1757.343       2986.172       3923.211      -659.83298      181.54848      1.0395013      56895.28     
   9560000   460.28537      5696.026      -836.73402      1727.1884      2927.0668      3828.6343     -604.51484      187.75869      1.0599816      55795.98     
   9580000   463.59011      5716.4056     -842.43248      1723.168       2849.2713      3960.6845     -619.01752      179.0827       1.0501927      56316.059    
   9600000   455.56947      5881.6455     -840.86343      1757.7654      2834.3951      4052.1993     -583.79372      195.51329      1.0525511      56189.875    
   9600104   447.84141      5868.6859     -824.36216      1766.2839      2844.7718      4001.6662     -575.96549      190.37271      1.0461774      56532.205    
Loop time of 3661.95 on 24 procs for 1200000 steps with 5001 atoms

Performance: 7.078 ns/day, 3.391 hours/ns, 327.694 timesteps/s, 1.639 Matom-step/s
99.5% CPU use with 24 MPI tasks x no OpenMP threads

MPI task timing breakdown:
Section |  min time  |  avg time  |  max time  |%varavg| %total
---------------------------------------------------------------
Pair    | 1732.3     | 2007.1     | 2258.7     | 295.6 | 54.81
Bond    | 552.92     | 606.74     | 683.31     | 148.1 | 16.57
Kspace  | 532.17     | 837.24     | 1159.5     | 528.9 | 22.86
Neigh   | 40.098     | 40.14      | 40.17      |   0.3 |  1.10
Comm    | 122.28     | 124.95     | 127.44     |  12.5 |  3.41
Output  | 0.0033788  | 0.0037118  | 0.010673   |   2.4 |  0.00
Modify  | 31.549     | 33.491     | 34.9       |  15.6 |  0.91
Other   |            | 12.29      |            |       |  0.34

Nlocal:        208.375 ave         219 max         180 min
Histogram: 1 0 0 0 2 3 2 5 9 2
Nghost:        4523.38 ave        4590 max        4447 min
Histogram: 3 0 0 3 4 8 0 1 3 2
Neighs:        66698.1 ave       74875 max       59513 min
Histogram: 4 3 3 1 4 0 1 2 3 3

Total # of neighbors = 1600754
Ave neighs/atom = 320.08678
Ave special neighs/atom = 5.6904619
Neighbor list builds = 14502
Dangerous builds = 0
unfix           fNPT
unfix           fMOM
next            a
jump            SELF loop
variable        a loop 26
variable        b equal 600-20*($a-1)
variable        b equal 600-20*(9-1)
fix             fMOM all momentum 100 linear 1 1 1 angular
fix             fNPT all npt temp $b $b $(100.0*dt) iso 1 1 $(100.0*dt)
fix             fNPT all npt temp 440 $b $(100.0*dt) iso 1 1 $(100.0*dt)
fix             fNPT all npt temp 440 440 $(100.0*dt) iso 1 1 $(100.0*dt)
fix             fNPT all npt temp 440 440 25 iso 1 1 $(100.0*dt)
fix             fNPT all npt temp 440 440 25 iso 1 1 25
run             1200000
PPPM initialization ...
  using 12-bit tables for long-range coulomb (../kspace.cpp:342)
  G vector (1/distance) = 0.11561749
  grid = 4 4 4
  stencil order = 5
  estimated absolute RMS force accuracy = 0.33125978
  estimated relative force accuracy = 0.000997579
  using double precision KISS FFT
  3d grid and FFT values/proc = 294 4
Generated 36 of 36 mixed pair_coeff terms from sixthpower/sixthpower mixing rule
WARNING: Inconsistent image flags (../domain.cpp:815)
Per MPI rank memory allocation (min/avg/max) = 15.03 | 15.05 | 15.23 Mbytes
   Step          Temp          PotEng         E_vdwl         E_coul         E_bond        E_angle        E_dihed        E_impro        Density         Volume    
   9600104   447.84141      5869.6783     -824.36216      1777.6217      2844.7718      4001.6662     -575.96549      190.37271      1.0461774      56532.205    
   9620000   430.42428      5483.2502     -805.04751      1772.4412      2836.5525      3766.9985     -722.10413      179.14113      1.048261       56419.836    
   9640000   444.63857      5406.7235     -784.03245      1741.6607      2684.2938      3780.5779     -650.21929      178.33114      1.0495784      56349.023    
   9660000   435.11869      5354.375      -835.52356      1716.8567      2743.5321      3909.3197     -799.54661      164.44569      1.0525496      56189.956    
   9680000   436.57843      5441.7304     -834.19292      1725.2856      2810.1781      3793.3754     -690.66044      182.74209      1.0516784      56236.501    
   9700000   435.13554      5469.2033     -804.96121      1744.1932      2859.7043      3791.9891     -761.60871      183.75583      1.0488973      56385.612    
   9720000   432.91562      5475.0101     -828.35631      1740.7323      2784.923       3788.2451     -650.5983       183.70567      1.0440764      56645.965    
   9740000   438.2131       5356.1208     -820.9954       1719.0503      2676.6203      3833.6647     -688.09108      179.49666      1.0704494      55250.361    
   9760000   437.60345      5414.6706     -884.91479      1732.5986      2770.7746      3896.2168     -725.37833      169.47991      1.062344       55671.905    
   9780000   447.32867      5474.439      -777.28316      1729.5467      2749.8206      3916.3945     -775.98169      175.67846      1.0435026      56677.112    
   9800000   439.83289      5576.8721     -798.25924      1761.6079      2852.4587      3812.5416     -687.31721      179.4565       1.0564484      55982.587    
   9820000   448.08158      5464.1593     -807.7369       1748.984       2856.2942      3778.794      -741.72907      172.75604      1.0482399      56420.974    
   9840000   434.61661      5489.7476     -715.03665      1757.1448      2769.528       3876.3175     -828.9165       174.27915      1.0548196      56069.034    
   9860000   436.58553      5581.3616     -786.8007       1738.6895      2833.2351      3890.6161     -719.76047      169.83077      1.0399471      56870.889    
   9880000   447.6205       5547.249      -796.69583      1730.1422      2772.4017      3826.0874     -619.3563       178.81808      1.0476118      56454.803    
   9900000   446.41301      5549.4616     -794.36263      1749.5746      2849.4989      3824.7012     -711.3691       175.16243      1.0421226      56752.165    
   9920000   443.86064      5442.076      -803.56733      1738.5388      2808.5678      3768.6542     -690.54372      164.42282      1.0532094      56154.754    
   9940000   442.53605      5428.1735     -753.86732      1706.2748      2738.4922      3756.3188     -653.55099      178.55367      1.0537538      56125.744    
   9960000   438.45843      5504.461      -848.42611      1725.3112      2752.7057      3834.538      -590.75262      175.16872      1.0468213      56497.434    
   9980000   445.85709      5522.8735     -802.34484      1757.4067      2819.7354      3756.727      -647.64046      182.21491      1.0498968      56331.931    
  10000000   438.4978       5456.3426     -795.50463      1728.8424      2788.3941      3909.414      -820.74097      189.43343      1.037704       56993.818    
  10020000   438.79402      5544.8575     -753.65646      1751.9111      2803.5408      3826.1881     -721.2308       181.70667      1.0413572      56793.879    
  10040000   446.05841      5564.637      -791.33083      1752.5644      2925.1977      3714.1655     -668.08552      176.13457      1.0515842      56241.541    
  10060000   435.91274      5660.4398     -781.88336      1781.2297      2739.0807      3934.0865     -659.24401      191.83182      1.0381919      56967.036    
  10080000   440.99572      5501.9354     -793.4496       1791.1043      2788.502       3815.6467     -736.13161      180.26715      1.0417735      56771.185    
  10100000   435.2194       5388.0174     -833.67632      1759.5154      2674.3488      3791.8987     -640.77312      180.22779      1.0453118      56579.018    
  10120000   442.23364      5592.1904     -750.96768      1763.2572      2845.2025      3747.5532     -649.20837      179.59876      1.0442263      56637.832    
  10140000   440.45394      5590.97       -753.73588      1766.2441      2882.6829      3691.8355     -643.4801       190.34492      1.0507626      56285.518    
  10160000   439.82052      5449.8417     -888.58198      1768.2068      2794.0534      3903.1791     -756.44235      173.20571      1.0554277      56036.73     
  10180000   444.97753      5560.6426     -834.47673      1773.4665      2839.8481      3844.2615     -710.54296      191.5409       1.0481584      56425.359    
  10200000   438.89127      5437.226      -762.80733      1763.2389      2794.7228      3757.5613     -745.66589      174.39345      1.0533596      56146.747    
  10220000   436.31613      5538.2077     -842.89437      1784.7807      2634.0001      3918.8474     -602.63184      190.44192      1.0480165      56432.999    
  10240000   441.66445      5521.5076     -805.08831      1753.0133      2800.6427      3831.0289     -685.90857      171.83794      1.0432668      56689.926    
  10260000   441.26368      5676.2935     -799.45531      1762.3526      2839.4122      3879.8588     -647.67115      186.30538      1.0449504      56598.584    
  10280000   435.69471      5502.8263     -839.73201      1798.9698      2811.2723      3767.1055     -666.70645      175.94083      1.0470002      56487.777    
  10300000   436.75206      5570.8386     -790.58386      1735.987       2808.8827      3948.5985     -757.85735      169.47906      1.0426501      56723.456    
  10320000   449.2237       5539.2084     -843.86376      1736.8912      2922.2868      3828.7275     -746.20653      185.4528       1.0415282      56784.555    
  10340000   443.60069      5552.0968     -763.78629      1743.0262      2886.339       3776.44       -713.99627      167.97367      1.0402786      56852.768    
  10360000   438.09903      5608.675      -768.13592      1726.9761      2843.5959      3872.5321     -699.50095      177.23307      1.0460973      56536.532    
  10380000   448.27205      5549.767      -768.98899      1714.8444      2857.5854      3855.608      -754.51544      189.84626      1.0549935      56059.79     
  10400000   444.47672      5578.1666     -799.76216      1749.1206      2821.3341      3888.493      -727.47358      190.50989      1.0501796      56316.763    
  10420000   436.9801       5419.3466     -853.61906      1746.3888      2694.6991      3940.1449     -744.48577      181.11215      1.0456996      56558.035    
  10440000   437.99812      5570.5498     -818.3578       1748.856       2826.5098      3909.5571     -728.11111      175.90036      1.0343013      57181.322    
  10460000   444.11948      5492.548      -797.14326      1743.5043      2885.0238      3828.1449     -797.93852      175.28673      1.0538812      56118.957    
  10480000   447.51628      5533.611      -903.66314      1771.8811      2828.6224      3903.2404     -704.77881      182.39955      1.0567257      55967.897    
  10500000   443.4905       5447.9984     -801.29567      1696.4457      2792.722       3861.998      -742.51328      184.56232      1.052062       56216        
  10520000   438.68083      5350.6001     -891.30635      1741.4616      2819.8691      3757.8804     -715.28552      181.81617      1.0566102      55974.013    
  10540000   439.45881      5507.1346     -894.00648      1730.2298      2927.1413      3870.6986     -759.36922      175.78615      1.0510721      56268.94     
  10560000   437.95855      5491.7519     -862.46376      1701.5199      2907.0438      3873.0213     -756.61515      172.89704      1.0616969      55705.84     
  10580000   448.15567      5346.9451     -848.32624      1743.0004      2708.6693      3830.4164     -726.85259      183.6056       1.0634735      55612.777    
  10600000   447.30033      5429.1729     -857.74113      1721.3263      2825.8835      3932.5399     -823.14166      174.47045      1.0666375      55447.812    
  10620000   436.14259      5538.0528     -822.03729      1714.6932      2885.1534      3889.4437     -758.99106      173.72414      1.0605157      55767.882    
  10640000   443.28193      5424.0184     -802.63951      1695.2274      2714.0758      3880.9119     -702.25962      182.75392      1.0549713      56060.968    
  10660000   433.1766       5444.8669     -827.66009      1724.3266      2837.6384      3800.6562     -728.15447      181.71044      1.0649254      55536.957    
  10680000   443.86746      5461.3724     -813.4697       1741.559       2832.3954      3835.1857     -756.40729      166.1783       1.0579542      55902.908    
  10700000   437.92149      5594.828      -803.29047      1750.3775      2892.3947      3837.2783     -715.8865       178.45714      1.0425456      56729.138    
  10720000   440.1595       5326.8581     -883.2991       1742.498       2782.797       3814.8023     -760.78173      174.38096      1.0549842      56060.288    
  10740000   441.18821      5560.4028     -810.84098      1752.2197      2831.1838      3817.7285     -664.99271      178.60986      1.0584557      55876.422    
  10760000   440.10346      5568.2919     -785.14163      1710.0707      2843.0226      3922.3843     -753.2063       175.03714      1.0524249      56196.616    
  10780000   442.05063      5640.8757     -762.96227      1756.8832      2951.8319      3852.7632     -784.59259      171.30608      1.0409999      56813.373    
  10800000   445.5026       5520.9119     -820.06424      1758.5197      2840.1654      3882.1835     -773.10072      177.11562      1.0577775      55912.247    
  10800104   439.40685      5490.337      -833.2583       1753.582       2843.7297      3810.0902     -718.54739      178.91017      1.0547877      56070.729    
Loop time of 3742.73 on 24 procs for 1200000 steps with 5001 atoms

Performance: 6.925 ns/day, 3.465 hours/ns, 320.621 timesteps/s, 1.603 Matom-step/s
99.5% CPU use with 24 MPI tasks x no OpenMP threads

MPI task timing breakdown:
Section |  min time  |  avg time  |  max time  |%varavg| %total
---------------------------------------------------------------
Pair    | 1760.7     | 2031.6     | 2335.6     | 328.9 | 54.28
Bond    | 538.4      | 606.51     | 663.16     | 138.4 | 16.21
Kspace  | 536.45     | 893.72     | 1205.3     | 564.8 | 23.88
Neigh   | 38.729     | 38.78      | 38.806     |   0.4 |  1.04
Comm    | 123.29     | 125.9      | 128.13     |  11.7 |  3.36
Output  | 0.0035876  | 0.0039021  | 0.010548   |   2.2 |  0.00
Modify  | 32.042     | 33.772     | 35.083     |  14.5 |  0.90
Other   |            | 12.42      |            |       |  0.33

Nlocal:        208.375 ave         228 max         190 min
Histogram: 2 4 2 2 2 2 2 5 0 3
Nghost:        4532.33 ave        4578 max        4486 min
Histogram: 4 1 1 1 3 3 6 2 1 2
Neighs:        67091.5 ave       78448 max       57934 min
Histogram: 2 4 2 5 1 2 4 1 2 1

Total # of neighbors = 1610195
Ave neighs/atom = 321.97461
Ave special neighs/atom = 5.6904619
Neighbor list builds = 13844
Dangerous builds = 0
unfix           fNPT
unfix           fMOM
next            a
jump            SELF loop
variable        a loop 26
variable        b equal 600-20*($a-1)
variable        b equal 600-20*(10-1)
fix             fMOM all momentum 100 linear 1 1 1 angular
fix             fNPT all npt temp $b $b $(100.0*dt) iso 1 1 $(100.0*dt)
fix             fNPT all npt temp 420 $b $(100.0*dt) iso 1 1 $(100.0*dt)
fix             fNPT all npt temp 420 420 $(100.0*dt) iso 1 1 $(100.0*dt)
fix             fNPT all npt temp 420 420 25 iso 1 1 $(100.0*dt)
fix             fNPT all npt temp 420 420 25 iso 1 1 25
run             1200000
PPPM initialization ...
  using 12-bit tables for long-range coulomb (../kspace.cpp:342)
  G vector (1/distance) = 0.11584748
  grid = 4 4 4
  stencil order = 5
  estimated absolute RMS force accuracy = 0.33085419
  estimated relative force accuracy = 0.00099635758
  using double precision KISS FFT
  3d grid and FFT values/proc = 294 4
Generated 36 of 36 mixed pair_coeff terms from sixthpower/sixthpower mixing rule
WARNING: Inconsistent image flags (../domain.cpp:815)
Per MPI rank memory allocation (min/avg/max) = 15.03 | 15.05 | 15.23 Mbytes
   Step          Temp          PotEng         E_vdwl         E_coul         E_bond        E_angle        E_dihed        E_impro        Density         Volume    
  10800104   439.40685      5490.7192     -833.2583       1757.03        2843.7297      3810.0902     -718.54739      178.91017      1.0547877      56070.729    
  10820000   422.44966      5155.2538     -863.74379      1734.1641      2757.1253      3790.7538     -876.44578      160.45585      1.0560727      56002.505    
  10840000   423.67049      5069.0726     -842.77543      1744.9633      2678.6152      3689.3412     -815.64875      161.55049      1.068542       55348.987    
  10860000   417.83178      5254.6112     -864.87354      1776.781       2723.5903      3754.2164     -754.78746      166.43331      1.0511465      56264.959    
  10880000   426.43687      5126.3537     -797.38679      1750.8569      2639.9616      3723.8926     -802.25369      157.81126      1.0540434      56110.325    
  10900000   423.50065      5224.1236     -890.73428      1716.1051      2807.7916      3761.644      -797.88603      174.28603      1.0721343      55163.534    
  10920000   416.80756      5141.0745     -891.15266      1739.6706      2809.2546      3644.5641     -777.01784      163.92788      1.0616791      55706.77     
  10940000   420.97449      5025.0212     -875.71872      1725.5903      2625.8342      3769.5053     -847.1193       174.09062      1.0548085      56069.622    
  10960000   420.39836      5059.1354     -955.0478       1742.9191      2736.3117      3695.655      -796.02986      182.2011       1.0841862      54550.33     
  10980000   419.0397       5162.302      -787.36924      1764.2406      2725.8182      3573.7656     -747.12782      179.90909      1.053893       56118.328    
  11000000   419.57903      5096.7804     -959.25902      1741.8061      2676.2869      3760.3779     -740.76839      165.23036      1.0677178      55391.711    
  11020000   431.98789      5069.7325     -930.50107      1733.5806      2692.8047      3656.6819     -713.48037      177.44391      1.0748147      55025.966    
  11040000   419.67901      5051.1449     -935.25233      1750.7279      2737.6555      3741.4177     -869.15487      172.65454      1.0716938      55186.206    
  11060000   419.81065      5078.1413     -864.47838      1755.1265      2681.2519      3663.0889     -779.57134      169.07003      1.0725945      55139.862    
  11080000   430.61909      5087.3063     -888.47666      1732.4081      2618.6529      3684.0048     -688.54488      175.72803      1.0722745      55156.32     
  11100000   414.28285      5095.6025     -872.01724      1744.1773      2667.0578      3649.2385     -721.46939      175.41978      1.0686859      55341.532    
  11120000   425.9644       5101.2585     -959.84791      1712.2084      2664.4696      3785.2812     -720.67771      167.23915      1.0830437      54607.875    
  11140000   416.73354      5032.433      -895.49898      1729.1744      2812.1201      3584.0006     -826.11668      175.35628      1.0717913      55181.184    
  11160000   417.8694       5076.0916     -908.89307      1735.1495      2693.8329      3617.3265     -691.29937      175.95653      1.0640516      55582.563    
  11180000   409.13368      5154.4485     -837.42067      1729.5867      2683.7914      3673.9091     -721.10631      172.33739      1.0716665      55187.61     
  11200000   417.49142      5200.8234     -856.89193      1725.9576      2728.5287      3662.159      -685.10778      173.39728      1.0651011      55527.796    
  11220000   414.05717      5293.5348     -847.14447      1726.1572      2702.849       3736.5354     -660.47452      182.46674      1.0640797      55581.093    
  11240000   424.55654      5164.4124     -831.99292      1739.6694      2708.2643      3674.2393     -739.93985      160.85944      1.0654352      55510.383    
  11260000   417.43573      5003.9841     -841.37225      1742.3154      2575.1025      3697.9305     -803.61008      180.05676      1.0547101      56074.853    
  11280000   421.82578      5178.7034     -879.69585      1733.6671      2698.7606      3730.0593     -729.8354       172.7657       1.0623459      55671.808    
  11300000   425.89036      5142.0833     -832.15709      1774.4374      2645.439       3724.3343     -789.3301       164.99814      1.051752       56232.569    
  11320000   430.41298      5190.7553     -903.38868      1760.871       2727.9205      3736.296      -759.27754      174.99365      1.0710948      55217.067    
  11340000   424.62706      5125.333      -941.70518      1778.5417      2736.0696      3777.3514     -844.27882      166.11606      1.0734761      55094.578    
  11360000   420.31986      5184.3416     -833.48323      1748.1016      2744.2529      3696.5975     -801.83874      177.9755       1.0559716      56007.867    
  11380000   421.58474      5136.6721     -872.68713      1744.29        2740.5292      3662.954      -759.35555      167.87899      1.0537435      56126.292    
  11400000   424.22176      5101.3092     -826.84312      1740.6995      2726.2041      3619.9334     -783.15826      169.5712       1.0652605      55519.485    
  11420000   418.42921      5157.8367     -844.96769      1752.5814      2698.1004      3671.2993     -737.5223       165.27623      1.0601194      55788.729    
  11440000   414.94799      5143.3032     -897.24808      1744.4065      2657.6405      3751.139      -742.79552      177.46957      1.0647676      55545.185    
  11460000   427.00156      4996.8407     -876.9705       1746.6711      2660.1977      3660.5681     -811.58861      165.30312      1.0708563      55229.367    
  11480000   422.42564      5181.3766     -837.62297      1734.3249      2702.7032      3741.9615     -777.33452      164.07317      1.054709       56074.913    
  11500000   423.94856      5031.0213     -885.77966      1754.7609      2673.7613      3678.5328     -807.61066      165.13573      1.0587189      55862.527    
  11520000   424.38643      5036.1467     -823.1          1742.6117      2673.9916      3700.5338     -872.76676      161.45265      1.0636078      55605.755    
  11540000   425.32233      5109.1606     -883.16028      1724.6957      2630.6521      3839.7805     -830.60154      175.22488      1.0657455      55494.218    
  11560000   419.19017      5097.0889     -900.32773      1768.6073      2684.0296      3807.1807     -879.29209      163.07631      1.0663207      55464.283    
  11580000   425.15111      5039.4445     -849.66583      1748.9062      2733.9842      3616.5226     -829.01099      164.6954       1.0689202      55329.401    
  11600000   410.10161      5180.1485     -798.15778      1741.9563      2801.1069      3574.7997     -769.89551      178.22031      1.0516834      56236.235    
  11620000   422.81764      5013.9907     -885.40115      1710.9572      2625.3313      3658.3235     -718.9854       170.80326      1.0621313      55683.054    
  11640000   425.25561      5206.7283     -863.30194      1724.6388      2677.6655      3696.1669     -675.25946      193.581        1.0591301      55840.843    
  11660000   424.085        5013.0426     -909.26807      1729.487       2699.6705      3606.6701     -731.72029      164.79373      1.0630143      55636.803    
  11680000   420.79653      5163.4809     -869.71589      1729.5459      2729.8053      3709.3227     -762.52313      172.73584      1.061481       55717.167    
  11700000   419.68353      5109.9409     -820.52708      1734.473       2643.9686      3700.3063     -781.75767      180.96769      1.0539213      56116.823    
  11720000   420.59796      4956.9537     -806.58353      1742.8421      2704.2504      3536.6313     -842.33207      169.79585      1.0565187      55978.863    
  11740000   414.04262      5219.5441     -859.8827       1782.6753      2664.9523      3725.3824     -709.52717      163.47253      1.0653216      55516.299    
  11760000   421.03334      5217.5232     -897.09987      1715.0817      2765.0981      3726.0924     -728.08048      183.76685      1.0719989      55170.498    
  11780000   413.3206       5146.8963     -867.56189      1773.6747      2690.4117      3776.3653     -850.19455      171.36077      1.0677733      55388.831    
  11800000   416.08568      5077.6372     -873.6685       1746.9188      2677.0661      3693.5618     -798.68114      178.86142      1.0647539      55545.901    
  11820000   415.40173      5274.9468     -865.33358      1742.7419      2832.3718      3648.0008     -719.79524      183.86257      1.0621254      55683.364    
  11840000   423.78855      5181.7169     -876.98935      1758.3445      2678.3839      3764.9169     -782.65304      186.57997      1.0683299      55359.972    
  11860000   421.09993      5144.0731     -820.90644      1749.1342      2739.3064      3707.8434     -850.01245      166.4034       1.068483       55352.041    
  11880000   417.7056       5158.506      -855.80869      1779.4854      2708.7317      3679.8901     -782.35816      175.2406       1.0728478      55126.848    
  11900000   421.49393      5104.2262     -948.6921       1726.0136      2757.2035      3653.8928     -709.31302      172.43293      1.0616589      55707.834    
  11920000   425.21688      5226.8939     -819.41534      1740.0564      2732.3491      3702.5049     -757.22595      175.45911      1.0632436      55624.8      
  11940000   417.34161      5022.5693     -842.01808      1730.4027      2723.9757      3650.9781     -863.32476      170.0692       1.0540209      56111.521    
  11960000   419.32459      5222.8113     -850.02203      1759.9017      2755.8057      3737.0599     -795.40321      161.65126      1.0646686      55550.354    
  11980000   417.28512      5082.6215     -857.51388      1811.2348      2629.149       3702.1129     -818.0552       161.91951      1.0571755      55944.083    
  12000000   422.74996      5154.1411     -807.42216      1769.7895      2697.268       3691.1267     -818.98737      169.21663      1.0527443      56179.562    
  12000104   418.30717      5206.8066     -852.75487      1755.1487      2644.7534      3738.4299     -703.73168      172.25393      1.0528087      56176.125    
Loop time of 3770.58 on 24 procs for 1200000 steps with 5001 atoms

Performance: 6.874 ns/day, 3.491 hours/ns, 318.254 timesteps/s, 1.592 Matom-step/s
99.5% CPU use with 24 MPI tasks x no OpenMP threads

MPI task timing breakdown:
Section |  min time  |  avg time  |  max time  |%varavg| %total
---------------------------------------------------------------
Pair    | 1776.3     | 2053.9     | 2353.4     | 335.6 | 54.47
Bond    | 526.85     | 605.95     | 674.16     | 174.1 | 16.07
Kspace  | 535.27     | 901.54     | 1245.6     | 597.4 | 23.91
Neigh   | 36.347     | 36.387     | 36.431     |   0.4 |  0.97
Comm    | 124.06     | 126.45     | 128.88     |  11.4 |  3.35
Output  | 0.0034245  | 0.0040552  | 0.017937   |   4.5 |  0.00
Modify  | 31.815     | 33.643     | 35.026     |  15.5 |  0.89
Other   |            | 12.67      |            |       |  0.34

Nlocal:        208.375 ave         240 max         166 min
Histogram: 1 0 0 1 5 7 4 4 1 1
Nghost:        4519.42 ave        4568 max        4489 min
Histogram: 3 3 3 4 3 4 1 1 1 1
Neighs:        67201.2 ave       84129 max       56904 min
Histogram: 2 2 5 4 7 2 0 1 0 1

Total # of neighbors = 1612830
Ave neighs/atom = 322.5015
Ave special neighs/atom = 5.6904619
Neighbor list builds = 12865
Dangerous builds = 0
unfix           fNPT
unfix           fMOM
next            a
jump            SELF loop
variable        a loop 26
variable        b equal 600-20*($a-1)
variable        b equal 600-20*(11-1)
fix             fMOM all momentum 100 linear 1 1 1 angular
fix             fNPT all npt temp $b $b $(100.0*dt) iso 1 1 $(100.0*dt)
fix             fNPT all npt temp 400 $b $(100.0*dt) iso 1 1 $(100.0*dt)
fix             fNPT all npt temp 400 400 $(100.0*dt) iso 1 1 $(100.0*dt)
fix             fNPT all npt temp 400 400 25 iso 1 1 $(100.0*dt)
fix             fNPT all npt temp 400 400 25 iso 1 1 25
run             1200000
PPPM initialization ...
  using 12-bit tables for long-range coulomb (../kspace.cpp:342)
  G vector (1/distance) = 0.11579476
  grid = 4 4 4
  stencil order = 5
  estimated absolute RMS force accuracy = 0.33094755
  estimated relative force accuracy = 0.00099663871
  using double precision KISS FFT
  3d grid and FFT values/proc = 294 4
Generated 36 of 36 mixed pair_coeff terms from sixthpower/sixthpower mixing rule
WARNING: Inconsistent image flags (../domain.cpp:815)
Per MPI rank memory allocation (min/avg/max) = 15.03 | 15.05 | 15.23 Mbytes
   Step          Temp          PotEng         E_vdwl         E_coul         E_bond        E_angle        E_dihed        E_impro        Density         Volume    
  12000104   418.30717      5206.7433     -852.75487      1754.3824      2644.7534      3738.4299     -703.73168      172.25393      1.0528087      56176.125    
  12020000   402.02604      4806.835      -831.11551      1717.7469      2565.3759      3581.3701     -844.30434      164.09818      1.0650569      55530.1      
  12040000   407.41046      4825.4894     -878.09954      1746.9831      2597.9474      3551.8772     -807.25465      160.58072      1.0613507      55724.007    
  12060000   396.6058       4745.8171     -855.48755      1742.1623      2565.8505      3516.3044     -839.90513      163.979        1.0546098      56080.186    
  12080000   400.45912      4708.1919     -891.99272      1742.7733      2541.726       3534.1593     -830.73486      158.77353      1.0659864      55481.677    
  12100000   394.46734      4785.6582     -920.79173      1753.8083      2603.5497      3594.8044     -865.88497      166.50636      1.0741616      55059.419    
  12120000   400.17754      4697.7978     -899.20887      1726.4449      2501.5958      3551.2814     -793.37149      157.25834      1.0644085      55563.926    
  12140000   401.8851       4975.6485     -892.93629      1753.2679      2658.5609      3606.1928     -777.79292      174.41377      1.0637443      55598.618    
  12160000   401.13142      4779.5656     -897.58025      1701.4611      2658.1876      3574.7805     -875.79296      165.25789      1.067479       55404.1      
  12180000   412.64425      4774.8758     -872.68109      1690.0319      2692.8293      3582.8381     -930.90365      159.21218      1.0643631      55566.298    
  12200000   399.42371      4559.5578     -924.35566      1747.0295      2516.623       3514.1238     -909.42932      162.30374      1.0735835      55089.071    
  12220000   399.1011       4727.5482     -861.03875      1737.1501      2672.3487      3561.0958     -995.92252      160.26315      1.0668101      55438.841    
  12240000   398.76716      4839.5239     -824.46317      1736.5337      2562.6454      3600.2636     -861.15048      171.87633      1.0589739      55849.079    
  12260000   397.68341      4835.3741     -827.8915       1742.6031      2666.2181      3502.4365     -866.15407      165.40692      1.0681806      55367.711    
  12280000   396.96761      4961.0273     -871.18269      1712.5446      2705.5866      3593.0356     -805.8217       174.05276      1.054846       56067.632    
  12300000   396.52716      4868.2061     -912.47816      1727.9244      2730.8091      3629.9215     -926.28992      165.59306      1.0695138      55298.695    
  12320000   402.92503      4855.3322     -859.27852      1742.2759      2626.5483      3520.2727     -791.09262      163.49762      1.062647       55656.034    
  12340000   396.89874      4842.1647     -843.37468      1722.4562      2656.6339      3585.7643     -903.58112      171.24517      1.0655458      55504.618    
  12360000   399.06169      4842.8053     -806.34243      1707.2731      2666.1776      3583.4695     -922.23529      161.49931      1.070353       55255.335    
  12380000   402.78505      4835.9298     -913.88733      1683.2025      2632.872       3739.6169     -912.08887      153.398        1.0741514      55059.944    
  12400000   396.22271      4733.6077     -909.94624      1717.4174      2584.1636      3659.5132     -936.23945      165.41602      1.0738741      55074.161    
  12420000   392.39996      4807.0758     -880.41549      1723.0655      2619.6451      3511.6274     -799.9808       179.7426       1.0732774      55104.78     
  12440000   402.48652      4844.0718     -864.93043      1727.7025      2664.7695      3599.2621     -899.2909       163.45826      1.0665004      55454.938    
  12460000   397.61514      4773.4202     -918.68535      1724.6122      2650.0776      3609.6907     -908.15627      162.93585      1.0647212      55547.606    
  12480000   403.36849      4747.9456     -864.79507      1704.5047      2614.8384      3592.3442     -907.03665      155.08459      1.0770378      54912.383    
  12500000   394.81118      4898.0094     -896.6758       1728.5406      2621.7727      3667.4064     -842.46384      167.13155      1.0691539      55317.305    
  12520000   401.11466      4649.0384     -904.12697      1708.6664      2570.3722      3554.5058     -890.35567      156.91765      1.0694202      55303.533    
  12540000   410.19985      4668.2349     -902.85948      1703.9751      2648.9999      3560.8581     -951.42306      155.16079      1.0790429      54810.348    
  12560000   398.33919      4681.0596     -950.20985      1737.9745      2611.6849      3588.2226     -916.15085      155.75245      1.0652785      55518.55     
  12580000   393.37431      4626.2202     -917.08716      1707.9034      2574.2328      3531.9062     -896.16066      172.39036      1.0766713      54931.08     
  12600000   393.07558      4646.5864     -982.27714      1725.8535      2603.1883      3651.6899     -965.13119      159.69815      1.0728463      55126.925    
  12620000   394.55419      4768.3368     -916.5403       1718.258       2640.6757      3624.8987     -919.08628      166.54131      1.0791985      54802.444    
  12640000   400.96225      4674.9186     -1021.0025      1751.8046      2633.3178      3631.9145     -936.29991      161.71777      1.0757188      54979.718    
  12660000   400.69741      4665.6378     -915.05277      1730.6179      2601.0561      3554.4495     -923.95075      164.59021      1.0760349      54963.567    
  12680000   398.60258      4715.4791     -905.52357      1716.9265      2583.7296      3598.9119     -898.52359      166.78142      1.072642       55137.422    
  12700000   405.25994      4656.4958     -923.647        1763.4241      2591.4228      3569.8763     -948.6705       150.63334      1.0605147      55767.937    
  12720000   401.54943      4715.4432     -949.55067      1759.2419      2623.6319      3560.6912     -892.6852       161.00304      1.0649816      55534.026    
  12740000   400.90716      4765.4444     -903.37896      1748.7799      2571.359       3534.8639     -808.97486      169.54748      1.0722479      55157.686    
  12760000   395.20215      4548.6965     -926.70565      1747.6146      2490.0598      3600.7179     -975.45823      158.60529      1.0688042      55335.404    
  12780000   407.38432      4723.9661     -915.65674      1696.6639      2579.4475      3552.8873     -809.49365      165.87484      1.0725854      55140.334    
  12800000   397.8083       4780.3816     -859.24854      1734.8194      2601.7861      3563.0478     -880.57999      165.73307      1.0577026      55916.204    
  12820000   404.86837      4711.0207     -894.54318      1732.8056      2525.2323      3493.6016     -765.91067      165.93375      1.075811       54975.007    
  12840000   406.1173       4744.3087     -877.33292      1728.7716      2590.3558      3599.6915     -914.25897      163.76073      1.0654628      55508.943    
  12860000   401.13961      4805.7087     -905.14644      1729.2937      2605.8571      3629.4816     -878.26935      169.57175      1.0634633      55613.313    
  12880000   397.98651      4746.6569     -911.43449      1734.9956      2674.863       3567.3537     -927.99176      154.77415      1.0676371      55395.899    
  12900000   396.34281      4821.8062     -929.8023       1732.1883      2612.5314      3603.0156     -820.33426      171.47331      1.0679953      55377.316    
  12920000   398.95771      4769.3866     -864.79324      1760.9278      2628.5881      3523.6919     -904.47607      170.84623      1.0643762      55565.614    
  12940000   403.12539      4757.0366     -879.03425      1718.7047      2575.6161      3609.2469     -887.17322      165.9282       1.0826785      54626.297    
  12960000   403.3855       4699.8121     -961.0132       1721.526       2589.6919      3585.0867     -854.10171      165.61552      1.0686155      55345.179    
  12980000   404.21781      4907.7826     -902.62265      1740.8415      2637.4362      3592.3055     -786.74127      172.69722      1.0675799      55398.864    
  13000000   399.58274      4758.7372     -926.66644      1711.0289      2664.0413      3583.1017     -895.78968      169.9234       1.0745451      55039.77     
  13020000   402.80903      4678.8129     -988.10015      1755.9593      2618.4555      3657.5886     -968.96086      149.7151       1.0716418      55188.886    
  13040000   395.33138      4773.8599     -878.90976      1740.7552      2633.7885      3518.1718     -856.10436      161.83912      1.0690958      55320.316    
  13060000   399.8444       4772.6596     -906.35868      1756.5483      2658.2302      3544.6019     -896.39681      162.45512      1.0660546      55478.13     
  13080000   407.38698      4668.4381     -984.61007      1722.7542      2556.7615      3652.7522     -888.7237       156.15121      1.074862       55023.542    
  13100000   402.11809      4656.2694     -969.7975       1723.3842      2612.941       3550.4176     -868.4663       154.2719       1.0794227      54791.063    
  13120000   401.10778      4719.5045     -947.95923      1721.7653      2628.5111      3610.6782     -906.78454      160.08216      1.0788132      54822.019    
  13140000   401.4551       4825.8209     -902.62939      1714.1131      2632.7657      3625.4669     -860.89287      163.49929      1.0691939      55315.236    
  13160000   397.61345      4766.0236     -871.62531      1719.7639      2635.3411      3466.9809     -797.56087      159.58258      1.0736402      55086.161    
  13180000   405.36819      4820.5843     -922.53088      1742.4902      2617.1689      3534.8573     -776.88038      171.4569       1.0750868      55012.04     
  13200000   398.42936      4843.0957     -870.12399      1730.1251      2608.1006      3611.5811     -860.36891      169.50975      1.075065       55013.15     
  13200104   397.98766      4697.9336     -901.19839      1732.726       2475.3146      3647.4233     -869.97453      159.4927       1.0733203      55102.576    
Loop time of 3737.6 on 24 procs for 1200000 steps with 5001 atoms

Performance: 6.935 ns/day, 3.461 hours/ns, 321.061 timesteps/s, 1.606 Matom-step/s
99.5% CPU use with 24 MPI tasks x no OpenMP threads

MPI task timing breakdown:
Section |  min time  |  avg time  |  max time  |%varavg| %total
---------------------------------------------------------------
Pair    | 1850.9     | 2065       | 2341.6     | 313.5 | 55.25
Bond    | 550.14     | 605.63     | 681.38     | 148.8 | 16.20
Kspace  | 515.62     | 859.63     | 1129.3     | 569.4 | 23.00
Neigh   | 34.11      | 34.18      | 34.225     |   0.6 |  0.91
Comm    | 124.93     | 126.82     | 129.29     |  10.6 |  3.39
Output  | 0.0035706  | 0.0044593  | 0.014315   |   3.1 |  0.00
Modify  | 32.322     | 33.955     | 35.248     |  15.4 |  0.91
Other   |            | 12.41      |            |       |  0.33

Nlocal:        208.375 ave         225 max         188 min
Histogram: 2 1 1 0 6 4 4 1 3 2
Nghost:        4583.38 ave        4625 max        4527 min
Histogram: 1 2 1 3 2 0 3 7 3 2
Neighs:        68221.1 ave       75772 max       54679 min
Histogram: 1 0 1 2 5 1 1 5 5 3

Total # of neighbors = 1637306
Ave neighs/atom = 327.39572
Ave special neighs/atom = 5.6904619
Neighbor list builds = 12088
Dangerous builds = 0
unfix           fNPT
unfix           fMOM
next            a
jump            SELF loop
variable        a loop 26
variable        b equal 600-20*($a-1)
variable        b equal 600-20*(12-1)
fix             fMOM all momentum 100 linear 1 1 1 angular
fix             fNPT all npt temp $b $b $(100.0*dt) iso 1 1 $(100.0*dt)
fix             fNPT all npt temp 380 $b $(100.0*dt) iso 1 1 $(100.0*dt)
fix             fNPT all npt temp 380 380 $(100.0*dt) iso 1 1 $(100.0*dt)
fix             fNPT all npt temp 380 380 25 iso 1 1 $(100.0*dt)
fix             fNPT all npt temp 380 380 25 iso 1 1 25
run             1200000
PPPM initialization ...
  using 12-bit tables for long-range coulomb (../kspace.cpp:342)
  G vector (1/distance) = 0.11633699
  grid = 4 4 4
  stencil order = 5
  estimated absolute RMS force accuracy = 0.32997627
  estimated relative force accuracy = 0.00099371375
  using double precision KISS FFT
  3d grid and FFT values/proc = 294 4
Generated 36 of 36 mixed pair_coeff terms from sixthpower/sixthpower mixing rule
WARNING: Inconsistent image flags (../domain.cpp:815)
Per MPI rank memory allocation (min/avg/max) = 15.03 | 15.05 | 15.24 Mbytes
   Step          Temp          PotEng         E_vdwl         E_coul         E_bond        E_angle        E_dihed        E_impro        Density         Volume    
  13200104   397.98766      4698.7925     -901.19839      1740.8098      2475.3146      3647.4233     -869.97453      159.4927       1.0733203      55102.576    
  13220000   385.7173       4419.4442     -911.04236      1755.8384      2444.3041      3439.1076     -910.55319      156.11427      1.0708703      55228.643    
  13240000   387.48796      4356.0207     -979.53102      1723.3704      2435.3725      3558.5681     -976.62347      148.41138      1.0923278      54143.741    
  13260000   376.78308      4199.9843     -1015.4134      1740.5312      2355.2531      3521.0799     -994.71798      146.77266      1.0874375      54387.232    
  13280000   378.54671      4390.8233     -907.66103      1727.9024      2420.1401      3510.0159     -966.10598      160.0683       1.0828169      54619.311    
  13300000   377.29943      4395.5659     -1066.8481      1700.7797      2505.0287      3564.5841     -907.65159      153.43575      1.0913927      54190.131    
  13320000   379.19668      4551.5954     -1031.9477      1744.3133      2495.9639      3536.9979     -801.38082      161.02913      1.0876545      54376.383    
  13340000   382.32637      4381.0863     -1002.9841      1754.5363      2503.5554      3439.146      -922.80432      162.99827      1.0861702      54450.689    
  13360000   381.40669      4425.898      -967.22278      1715.5977      2429.7172      3579.9063     -932.0523       153.923        1.084004       54559.501    
  13380000   371.11155      4348.7983     -944.56018      1715.5964      2473.1968      3481.2398     -976.99565      153.79946      1.0842756      54545.831    
  13400000   378.83604      4413.3765     -1025.786       1717.9027      2482.3299      3552.9045     -920.21113      160.38042      1.0950769      54007.82     
  13420000   381.68223      4393.5938     -1034.0599      1738.0839      2469.9382      3582.7734     -959.97669      150.38692      1.0802226      54750.49     
  13440000   383.79257      4347.4372     -1043.9725      1706.4462      2583.9661      3412.0581     -917.9497       160.758        1.0915418      54182.733    
  13460000   373.12022      4360.4703     -1027.0283      1719.2664      2517.124       3500.664      -947.65511      151.57494      1.0936382      54078.866    
  13480000   386.87161      4207.5728     -1059.9854      1726.2513      2483.726       3458.8693     -994.58227      147.41035      1.0906606      54226.508    
  13500000   389.01417      4368.4059     -1058.059       1717.6408      2484.7897      3571.3249     -939.45589      146.93933      1.0975993      53883.704    
  13520000   379.31596      4332.1487     -961.6923       1722.1607      2499.2563      3394.2347     -915.8962       148.18009      1.0935988      54080.816    
  13540000   379.0978       4363.0272     -991.64955      1748.0225      2464.9123      3521.1326     -978.13854      152.82187      1.080498       54736.533    
  13560000   384.35143      4433.2227     -1018.0056      1755.9192      2535.8357      3473.4116     -921.29972      161.42317      1.0906844      54225.325    
  13580000   386.01364      4400.0906     -977.56899      1745.1998      2482.7703      3568.8795     -1014.9801      148.88974      1.084862       54516.347    
  13600000   367.11396      4290.4604     -962.89721      1718.2721      2406.9981      3448.8824     -925.4197       158.39244      1.0845251      54533.284    
  13620000   381.65039      4487.1622     -1005.5194      1741.617       2473.9133      3531.023      -859.92053      159.84301      1.0813301      54694.413    
  13640000   375.82059      4497.9054     -927.8547       1742.9803      2458.6694      3526.5993     -910.30367      161.81968      1.0827063      54624.894    
  13660000   380.32741      4466.469      -980.39508      1724.9597      2495.7111      3451.7957     -837.68625      166.11633      1.0826944      54625.491    
  13680000   382.98613      4500.4423     -1037.3546      1733.2839      2557.8664      3586.0728     -947.89346      161.6912       1.0984755      53840.724    
  13700000   379.72135      4347.3836     -960.75946      1720.1833      2468.7462      3440.9155     -924.89217      156.65332      1.0859058      54463.948    
  13720000   375.66011      4420.1847     -933.5582       1743.4572      2438.5889      3493.0908     -924.52862      157.83389      1.0771442      54906.96     
  13740000   381.00962      4446.3583     -979.76724      1738.9356      2572.9146      3497.385      -977.25362      148.55564      1.0782823      54849.008    
  13760000   377.17186      4512.8554     -976.93806      1777.7235      2520.4607      3493.4828     -901.56662      153.31682      1.0845625      54531.405    
  13780000   384.26598      4478.4662     -936.84129      1756.2201      2477.1343      3518.3082     -946.17895      164.53012      1.0923691      54141.696    
  13800000   374.67868      4467.6115     -961.09953      1734.7087      2516.5487      3417.4905     -850.71201      165.34026      1.09115        54202.188    
  13820000   377.12497      4435.682      -965.68954      1755.269       2488.2598      3506.3492     -941.56421      147.18511      1.0705737      55243.943    
  13840000   377.99273      4517.6259     -927.16799      1766.8582      2446.6884      3492.3115     -863.55528      157.09002      1.069677       55290.257    
  13860000   382.49286      4387.4579     -974.61017      1736.2846      2446.4374      3532.1276     -953.77179      154.83986      1.078284       54848.921    
  13880000   386.16679      4438.7882     -939.08333      1728.4002      2546.327       3450.1584     -951.33106      158.06753      1.083479       54585.935    
  13900000   379.92244      4356.4603     -987.65884      1736.0788      2446.9055      3487.1405     -926.39843      154.62103      1.0809275      54714.786    
  13920000   373.97865      4403.3457     -981.59281      1742.9547      2480.8046      3468.1117     -908.69964      156.22524      1.097009       53912.7      
  13940000   374.1236       4475.7298     -973.64508      1742.5534      2529.8028      3509.8199     -941.08144      163.10476      1.098681       53830.651    
  13960000   385.34466      4367.4601     -964.75859      1751.1973      2432.4903      3521.55       -981.44275      162.21007      1.0877879      54369.713    
  13980000   380.97978      4402.5056     -1003.2571      1753.9007      2475.7154      3475.7508     -906.04239      160.96393      1.0906853      54225.28     
  14000000   370.71025      4301.6496     -981.03733      1729.3286      2495.8432      3378.0404     -913.89613      147.71439      1.0866072      54428.791    
  14020000   378.83518      4371.6206     -1016.5045      1743.7934      2533.3545      3535.6955     -1023.3192      152.88012      1.0790851      54808.202    
  14040000   386.44443      4521.5167     -981.81728      1758.5751      2591.7458      3534.1769     -979.9413       152.09937      1.0782822      54849.015    
  14060000   388.87073      4422.7116     -921.7643       1746.6169      2474.503       3454.8422     -924.80216      147.52409      1.0805516      54733.819    
  14080000   374.33582      4365.1482     -1026.373       1748.3289      2428.6952      3546.5939     -924.05933      146.12871      1.0782801      54849.122    
  14100000   373.02513      4451.9145     -965.10985      1733.4553      2451.7253      3455.6387     -831.46802      161.88593      1.074407       55046.845    
  14120000   376.11423      4469.3112     -1016.503       1718.7882      2530.6518      3497.5038     -856.02392      149.0946       1.0817975      54670.782    
  14140000   374.70438      4402.968      -941.97497      1749.4943      2418.0109      3395.6657     -815.42348      151.40798      1.0896575      54276.429    
  14160000   372.36582      4462.8512     -915.88555      1722.4586      2539.5629      3402.7033     -885.86932      153.91752      1.081456       54688.046    
  14180000   384.32409      4313.1011     -1036.0684      1748.3467      2528.6764      3365.8016     -894.26566      154.85417      1.0833374      54593.07     
  14200000   375.50305      4407.8022     -924.50257      1758.462       2490.3383      3371.4579     -890.81887      157.32869      1.0809836      54711.946    
  14220000   376.57204      4484.8058     -969.49406      1746.524       2555.638       3484.1598     -921.25707      143.60828      1.0836647      54576.583    
  14240000   379.47998      4355.5272     -1068.2314      1741.0846      2486.2836      3467.4737     -877.2845       159.88568      1.0912844      54195.512    
  14260000   375.82549      4378.5198     -1003.6266      1738.4908      2436.2837      3496.0448     -895.42833      160.51502      1.0857365      54472.438    
  14280000   385.54197      4358.918      -973.53469      1761.6422      2528.1763      3425.6854     -973.40415      144.44837      1.0811574      54703.151    
  14300000   376.15672      4429.7862     -964.16721      1740.9891      2432.8932      3463.1729     -849.06154      159.68721      1.0848718      54515.855    
  14320000   380.60967      4401.4203     -982.92848      1744.9075      2479.0907      3451.5565     -897.21746      159.50136      1.0793603      54794.229    
  14340000   375.05214      4609.7202     -1032.5262      1745.7635      2543.6558      3601.6428     -845.07731      150.16101      1.0880579      54356.22     
  14360000   387.2774       4351.0978     -1009.3027      1737.2742      2498.9709      3438.6513     -910.42677      150.15858      1.0845766      54530.696    
  14380000   384.7205       4316.3622     -947.33341      1738.5726      2470.0623      3419.1191     -962.37815      153.09764      1.0897975      54269.456    
  14400000   375.45201      4410.5121     -1005.3638      1719.0209      2535.0998      3443.9035     -882.44724      154.43619      1.0790264      54811.182    
  14400104   380.23255      4235.7499     -915.09616      1725.892       2462.7273      3332.3007     -969.23682      153.23612      1.0826657      54626.942    
Loop time of 3834.43 on 24 procs for 1200000 steps with 5001 atoms

Performance: 6.760 ns/day, 3.550 hours/ns, 312.954 timesteps/s, 1.565 Matom-step/s
99.5% CPU use with 24 MPI tasks x no OpenMP threads

MPI task timing breakdown:
Section |  min time  |  avg time  |  max time  |%varavg| %total
---------------------------------------------------------------
Pair    | 1841.3     | 2103.3     | 2467.4     | 328.6 | 54.85
Bond    | 547.18     | 605.14     | 690.89     | 162.3 | 15.78
Kspace  | 470.83     | 920.14     | 1233       | 587.4 | 24.00
Neigh   | 32.068     | 32.101     | 32.143     |   0.4 |  0.84
Comm    | 125.41     | 127.51     | 130.25     |  11.7 |  3.33
Output  | 0.0033547  | 0.0036758  | 0.010448   |   2.3 |  0.00
Modify  | 32.016     | 33.702     | 35.261     |  15.6 |  0.88
Other   |            | 12.59      |            |       |  0.33

Nlocal:        208.375 ave         229 max         185 min
Histogram: 3 0 1 3 3 3 3 5 2 1
Nghost:        4656.62 ave        4695 max        4628 min
Histogram: 1 5 4 4 1 2 2 2 2 1
Neighs:        69047.1 ave       79841 max       58878 min
Histogram: 1 3 3 4 2 2 3 2 1 3

Total # of neighbors = 1657131
Ave neighs/atom = 331.35993
Ave special neighs/atom = 5.6904619
Neighbor list builds = 11282
Dangerous builds = 0
unfix           fNPT
unfix           fMOM
next            a
jump            SELF loop
variable        a loop 26
variable        b equal 600-20*($a-1)
variable        b equal 600-20*(13-1)
fix             fMOM all momentum 100 linear 1 1 1 angular
fix             fNPT all npt temp $b $b $(100.0*dt) iso 1 1 $(100.0*dt)
fix             fNPT all npt temp 360 $b $(100.0*dt) iso 1 1 $(100.0*dt)
fix             fNPT all npt temp 360 360 $(100.0*dt) iso 1 1 $(100.0*dt)
fix             fNPT all npt temp 360 360 25 iso 1 1 $(100.0*dt)
fix             fNPT all npt temp 360 360 25 iso 1 1 25
run             1200000
PPPM initialization ...
  using 12-bit tables for long-range coulomb (../kspace.cpp:342)
  G vector (1/distance) = 0.11658104
  grid = 4 4 4
  stencil order = 5
  estimated absolute RMS force accuracy = 0.32953119
  estimated relative force accuracy = 0.00099237339
  using double precision KISS FFT
  3d grid and FFT values/proc = 294 4
Generated 36 of 36 mixed pair_coeff terms from sixthpower/sixthpower mixing rule
WARNING: Inconsistent image flags (../domain.cpp:815)
Per MPI rank memory allocation (min/avg/max) = 15.03 | 15.05 | 15.24 Mbytes
   Step          Temp          PotEng         E_vdwl         E_coul         E_bond        E_angle        E_dihed        E_impro        Density         Volume    
  14400104   380.23255      4236.1265     -915.09616      1729.5226      2462.7273      3332.3007     -969.23682      153.23612      1.0826657      54626.942    
  14420000   363.05409      3984.6281     -1029.8446      1722.7632      2345.3608      3368.2867     -1004.7768      140.74507      1.0930604      54107.456    
  14440000   361.49629      4083.7902     -1003.9188      1733.3846      2293.931       3404.9061     -940.27267      153.81087      1.0841372      54552.797    
  14460000   362.51612      3945.1131     -1031.3635      1692.1382      2312.9003      3376.8728     -991.89321      144.34256      1.0926354      54128.501    
  14480000   352.69979      3989.2404     -1013.7841      1712.1705      2357.4521      3354.7609     -1009.6934      146.36554      1.0863179      54443.283    
  14500000   358.58337      4129.2835     -1028.2499      1742.3583      2404.0558      3391.562      -967.7442       145.46726      1.0939677      54062.579    
  14520000   363.11144      4178.2571     -1012.6541      1740.3224      2414.09        3416.3262     -972.34363      150.85019      1.0866645      54425.921    
  14540000   365.88407      3987.026      -1064.8635      1743.7766      2353.5486      3346.995      -980.95596      146.67441      1.0995326      53788.958    
  14560000   360.94076      4172.3174     -1063.7103      1760.9349      2454.7095      3415.0132     -982.48727      145.74228      1.0849057      54514.151    
  14580000   366.1673       4146.5968     -957.58304      1722.1763      2434.918       3291.4115     -942.22709      155.94522      1.0802648      54748.349    
  14600000   353.24269      4042.8495     -1005.6225      1745.2358      2410.3955      3313.1627     -998.80054      136.88742      1.0825461      54632.974    
  14620000   354.64906      4025.7261     -1015.7843      1726.5207      2316.669       3279.3325     -868.07304      144.77431      1.0839649      54561.469    
  14640000   359.0752       4164.6429     -998.782        1728.4534      2389.4328      3364.9986     -916.86288      155.23386      1.0888058      54318.885    
  14660000   356.80483      4006.2156     -1032.8982      1713.4716      2248.9078      3341.4856     -862.45932      155.49618      1.0948708      54017.987    
  14680000   360.02745      3930.0166     -1118.1878      1730.0597      2374.1923      3414.7028     -1055.1031      141.85484      1.0990654      53811.823    
  14700000   355.54944      4079.4767     -1065.2659      1690.8763      2420.8405      3454.7486     -1007.608       143.32442      1.0952574      53998.919    
  14720000   352.98536      4137.5447     -1039.1415      1705.983       2365.4284      3434.0985     -916.33613      144.85218      1.0918637      54166.759    
  14740000   353.97238      4008.3976     -1080.1344      1702.2061      2432.3337      3293.3227     -936.37379      154.29917      1.0877775      54370.234    
  14760000   359.99271      4032.5645     -1034.7757      1718.2819      2407.7106      3338.5497     -986.58022      147.09545      1.095301       53996.771    
  14780000   367.17241      4028.6946     -1021.4917      1735.111       2368.8821      3375.9884     -1014.2997      142.26441      1.0952971      53996.96     
  14800000   358.58111      4043.6242     -1019.0436      1730.511       2391.7413      3335.5213     -982.83738      145.94589      1.0898203      54268.319    
  14820000   361.71376      3947.5203     -1045.791       1709.9216      2299.6561      3373.5416     -977.49808      145.5272       1.0991637      53807.014    
  14840000   356.75646      3968.8862     -1043.8255      1731.3696      2345.3611      3365.1474     -1022.5372      150.32241      1.0911725      54201.066    
  14860000   356.94487      4218.5287     -1045.9917      1764.2236      2428.7548      3367.359      -892.00472      154.27175      1.0956048      53981.798    
  14880000   364.55023      3995.5414     -1037.8473      1778.8477      2390.9335      3329.5141     -1051.6608      143.51977      1.0824181      54639.436    
  14900000   360.6751       4097.0288     -1012.1846      1747.5301      2351.7027      3426.3495     -1006.132       147.52474      1.0856087      54478.849    
  14920000   354.27195      4087.1661     -983.83538      1763.402       2392.957       3288.6822     -972.91845      156.56955      1.0860479      54456.822    
  14940000   360.60515      3960.0507     -1043.6055      1724.4039      2354.6521      3349.5419     -1010.5828      143.01938      1.097129       53906.802    
  14960000   362.05558      4047.3061     -1033.3854      1732.8745      2356.6491      3396.0579     -992.0054       144.32718      1.1039248      53574.951    
  14980000   368.89639      3945.6535     -1037.9667      1707.3094      2348.1907      3341.079      -997.90784      142.56225      1.1081569      53370.343    
  15000000   367.3867       4095.9484     -1063.6774      1737.648       2428.1755      3327.66       -931.62701      155.54988      1.0997533      53778.167    
  15020000   364.59329      4120.5084     -1074.5721      1730.2799      2345.8514      3410.7578     -880.09138      145.76793      1.0930483      54108.052    
  15040000   366.08188      3929.4839     -1080.1687      1708.6545      2358.1724      3331.9685     -976.54148      144.79612      1.095862       53969.125    
  15060000   358.92842      4060.0243     -1033.3644      1737.0574      2394.9538      3365.6876     -997.11816      150.00773      1.0958484      53969.796    
  15080000   369.78893      3947.1646     -1084.7841      1714.0629      2429.5485      3290.4372     -993.34724      149.04839      1.0947566      54023.621    
  15100000   363.22515      4091.9265     -1050.0697      1715.4397      2403.8837      3383.6505     -949.12034      145.87274      1.0921716      54151.484    
  15120000   356.37796      4081.115      -1059.162       1735.6312      2357.6704      3356.4807     -906.17265      153.40539      1.0975753      53884.883    
  15140000   357.96659      4021.4925     -1022.8263      1713.4845      2329.9812      3360.6616     -944.06991      141.8851       1.0889306      54312.657    
  15160000   359.34678      4114.7994     -993.97253      1744.3647      2394.82        3395.7906     -1011.8397      143.00636      1.0961754      53953.698    
  15180000   359.14221      4043.2816     -1065.8208      1732.0597      2333.0765      3362.584      -907.76894      145.62319      1.0903801      54240.456    
  15200000   354.67401      4152.0911     -1060.9995      1735.2625      2423.8014      3414.175      -948.93818      145.63934      1.0892965      54294.416    
  15220000   359.16772      3979.9685     -1039.9798      1702.5874      2381.4531      3324.5309     -972.98501      141.52173      1.0881552      54351.362    
  15240000   354.25284      4115.4671     -997.69732      1730.1101      2437.0262      3387.239      -1029.4599      145.24339      1.0897444      54272.096    
  15260000   366.11571      4030.6885     -987.44541      1721.8285      2373.2209      3359.3993     -1024.1821      145.0524       1.0965959      53933.006    
  15280000   358.97687      4085.1668     -999.34201      1743.1525      2351.2886      3364.5809     -962.87121      146.64248      1.0851838      54500.185    
  15300000   357.78099      3944.1524     -1028.8828      1709.924       2365.0057      3367.9269     -1056.8359      144.65974      1.0895685      54280.861    
  15320000   361.2765       4087.6612     -1062.748       1716.5325      2366.7485      3415.9738     -940.06868      148.5822       1.0920101      54159.493    
  15340000   361.22157      4020.547      -1081.4728      1693.0854      2356.8369      3347.6363     -899.42539      161.1853       1.0982344      53852.542    
  15360000   359.40719      3842.4274     -1064.1999      1690.9753      2302.6297      3232.0157     -907.86235      146.46201      1.1113597      53216.536    
  15380000   348.65912      4042.6577     -1059.865       1719.9603      2422.663       3318.431      -948.28576      146.72627      1.0988768      53821.06     
  15400000   365.79802      4007.4072     -981.92028      1681.9328      2343.7912      3386.3283     -1005.6268      140.97002      1.0930952      54105.732    
  15420000   351.46749      4018.3523     -969.6164       1746.3805      2322.0436      3300.9068     -963.16598      139.17535      1.0861574      54451.328    
  15440000   353.96132      4005.9222     -1026.397       1711.8703      2390.0507      3346.0457     -1000.1658      142.51057      1.0858783      54465.327    
  15460000   365.14428      4067.8049     -1040.1145      1748.0404      2398.9033      3363.1581     -987.89535      143.20021      1.0763991      54944.971    
  15480000   361.68244      4020.171      -988.26268      1716.245       2332.3801      3376.5138     -1003.8926      145.00263      1.0894359      54287.465    
  15500000   364.56188      4067.3367     -1075.0496      1723.353       2424.0689      3445.3517     -1026.9653      134.61966      1.0913527      54192.118    
  15520000   359.86551      4118.2718     -1064.7687      1706.201       2390.9594      3466.3894     -970.36703      146.98159      1.0968915      53918.472    
  15540000   357.85041      3950.1029     -1057.8587      1721.3881      2377.4958      3267.1668     -950.54854      149.68224      1.101309       53702.201    
  15560000   364.74016      3902.0304     -1017.8828      1706.1685      2354.8689      3240.8165     -962.2955       138.20428      1.1055236      53497.472    
  15580000   365.83554      3952.9211     -1051.4816      1738.432       2359.3022      3371.4875     -1046.6171      139.87457      1.0888985      54314.259    
  15600000   360.7338       4083.4319     -963.58523      1739.0629      2413.94        3341.1157     -1026.2933      136.10639      1.0819391      54663.627    
  15600104   363.94026      4142.6679     -995.49871      1730.7851      2422.6864      3386.9035     -983.19582      138.1924       1.0788876      54818.239    
Loop time of 3781 on 24 procs for 1200000 steps with 5001 atoms

Performance: 6.855 ns/day, 3.501 hours/ns, 317.377 timesteps/s, 1.587 Matom-step/s
99.5% CPU use with 24 MPI tasks x no OpenMP threads

MPI task timing breakdown:
Section |  min time  |  avg time  |  max time  |%varavg| %total
---------------------------------------------------------------
Pair    | 1883.3     | 2113.7     | 2415.6     | 309.6 | 55.90
Bond    | 513.39     | 604.63     | 678.59     | 171.3 | 15.99
Kspace  | 483.88     | 858.76     | 1129.9     | 574.4 | 22.71
Neigh   | 30.169     | 30.192     | 30.223     |   0.3 |  0.80
Comm    | 125.28     | 127.51     | 130.27     |  11.7 |  3.37
Output  | 0.0029469  | 0.0033956  | 0.013122   |   3.5 |  0.00
Modify  | 32.016     | 33.712     | 35.137     |  15.5 |  0.89
Other   |            | 12.47      |            |       |  0.33

Nlocal:        208.375 ave         228 max         189 min
Histogram: 2 0 3 2 6 3 3 3 1 1
Nghost:        4616.21 ave        4641 max        4565 min
Histogram: 1 0 0 1 2 2 8 5 1 4
Neighs:        68924.6 ave       77283 max       58940 min
Histogram: 3 1 0 5 1 2 6 0 3 3

Total # of neighbors = 1654190
Ave neighs/atom = 330.77185
Ave special neighs/atom = 5.6904619
Neighbor list builds = 10576
Dangerous builds = 0
unfix           fNPT
unfix           fMOM
next            a
jump            SELF loop
variable        a loop 26
variable        b equal 600-20*($a-1)
variable        b equal 600-20*(14-1)
fix             fMOM all momentum 100 linear 1 1 1 angular
fix             fNPT all npt temp $b $b $(100.0*dt) iso 1 1 $(100.0*dt)
fix             fNPT all npt temp 340 $b $(100.0*dt) iso 1 1 $(100.0*dt)
fix             fNPT all npt temp 340 340 $(100.0*dt) iso 1 1 $(100.0*dt)
fix             fNPT all npt temp 340 340 25 iso 1 1 $(100.0*dt)
fix             fNPT all npt temp 340 340 25 iso 1 1 25
run             1200000
PPPM initialization ...
  using 12-bit tables for long-range coulomb (../kspace.cpp:342)
  G vector (1/distance) = 0.11648259
  grid = 4 4 4
  stencil order = 5
  estimated absolute RMS force accuracy = 0.32971131
  estimated relative force accuracy = 0.00099291582
  using double precision KISS FFT
  3d grid and FFT values/proc = 294 4
Generated 36 of 36 mixed pair_coeff terms from sixthpower/sixthpower mixing rule
WARNING: Inconsistent image flags (../domain.cpp:815)
Per MPI rank memory allocation (min/avg/max) = 15.03 | 15.05 | 15.24 Mbytes
   Step          Temp          PotEng         E_vdwl         E_coul         E_bond        E_angle        E_dihed        E_impro        Density         Volume    
  15600104   363.94026      4142.4986     -995.49871      1729.3027      2422.6864      3386.9035     -983.19582      138.1924       1.0788876      54818.239    
  15620000   338.41905      3653.1208     -1029.6027      1685.8669      2193.96        3233.5532     -1012.8294      138.25304      1.0880673      54355.749    
  15640000   336.60439      3808.6275     -1008.5582      1708.3806      2278.836       3276.5115     -1036.6033      146.72098      1.0954017      53991.805    
  15660000   338.57983      3734.127      -1002.6368      1682.0804      2256.2429      3272.7427     -1055.323       137.22484      1.0890675      54305.832    
  15680000   337.71084      3728.1602     -1011.8515      1718.3532      2204.5096      3288.4258     -1048.5063      133.83349      1.0870251      54407.863    
  15700000   339.51469      3790.1701     -1069.0554      1700.9677      2288.951       3264.6928     -975.58477      136.43594      1.0939947      54061.243    
  15720000   341.83018      3761.4332     -1032.97        1710.3034      2304.4052      3270.5985     -1074.1562      139.4674       1.0979265      53867.645    
  15740000   341.46045      3656.7962     -1110.7638      1665.7401      2337.2683      3223.8561     -1036.4722      133.345        1.105068       53519.524    
  15760000   338.28154      3732.7749     -1138.8819      1721.5189      2264.2003      3345.1332     -1041.0796      138.43933      1.1011457      53710.162    
  15780000   342.40897      3721.1479     -1023.1486      1715.0006      2276.762       3302.2163     -1134.9202      140.70713      1.0979754      53865.246    
  15800000   344.81642      3632.1843     -1122.257       1710.9452      2229.5718      3319.3854     -1085.7619      135.91875      1.1000227      53764.996    
  15820000   339.93429      3735.9788     -1009.2957      1719.5436      2296.6475      3231.7543     -1079.9439      132.52911      1.0951351      54004.949    
  15840000   340.33397      3670.2822     -1088.337       1697.7398      2261.4513      3314.6421     -1091.2882      132.37956      1.1075611      53399.056    
  15860000   337.7657       3659.4353     -1092.1129      1691.871       2208.8384      3220.4367     -959.32763      146.22429      1.0964241      53941.458    
  15880000   343.1036       3791.8047     -1076.6877      1722.9479      2323.9545      3295.0119     -1054.6712      137.73352      1.0931874      54101.166    
  15900000   346.10283      3513.788      -1145.3362      1700.9016      2240.8728      3269.8181     -1122.6775      125.94159      1.1005209      53740.654    
  15920000   342.88924      3615.678      -1122.1955      1713.8879      2185.5546      3340.2827     -1079.3207      133.59342      1.096135       53955.688    
  15940000   340.82706      3672.8711     -1115.0914      1681.8265      2270.7895      3242.5669     -983.26951      132.32519      1.1113512      53216.945    
  15960000   344.71565      3667.5504     -1136.3656      1690.6655      2257.4779      3329.5997     -1052.8017      135.44956      1.1123558      53168.881    
  15980000   339.91819      3626.5172     -1092.6909      1712.2808      2303.1827      3207.2426     -1080.3976      132.61729      1.1019151      53672.659    
  16000000   333.64389      3654.4099     -1095.203       1682.2738      2330.22        3220.7149     -1076.4796      149.53902      1.1087227      53343.107    
  16020000   339.63528      3599.7674     -1114.6946      1692.6967      2229.8468      3261.7373     -1048.0622      134.68305      1.115095       53038.275    
  16040000   347.05621      3684.7995     -1124.0482      1710.6643      2291.3611      3196.3921     -970.96555      137.91358      1.1097449      53293.974    
  16060000   335.38079      3761.3923     -1068.1825      1706.0601      2280.3685      3236.4043     -975.71748      139.1689       1.1024644      53645.919    
  16080000   341.09283      3691.9121     -1057.5193      1723.2089      2234.9222      3315.7125     -1103.1332      135.11322      1.1071738      53417.734    
  16100000   343.23561      3763.6322     -1042.133       1721.0186      2268.4858      3283.8473     -1051.0775      140.42567      1.0961325      53955.81     
  16120000   338.43226      3740.2687     -1071.8339      1703.9311      2271.4316      3345.4085     -1085.2273      133.22423      1.1074249      53405.621    
  16140000   348.31397      3734.1154     -1064.4312      1711.3441      2293.1156      3211.3587     -1006.3547      145.26425      1.0936394      54078.807    
  16160000   342.43115      3616.2148     -1164.9642      1694.5754      2254.0189      3272.8481     -1023.9298      140.14009      1.1020952      53663.89     
  16180000   348.67254      3668.7093     -1075.6195      1725.7159      2233.5583      3218.0699     -1008.9148      132.19804      1.095896       53967.451    
  16200000   342.48974      3734.5552     -1093.6278      1719.8238      2313.7541      3289.603      -1059.5433      120.96641      1.0956058      53981.748    
  16220000   339.15716      3710.172      -1038.963       1718.8322      2247.2917      3262.6207     -1053.9763      130.73961      1.0975822      53884.544    
  16240000   336.91725      3628.1922     -1083.0789      1721.7438      2241.5566      3236.9715     -1067.6651      134.90364      1.1035104      53595.066    
  16260000   351.39904      3798.5422     -1112.972       1716.8899      2325.4327      3263.961      -978.0633       139.11115      1.0928046      54120.121    
  16280000   350.47884      3729.7707     -1081.1515      1716.9914      2213.7778      3285.7508     -991.02         141.82726      1.0994905      53791.019    
  16300000   339.25919      3708.6237     -1056.5863      1736.1243      2282.4705      3169.3689     -1019.4504      152.93299      1.1040319      53569.753    
  16320000   338.12884      3648.0221     -991.9734       1729.8627      2208.2167      3222.5531     -1099.1385      135.05881      1.0926609      54127.236    
  16340000   346.24205      3654.5574     -1115.6692      1722.4491      2271.5174      3259.2996     -1057.3285      130.72451      1.102216       53658.008    
  16360000   339.93122      3617.0731     -1033.6196      1737.5321      2233.164       3262.7631     -1155.7531      129.26039      1.0986993      53829.754    
  16380000   340.90963      3613.4734     -1040.6778      1720.5104      2287.5543      3165.0188     -1092.2983      130.17063      1.0978875      53869.557    
  16400000   340.19183      3753.6838     -1046.372       1745.3863      2260.0967      3235.2957     -1031.5466      147.32138      1.0975785      53884.725    
  16420000   340.90699      3736.8079     -1070.5459      1715.82        2252.3821      3331.5251     -1068.37        131.75246      1.0997664      53777.525    
  16440000   335.62045      3668.2385     -1073.8586      1722.8355      2259.1363      3266.5887     -1090.6265      140.70635      1.1047558      53534.652    
  16460000   341.95129      3707.5595     -1031.3975      1746.9092      2236.5067      3205.5165     -1039.7812      146.08488      1.0986894      53830.243    
  16480000   332.97711      3679.3457     -1027.5529      1711.8026      2274.5797      3168.2607     -1035.6584      143.69505      1.0942806      54047.121    
  16500000   337.2807       3598.7768     -1056.2004      1720.0472      2284.18        3171.4316     -1096.8993      132.62628      1.1025566      53641.435    
  16520000   342.79838      3710.4723     -1046.3379      1734.3345      2347.3101      3263.0884     -1165.0909      133.20593      1.0974305      53891.992    
  16540000   342.42736      3651.7474     -1125.0124      1726.8824      2299.7498      3226.4233     -1060.561       140.25772      1.1053717      53504.82     
  16560000   342.88381      3689.1875     -1063.988       1704.3545      2261.8105      3234.5531     -1024.5116      132.75038      1.0974829      53889.419    
  16580000   338.20601      3623.161      -1123.4145      1729.1298      2228.0369      3260.8932     -1059.6676      143.54075      1.1091781      53321.209    
  16600000   344.37262      3701.859      -1122.0695      1720.1651      2341.3608      3223.003      -1038.0215      133.39695      1.1081891      53368.795    
  16620000   340.08643      3690.305      -1084.5412      1717.1192      2262.4519      3324.2781     -1113.6496      140.94719      1.1132275      53127.251    
  16640000   349.16622      3714.229      -1095.4931      1758.3337      2256.7037      3267.7202     -1062.2112      145.30191      1.1071851      53417.186    
  16660000   342.50231      3743.7823     -1113.3697      1716.4195      2306.4626      3334.1095     -1075.9739      132.24432      1.0947601      54023.446    
  16680000   341.83179      3682.3216     -1081.5652      1754.238       2345.3965      3163.5601     -1085.7295      142.66638      1.0994158      53794.675    
  16700000   340.62558      3735.7471     -1076.0547      1736.8281      2292.1595      3248.8237     -1044.7993      134.74659      1.1023971      53649.196    
  16720000   337.08537      3691.0731     -1128.4999      1737.8843      2271.4423      3279.3926     -1048.7516      135.45297      1.1035908      53591.164    
  16740000   336.97423      3542.1331     -1169.3016      1697.0974      2283.4615      3330.5045     -1170.0491      126.53316      1.1048318      53530.968    
  16760000   339.25094      3606.7758     -1066.1289      1737.8706      2228.9131      3241.8863     -1109.9835      130.46833      1.1011213      53711.355    
  16780000   344.27635      3691.4754     -1055.3922      1726.9424      2250.9585      3234.1728     -1059.3624      149.89995      1.098564       53836.385    
  16800000   340.58887      3660.9773     -1088.9231      1720.3203      2276.7535      3248.9729     -1076.0165      135.73101      1.0921579      54152.166    
  16800104   338.24126      3676.5257     -1083.124       1730.6939      2272.9158      3203.775      -1028.8585      136.92343      1.0974273      53892.149    
Loop time of 3806.04 on 24 procs for 1200000 steps with 5001 atoms

Performance: 6.810 ns/day, 3.524 hours/ns, 315.288 timesteps/s, 1.577 Matom-step/s
99.5% CPU use with 24 MPI tasks x no OpenMP threads

MPI task timing breakdown:
Section |  min time  |  avg time  |  max time  |%varavg| %total
---------------------------------------------------------------
Pair    | 1861.8     | 2132       | 2430       | 325.0 | 56.02
Bond    | 532.55     | 603.86     | 685.36     | 176.2 | 15.87
Kspace  | 513.28     | 868.15     | 1197.1     | 601.9 | 22.81
Neigh   | 27.88      | 27.912     | 27.945     |   0.4 |  0.73
Comm    | 125.45     | 127.86     | 130.58     |  12.4 |  3.36
Output  | 0.0039218  | 0.0042479  | 0.011162   |   2.2 |  0.00
Modify  | 31.91      | 33.731     | 35.381     |  16.2 |  0.89
Other   |            | 12.52      |            |       |  0.33

Nlocal:        208.375 ave         228 max         188 min
Histogram: 1 3 1 3 2 6 2 3 1 2
Nghost:        4656.29 ave        4689 max        4611 min
Histogram: 1 1 1 3 2 3 5 5 1 2
Neighs:        69900.9 ave       78702 max       58548 min
Histogram: 1 1 2 2 3 4 4 3 2 2

Total # of neighbors = 1677622
Ave neighs/atom = 335.45731
Ave special neighs/atom = 5.6904619
Neighbor list builds = 9759
Dangerous builds = 0
unfix           fNPT
unfix           fMOM
next            a
jump            SELF loop
variable        a loop 26
variable        b equal 600-20*($a-1)
variable        b equal 600-20*(15-1)
fix             fMOM all momentum 100 linear 1 1 1 angular
fix             fNPT all npt temp $b $b $(100.0*dt) iso 1 1 $(100.0*dt)
fix             fNPT all npt temp 320 $b $(100.0*dt) iso 1 1 $(100.0*dt)
fix             fNPT all npt temp 320 320 $(100.0*dt) iso 1 1 $(100.0*dt)
fix             fNPT all npt temp 320 320 25 iso 1 1 $(100.0*dt)
fix             fNPT all npt temp 320 320 25 iso 1 1 25
run             1200000
PPPM initialization ...
  using 12-bit tables for long-range coulomb (../kspace.cpp:342)
  G vector (1/distance) = 0.1169628
  grid = 4 4 4
  stencil order = 5
  estimated absolute RMS force accuracy = 0.32882519
  estimated relative force accuracy = 0.00099024728
  using double precision KISS FFT
  3d grid and FFT values/proc = 294 4
Generated 36 of 36 mixed pair_coeff terms from sixthpower/sixthpower mixing rule
WARNING: Inconsistent image flags (../domain.cpp:815)
Per MPI rank memory allocation (min/avg/max) = 15.03 | 15.06 | 15.24 Mbytes
   Step          Temp          PotEng         E_vdwl         E_coul         E_bond        E_angle        E_dihed        E_impro        Density         Volume    
  16800104   338.24126      3677.3205     -1083.124       1737.8933      2272.9158      3203.775      -1028.8585      136.92343      1.0974273      53892.149    
  16820000   319.06449      3378.7839     -1143.3081      1735.0134      2169.0511      3158.0185     -1103.7429      125.99594      1.1044717      53548.42     
  16840000   311.93978      3349.467      -1111.8856      1742.528       2113.3966      3141.1004     -1097.4909      123.77989      1.1033114      53604.735    
  16860000   323.78333      3335.3923     -1137.3245      1749.745       2127.6452      3182.6839     -1157.951       132.57137      1.1156915      53009.918    
  16880000   322.13617      3397.7123     -1124.6218      1734.0036      2171.577       3217.6419     -1161.1999      123.4331       1.0967137      53927.213    
  16900000   322.7579       3401.6503     -1090.018       1723.3131      2187.2625      3184.1293     -1166.6137      126.45787      1.1109012      53238.501    
  16920000   317.88832      3311.1188     -1117.9109      1733.348       2159.3669      3108.9449     -1136.681       127.23008      1.1106759      53249.303    
  16940000   323.742        3402.9619     -1134.0117      1758.2503      2193.8987      3157.6977     -1132.6857      122.59333      1.1161854      52986.463    
  16960000   319.17903      3449.8047     -1104.4003      1747.7245      2175.1742      3149.7223     -1084.2236      128.4975       1.101865       53675.102    
  16980000   323.7649       3400.4719     -1080.1281      1716.5733      2188.5507      3120.9922     -1108.4884      125.81813      1.1139131      53094.552    
  17000000   314.9452       3410.1605     -1102.318       1731.6008      2189.2493      3171.8754     -1149.4271      131.88467      1.1066259      53444.179    
  17020000   321.52332      3369.2122     -1122.3108      1736.2188      2115.776       3185.9046     -1104.4989      121.13117      1.1098125      53290.728    
  17040000   316.89647      3360.9322     -1165.8228      1709.754       2148.7588      3170.5413     -1063.2156      123.89598      1.1092586      53317.339    
  17060000   318.65973      3299.7059     -1180.942       1725.808       2224.5532      3103.816      -1138.2526      127.86681      1.1119795      53186.875    
  17080000   315.08457      3241.4772     -1175.2025      1717.9684      2108.1335      3109.4584     -1089.0027      132.18937      1.110689       53248.674    
  17100000   311.50987      3349.9142     -1114.578       1737.6251      2146.4849      3093.197      -1083.2605      132.98995      1.1116139      53204.367    
  17120000   317.88238      3402.8082     -1147.5642      1748.3877      2199.7256      3103.4157     -1069.6871      131.04251      1.1155872      53014.872    
  17140000   320.52491      3278.9668     -1161.0066      1707.648       2126.258       3155.0078     -1106.3753      120.0167       1.1080053      53377.646    
  17160000   317.3754       3272.3721     -1195.2628      1710.3513      2137.8584      3153.6527     -1102.4033      130.89516      1.1090069      53329.436    
  17180000   326.04093      3385.8292     -1143.6451      1710.6895      2196.5038      3179.5853     -1123.844       128.78177      1.1150473      53040.545    
  17200000   323.21628      3291.9605     -1135.5824      1735.7255      2113.8663      3131.883      -1115.6634      124.67416      1.1168011      52957.249    
  17220000   313.93441      3301.466      -1141.1078      1699.2019      2201.2623      3134.8619     -1158.9242      128.88028      1.1044953      53547.276    
  17240000   321.5155       3387.4924     -1172.1693      1746.3983      2152.1361      3166.9836     -1073.6345      130.14154      1.1153216      53027.497    
  17260000   318.81924      3396.8946     -1120.5902      1720.4499      2241.3372      3117.7825     -1130.1448      131.15841      1.107145       53419.122    
  17280000   322.09099      3397.857      -1157.2765      1761.8615      2210.5945      3148.3752     -1129.4611      126.72684      1.1090415      53327.776    
  17300000   324.66337      3308.707      -1127.3617      1740.0169      2125.345       3084.789      -1085.3845      133.97431      1.1122667      53173.141    
  17320000   315.22833      3301.5706     -1141.4088      1727.3555      2155.9702      3082.3038     -1091.9145      131.93478      1.1150181      53041.931    
  17340000   317.87949      3431.5641     -1133.9237      1713.0896      2254.811       3158.859      -1132.6053      133.84081      1.1181067      52895.414    
  17360000   320.53853      3415.9355     -1143.5426      1723.2604      2147.3951      3211.7006     -1093.2101      133.11006      1.1094501      53308.133    
  17380000   321.20367      3240.8684     -1174.2497      1743.059       2113.29        3118.619      -1116.3149      119.37883      1.1179852      52901.159    
  17400000   322.00727      3337.5086     -1096.558       1718.3495      2131.4964      3091.5103     -1084.2942      140.25405      1.1064398      53453.172    
  17420000   324.66164      3291.8033     -1097.2515      1717.1085      2167.3749      3028.8341     -1089.7943      128.14179      1.1067262      53439.336    
  17440000   315.21327      3401.9311     -1147.4599      1740.9144      2126.9642      3170.0566     -1056.5666      130.84011      1.1051561      53515.258    
  17460000   319.7175       3324.4325     -1071.1771      1734.7238      2088.7312      3111.4729     -1108.4812      132.35153      1.0967366      53926.088    
  17480000   321.81607      3445.5891     -1101.0011      1734.5556      2158.7087      3133.0533     -1061.8068      144.86916      1.106423       53453.98     
  17500000   323.34934      3385.1338     -1088.0328      1728.2968      2101.1581      3146.3748     -1068.8773      129.4621       1.1043054      53556.486    
  17520000   325.32387      3359.276      -1068.0221      1711.2419      2115.3418      3158.4458     -1123.2772      128.31165      1.1069033      53430.788    
  17540000   325.85945      3358.5724     -1108.9981      1696.8804      2152.8735      3143.4709     -1089.5697      127.13534      1.1041552      53563.769    
  17560000   319.87941      3319.6336     -1107.4586      1717.8327      2122.9525      3142.8451     -1117.209       123.46904      1.103668       53587.416    
  17580000   319.07388      3357.6143     -1090.8101      1754.2353      2130.2211      3103.3278     -1106.7988      130.23738      1.1017457      53680.915    
  17600000   319.19116      3256.0598     -1114.2291      1726.7583      2157.8136      3057.2272     -1136.4797      127.72757      1.110503       53257.591    
  17620000   316.55025      3425.7249     -1108.5883      1731.0784      2179.8433      3172.6482     -1120.497       133.85496      1.1055919      53494.166    
  17640000   314.49788      3337.6573     -1191.3112      1723.4709      2125.8664      3170.7556     -1063.774       135.74842      1.1084301      53357.189    
  17660000   324.74374      3391.3243     -1187.2979      1755.6798      2173.3887      3191.1342     -1111.9671      132.88872      1.1084807      53354.752    
  17680000   323.45976      3311.8477     -1133.8902      1719.0581      2219.1566      3088.7807     -1147.244       128.41359      1.1065346      53448.589    
  17700000   312.09141      3389.2295     -1129.6832      1748.3442      2185.2881      3162.6153     -1145.9418      130.94239      1.1107995      53243.376    
  17720000   319.51002      3337.1437     -1196.3942      1733.9093      2185.9829      3151.9427     -1104.6945      129.27296      1.1148809      53048.462    
  17740000   319.06652      3375.5733     -1097.9354      1716.754       2182.0095      3087.1731     -1085.6846      135.58959      1.1084942      53354.105    
  17760000   318.38604      3264.673      -1175.0919      1739.1098      2141.1094      3116.9896     -1121.5691      126.8123       1.1157754      53005.933    
  17780000   317.28961      3326.9711     -1070.715       1737.8374      2174.3206      3100.1576     -1175.0814      122.94109      1.1038891      53576.682    
  17800000   322.26187      3368.6709     -1139.3672      1741.8984      2170.273       3136.5623     -1105.2404      127.3696       1.1129685      53139.614    
  17820000   315.88763      3329.7705     -1149.548       1719.7739      2191.5289      3127.2407     -1122.9714      126.78835      1.1124255      53165.551    
  17840000   320.71569      3376.2235     -1091.8675      1738.2715      2209.6328      3091.6781     -1141.7612      133.60845      1.1115612      53206.892    
  17860000   319.39922      3342.6584     -1133.0371      1694.5753      2153.2582      3163.6736     -1105.4971      132.19909      1.101902       53673.298    
  17880000   322.51469      3314.0089     -1166.5734      1751.3393      2132.7813      3076.4166     -1047.5959      130.56471      1.1157547      53006.915    
  17900000   327.00309      3281.9136     -1108.5032      1707.5018      2184.9333      3083.9821     -1157.7815      134.60161      1.1127582      53149.654    
  17920000   322.61352      3288.3414     -1131.25        1720.0385      2172.6984      3144.0226     -1183.0577      128.73256      1.1141782      53081.915    
  17940000   321.24816      3248.4978     -1154.9557      1707.3486      2191.8692      3109.8744     -1172.428       129.73409      1.1207042      52772.814    
  17960000   313.84548      3236.1492     -1174.5059      1724.7198      2136.2849      3211.2292     -1229.8314      131.41869      1.1097416      53294.133    
  17980000   316.87004      3244.9693     -1148.7153      1720.9116      2127.4408      3094.8992     -1121.1681      134.77698      1.1043765      53553.039    
  18000000   314.6439       3394.6128     -1164.1224      1724.8358      2270.0583      3111.3052     -1106.4555      121.93538      1.1048667      53529.275    
  18000104   318.0305       3313.6942     -1116.3379      1736.5194      2170.9523      3084.9189     -1124.5796      125.22641      1.1093315      53313.835    
Loop time of 3831.75 on 24 procs for 1200000 steps with 5001 atoms

Performance: 6.765 ns/day, 3.548 hours/ns, 313.173 timesteps/s, 1.566 Matom-step/s
99.5% CPU use with 24 MPI tasks x no OpenMP threads

MPI task timing breakdown:
Section |  min time  |  avg time  |  max time  |%varavg| %total
---------------------------------------------------------------
Pair    | 1869.2     | 2144.9     | 2445       | 355.4 | 55.98
Bond    | 510.54     | 603.22     | 690.51     | 170.9 | 15.74
Kspace  | 514.51     | 882.59     | 1219.8     | 638.9 | 23.03
Neigh   | 26.106     | 26.149     | 26.179     |   0.4 |  0.68
Comm    | 125.95     | 128.17     | 131.24     |  13.1 |  3.35
Output  | 0.0029389  | 0.0034552  | 0.014673   |   4.0 |  0.00
Modify  | 32.241     | 34.116     | 35.398     |  16.2 |  0.89
Other   |            | 12.65      |            |       |  0.33

Nlocal:        208.375 ave         237 max         182 min
Histogram: 1 0 2 3 8 5 2 2 0 1
Nghost:        4702.46 ave        4749 max        4660 min
Histogram: 2 3 1 5 1 5 2 2 1 2
Neighs:        70767.4 ave       81470 max       61684 min
Histogram: 3 1 4 2 3 2 3 4 1 1

Total # of neighbors = 1698418
Ave neighs/atom = 339.61568
Ave special neighs/atom = 5.6904619
Neighbor list builds = 9153
Dangerous builds = 0
unfix           fNPT
unfix           fMOM
next            a
jump            SELF loop
variable        a loop 26
variable        b equal 600-20*($a-1)
variable        b equal 600-20*(16-1)
fix             fMOM all momentum 100 linear 1 1 1 angular
fix             fNPT all npt temp $b $b $(100.0*dt) iso 1 1 $(100.0*dt)
fix             fNPT all npt temp 300 $b $(100.0*dt) iso 1 1 $(100.0*dt)
fix             fNPT all npt temp 300 300 $(100.0*dt) iso 1 1 $(100.0*dt)
fix             fNPT all npt temp 300 300 25 iso 1 1 $(100.0*dt)
fix             fNPT all npt temp 300 300 25 iso 1 1 25
run             1200000
PPPM initialization ...
  using 12-bit tables for long-range coulomb (../kspace.cpp:342)
  G vector (1/distance) = 0.11726741
  grid = 4 4 4
  stencil order = 5
  estimated absolute RMS force accuracy = 0.3282534
  estimated relative force accuracy = 0.00098852535
  using double precision KISS FFT
  3d grid and FFT values/proc = 294 4
Generated 36 of 36 mixed pair_coeff terms from sixthpower/sixthpower mixing rule
WARNING: Inconsistent image flags (../domain.cpp:815)
Per MPI rank memory allocation (min/avg/max) = 15.03 | 15.06 | 15.24 Mbytes
   Step          Temp          PotEng         E_vdwl         E_coul         E_bond        E_angle        E_dihed        E_impro        Density         Volume    
  18000104   318.0305       3314.1678     -1116.3379      1741.0585      2170.9523      3084.9189     -1124.5796      125.22641      1.1093315      53313.835    
  18020000   302.98587      2979.9772     -1162.1086      1713.6661      2034.2969      2963.2218     -1125.4398      123.66761      1.1110781      53230.024    
  18040000   303.14365      2938.8803     -1178.0013      1700.4294      1968.7027      3074.7551     -1185.4634      125.49127      1.1132435      53126.485    
  18060000   294.15417      3037.4885     -1153.6362      1719.7158      2086.7446      3018.284      -1196.0245      129.15478      1.1200552      52803.392    
  18080000   302.82406      3077.7778     -1179.8909      1745.2763      2086.9824      3077.7537     -1209.5824      124.49829      1.1198274      52814.133    
  18100000   301.4176       2960.6912     -1166.9312      1724.9143      1988.3725      3076.5604     -1218.1933      122.8843       1.1178241      52908.784    
  18120000   302.62306      3075.314      -1184.7884      1735.3762      2051.5066      3057.4271     -1146.5305      129.27253      1.1160977      52990.627    
  18140000   308.68203      3018.0303     -1181.9239      1714.5337      2021.1947      3059.9665     -1146.4908      117.68591      1.1168906      52953.006    
  18160000   301.47321      2963.4062     -1196.9527      1733.2741      2017.8584      3044.805      -1193.7903      125.02428      1.1159547      52997.416    
  18180000   298.65409      2978.4132     -1266.4929      1742.422       2107.3619      2999.7316     -1165.8219      127.97554      1.1202727      52793.141    
  18200000   297.02909      3001.3068     -1218.8845      1735.3007      2042.1648      3028.9203     -1141.2572      122.02108      1.1202494      52794.24     
  18220000   299.14773      2999.1007     -1176.6642      1728.152       2059.5365      3043.5407     -1214.6742      126.07783      1.1130136      53137.462    
  18240000   297.59809      2957.104      -1198.8867      1740.4748      1985.9566      3020.2232     -1142.4289      118.94381      1.1224389      52691.255    
  18260000   305.03634      3024.0613     -1214.0025      1716.1558      2130.6569      3097.2856     -1252.8634      114.22094      1.1248028      52580.521    
  18280000   301.54744      3013.9087     -1191.1624      1743.8099      2084.8682      2986.307      -1163.8094      121.31997      1.1121427      53179.072    
  18300000   299.03984      2950.8851     -1220.739       1752.2492      2018.4286      3032.0697     -1184.4808      120.32086      1.1096227      53299.844    
  18320000   299.71177      3049.2328     -1270.6147      1725.0246      2051.1958      3129.0678     -1149.3632      131.04894      1.1181911      52891.42     
  18340000   302.27985      3029.3623     -1169.2658      1743.3817      2001.6501      3124.6122     -1229.1766      125.13712      1.1038077      53580.635    
  18360000   293.80519      3067.1258     -1190.9279      1725.8604      2083.5242      3065.171      -1172.5345      123.29587      1.1137554      53102.068    
  18380000   299.72696      3079.1217     -1176.9139      1718.6671      2058.8948      3116.999      -1194.8793      123.70321      1.1146372      53060.058    
  18400000   300.85708      3024.2782     -1212.1068      1736.6027      2018.3064      3073.7367     -1145.2637      119.92178      1.1114983      53209.904    
  18420000   298.76243      3004.9599     -1179.7747      1757.3345      2014.3055      3044.0946     -1190.5495      126.68905      1.109036       53328.038    
  18440000   301.89752      2972.4015     -1163.4949      1743.0177      2032.5556      3045.5511     -1237.3414      119.27484      1.1146309      53060.359    
  18460000   297.64021      3001.4915     -1220.388       1730.8687      2059.34        3066.4307     -1186.8229      119.05258      1.1142136      53080.232    
  18480000   294.50304      2963.5276     -1221.0797      1694.5499      1997.4325      3065.2715     -1131.7399      126.16897      1.1214932      52735.687    
  18500000   299.05394      3035.4771     -1134.3452      1738.7312      2020.8247      2995.803      -1143.4868      125.10596      1.1163465      52978.817    
  18520000   292.39158      2963.071      -1166.6457      1704.551       2065.4653      3031.3412     -1225.653       120.96822      1.1151887      53033.819    
  18540000   306.40772      3079.4539     -1188.4118      1717.6047      2115.4535      3087.3026     -1208.6467      123.40803      1.1240267      52616.826    
  18560000   296.21204      2937.6472     -1142.4147      1716.1674      1998.2911      3045.0438     -1232.4809      120.41672      1.1096087      53300.517    
  18580000   295.84761      2930.4455     -1221.7737      1707.2081      2016.2252      3033.5391     -1161.643       123.94051      1.1254002      52552.606    
  18600000   296.54824      2962.5838     -1186.7421      1743.8499      2015.7225      3039.9423     -1203.0296      120.35834      1.1181061      52895.443    
  18620000   306.83093      2915.2849     -1228.4482      1721.8513      2034.7373      3024.7857     -1198.5759      127.82221      1.1195127      52828.982    
  18640000   300.39711      3078.1863     -1226.2852      1730.9984      2116.9062      3113.0523     -1203.0284      113.78177      1.1163645      52977.96     
  18660000   300.52046      2925.4958     -1212.7451      1710.0024      2021.45        3052.8827     -1202.1882      123.0843       1.1199038      52810.534    
  18680000   295.49155      3063.6443     -1140.4         1718.7713      2068.209       3094.3502     -1227.2376      116.88188      1.1213284      52743.438    
  18700000   304.26475      2930.641      -1160.0488      1710.3956      2061.1185      3040.4481     -1275.9943      122.04892      1.116544       52969.442    
  18720000   300.33669      2950.1962     -1181.5214      1696.3913      2025.3161      3039.2514     -1189.8323      127.20221      1.1238993      52622.786    
  18740000   297.83496      2980.5494     -1206.4106      1722.3397      2059.5362      3058.0327     -1206.0539      120.11914      1.1256476      52541.057    
  18760000   303.33658      2928.2201     -1173.9179      1709.7605      2055.7585      3007.4058     -1212.8897      108.93315      1.113871       53096.558    
  18780000   298.65353      3057.8721     -1100.9807      1727.6159      2138.6244      3011.1259     -1275.6762      124.11837      1.1084907      53354.273    
  18800000   299.32665      3028.1636     -1189.2573      1724.2912      2081.0303      3075.575      -1221.9673      125.22839      1.1231604      52657.405    
  18820000   301.96219      3062.686      -1118.8866      1717.9364      2076.207       3017.7402     -1183.1934      119.46059      1.1071674      53418.042    
  18840000   297.51879      3025.9364     -1161.8721      1702.3152      2061.7555      3033.7139     -1170.3267      127.05075      1.1211493      52751.863    
  18860000   298.05909      2998.2795     -1150.6745      1718.1843      1977.9408      3111.4613     -1217.976       126.57729      1.1113738      53215.86     
  18880000   291.20067      3117.389      -1165.0019      1738.042       2068.3748      3096.9371     -1171.3895      117.5517       1.1194991      52829.623    
  18900000   304.36395      3073.1726     -1180.7524      1727.6423      2116.1708      3077.5902     -1223.606       123.1995       1.1172046      52938.125    
  18920000   294.57147      2954.3542     -1219.2319      1727.1866      2014.0285      3031.8529     -1147.3425      115.16523      1.1164396      52974.399    
  18940000   300.10704      3034.8051     -1160.2299      1736.7372      2067.4634      3037.3298     -1198.4876      119.11536      1.1143579      53073.359    
  18960000   299.70028      2995.468      -1184.2946      1733.4367      2108.7197      2981.3513     -1188.349       111.42269      1.1193912      52834.716    
  18980000   303.13527      2996.7274     -1227.9725      1697.7547      2067.6897      3077.2861     -1168.7056      117.59074      1.1300758      52335.173    
  19000000   303.28431      2995.3659     -1165.9657      1733.6615      2046.838       3053.7983     -1222.0065      115.6413       1.1184021      52881.444    
  19020000   306.87109      2986.9643     -1224.2645      1733.5745      1990.0286      3092.9124     -1160.1063      121.72495      1.1268715      52483.992    
  19040000   301.82932      2997.0279     -1178.1501      1723.1034      2066.7835      3017.9123     -1186.0021      120.34414      1.1159085      52999.609    
  19060000   297.32847      2950.8049     -1234.2421      1710.9774      2016.2378      3052.4285     -1151.5313      124.23856      1.1206197      52776.794    
  19080000   301.57045      2969.1064     -1214.0419      1738.4086      1997.9401      3044.3894     -1154.8228      124.35972      1.1236889      52632.643    
  19100000   301.73834      3004.7009     -1147.8749      1719.6478      2054.8686      3021.2742     -1191.124       114.6412       1.1218556      52718.652    
  19120000   306.27887      2902.9125     -1173.4895      1708.8321      2007.016       2990.2697     -1187.4255      124.75384      1.1185194      52875.896    
  19140000   297.8178       2965.2788     -1128.9425      1734.5571      2021.8399      3005.9866     -1225.4997      124.269        1.1234403      52644.29     
  19160000   294.22557      3036.2201     -1132.7072      1736.4251      2069.4728      3027.0545     -1221.3332      124.17384      1.1160985      52990.586    
  19180000   303.33105      2979.3258     -1175.382       1732.9431      1989.8316      3017.8662     -1143.9628      124.49163      1.1199893      52806.501    
  19200000   300.69682      3066.0309     -1202.7062      1724.782       2151.2124      3036.9887     -1205.6767      128.7876       1.1139038      53094.991    
  19200104   301.10162      3068.5402     -1179.1124      1719.062       2059.8842      3065.7011     -1152.1764      122.369        1.1146835      53057.855    
Loop time of 3841.1 on 24 procs for 1200000 steps with 5001 atoms

Performance: 6.748 ns/day, 3.557 hours/ns, 312.410 timesteps/s, 1.562 Matom-step/s
99.5% CPU use with 24 MPI tasks x no OpenMP threads

MPI task timing breakdown:
Section |  min time  |  avg time  |  max time  |%varavg| %total
---------------------------------------------------------------
Pair    | 1807.1     | 2160       | 2482.7     | 343.3 | 56.23
Bond    | 498.01     | 602.64     | 693.08     | 192.0 | 15.69
Kspace  | 491.24     | 880.28     | 1318.6     | 639.2 | 22.92
Neigh   | 23.831     | 23.875     | 23.908     |   0.4 |  0.62
Comm    | 126.3      | 128.14     | 131.53     |  13.4 |  3.34
Output  | 0.0045041  | 0.0048902  | 0.013126   |   2.5 |  0.00
Modify  | 31.544     | 33.646     | 35.087     |  17.5 |  0.88
Other   |            | 12.5       |            |       |  0.33

Nlocal:        208.375 ave         231 max         184 min
Histogram: 1 3 2 0 2 9 0 4 1 2
Nghost:        4714.62 ave        4743 max        4675 min
Histogram: 2 1 2 3 0 3 2 4 2 5
Neighs:          70858 ave       83517 max       58245 min
Histogram: 1 1 2 5 3 4 3 3 1 1

Total # of neighbors = 1700593
Ave neighs/atom = 340.05059
Ave special neighs/atom = 5.6904619
Neighbor list builds = 8389
Dangerous builds = 0
unfix           fNPT
unfix           fMOM
next            a
jump            SELF loop
variable        a loop 26
variable        b equal 600-20*($a-1)
variable        b equal 600-20*(17-1)
fix             fMOM all momentum 100 linear 1 1 1 angular
fix             fNPT all npt temp $b $b $(100.0*dt) iso 1 1 $(100.0*dt)
fix             fNPT all npt temp 280 $b $(100.0*dt) iso 1 1 $(100.0*dt)
fix             fNPT all npt temp 280 280 $(100.0*dt) iso 1 1 $(100.0*dt)
fix             fNPT all npt temp 280 280 25 iso 1 1 $(100.0*dt)
fix             fNPT all npt temp 280 280 25 iso 1 1 25
run             1200000
PPPM initialization ...
  using 12-bit tables for long-range coulomb (../kspace.cpp:342)
  G vector (1/distance) = 0.11740343
  grid = 4 4 4
  stencil order = 5
  estimated absolute RMS force accuracy = 0.32799566
  estimated relative force accuracy = 0.00098774919
  using double precision KISS FFT
  3d grid and FFT values/proc = 294 4
Generated 36 of 36 mixed pair_coeff terms from sixthpower/sixthpower mixing rule
WARNING: Inconsistent image flags (../domain.cpp:815)
Per MPI rank memory allocation (min/avg/max) = 15.03 | 15.06 | 15.24 Mbytes
   Step          Temp          PotEng         E_vdwl         E_coul         E_bond        E_angle        E_dihed        E_impro        Density         Volume    
  19200104   301.10162      3068.7702     -1179.1124      1721.1073      2059.8842      3065.7011     -1152.1764      122.369        1.1146835      53057.855    
  19220000   278.8852       2724.9007     -1187.1019      1714.7796      1995.5226      2926.2723     -1270.0475      114.28891      1.1221297      52705.775    
  19240000   279.9237       2719.196      -1204.563       1708.34        1877.704       2997.5145     -1204.3629      113.06357      1.1277472      52443.238    
  19260000   278.31094      2660.7076     -1180.1672      1695.5232      1953.8026      2911.4127     -1260.3274      109.35065      1.1223652      52694.716    
  19280000   279.34898      2620.2204     -1201.5338      1723.8209      1963.9884      2894.0676     -1300.4956      109.19716      1.1251243      52565.496    
  19300000   275.96881      2694.4749     -1192.2068      1731.8067      1992.4863      2889.9551     -1272.4986      114.12313      1.1230051      52664.688    
  19320000   287.93614      2662.0859     -1203.8729      1715.7791      1919.2182      2920.2636     -1236.8781      116.34397      1.1233723      52647.477    
  19340000   272.99205      2637.3524     -1218.3158      1730.9181      1908.8465      2868.6031     -1194.6916      110.46695      1.1274109      52458.883    
  19360000   280.26711      2682.6052     -1188.8578      1713.1584      1940.7799      2907.5334     -1233.8817      112.79593      1.1230616      52662.038    
  19380000   281.02672      2739.7808     -1188.4125      1717.315       1943.3753      2947.572      -1236.169       124.67244      1.1189529      52855.41     
  19400000   277.10562      2693.057      -1234.0469      1717.7682      1898.3691      3027.9897     -1250.9073      102.33009      1.1200675      52802.813    
  19420000   283.84121      2716.3057     -1204.7959      1704.9565      1913.2995      3038.646      -1284.2333      116.90213      1.1199114      52810.172    
  19440000   275.03185      2652.7039     -1212.026       1710.974       1956.1666      2889.2185     -1233.6837      110.48929      1.1237499      52629.786    
  19460000   275.25795      2662.1225     -1181.9915      1723.7595      1949.9465      2877.177      -1252.5466      114.30906      1.1248241      52579.522    
  19480000   276.8178       2643.6383     -1216.8055      1722.6078      1864.8051      2925.1824     -1207.6812      124.32782      1.1268582      52484.61     
  19500000   282.22363      2592.137      -1271.9695      1709.7923      1843.8381      2962.1565     -1199.6184      117.26858      1.1269537      52480.165    
  19520000   281.77633      2658.0252     -1239.2679      1716.1548      1910.2023      2925.2666     -1197.3374      111.91235      1.1331418      52193.57     
  19540000   282.81733      2748.4971     -1174.9051      1718.1112      1934.3177      2943.6479     -1217.2018      113.41373      1.1128707      53144.283    
  19560000   278.80849      2690.707      -1231.0581      1730.0647      1937.6426      2914.3738     -1208.8366      117.36027      1.1222901      52698.244    
  19580000   280.30898      2696.6573     -1218.6547      1716.1275      1955.3107      2913.7684     -1219.0916      118.01137      1.1270661      52474.928    
  19600000   278.7493       2640.4133     -1190.2509      1705.873       1911.8309      2922.9992     -1254.5591      113.36634      1.1250489      52569.016    
  19620000   278.34515      2683.408      -1215.6502      1712.1774      1899.6541      2953.3235     -1208.2688      111.01405      1.1213892      52740.58     
  19640000   278.3171       2684.4433     -1203.5698      1731.2708      1892.0508      2882.7793     -1162.6194      113.46649      1.1171042      52942.88     
  19660000   279.76426      2654.9707     -1242.6388      1703.1757      1960.3017      2951.2618     -1266.6167      118.68745      1.1234002      52646.166    
  19680000   276.43779      2692.5076     -1181.5464      1714.9049      1947.3651      2934.9224     -1258.4348      104.38731      1.1247736      52581.885    
  19700000   279.43848      2671.1099     -1190.98        1721.6857      1924.803       2896.2955     -1230.5016      119.09353      1.1261992      52515.325    
  19720000   280.1381       2592.8591     -1191.5816      1732.6735      1896.6595      2907.9169     -1299.9142      115.76373      1.1242099      52608.251    
  19740000   276.88966      2698.0002     -1229.8821      1758.8917      1883.2271      3007.1458     -1270.1329      117.34697      1.1235878      52637.377    
  19760000   276.67817      2725.6649     -1188.5232      1741.0398      1977.144       2932.1474     -1281.2028      114.05308      1.1174943      52924.399    
  19780000   279.12577      2678.1943     -1162.5999      1724.7751      1991.678       2861.2932     -1282.5182      114.24423      1.1104697      53259.186    
  19800000   280.06857      2697.8515     -1252.7135      1736.7576      1924.4091      2928.1843     -1190.9888      121.05275      1.1233199      52649.931    
  19820000   277.69993      2710.4575     -1224.9375      1735.7577      1879.381       3008.6482     -1235.0812      115.51038      1.1274579      52456.697    
  19840000   281.08968      2687.9964     -1207.0694      1729.9581      1961.777       2935.28       -1273.0086      109.74255      1.1253195      52556.378    
  19860000   275.99815      2759.1373     -1188.2566      1708.684       1963.2179      3002.7657     -1267.8085      109.35496      1.114883       53048.359    
  19880000   281.63951      2719.1947     -1184.2548      1689.7191      1943.6155      2988.0508     -1256.0644      107.05777      1.1243043      52603.831    
  19900000   277.67297      2640.5148     -1264.2514      1724.3231      1938.8428      2939.2988     -1241.0778      112.14487      1.1233372      52649.122    
  19920000   286.80263      2644.6799     -1234.3836      1709.1207      1896.821       2994.1134     -1257.6959      105.86689      1.1287559      52396.375    
  19940000   278.86624      2743.8702     -1161.7256      1739.0572      1934.9611      2998.376      -1322.57        124.5287       1.1149255      53046.336    
  19960000   277.35838      2601.753      -1216.4721      1721.8224      1962.6625      2870.1918     -1278.3454      110.99187      1.1260579      52521.912    
  19980000   276.48606      2686.8628     -1247.0214      1703.4408      1934.38        2985.527      -1238.3461      117.80451      1.1252063      52561.663    
  20000000   280.90498      2643.9716     -1227.283       1707.6481      1877.3046      2978.7629     -1243.4284      119.79461      1.1288786      52390.676    
  20020000   280.70577      2600.4765     -1218.1971      1698.0144      1943.3364      2942.8117     -1311.7445      115.10826      1.1288366      52392.629    
  20040000   272.22377      2711.9984     -1268.3116      1750.684       1976.8639      2978.2398     -1269.8952      113.70719      1.1287037      52398.795    
  20060000   280.06623      2670.2097     -1213.9282      1725.6963      1893.9051      2955.9671     -1234.633       112.25034      1.1284356      52411.244    
  20080000   277.25002      2706.5153     -1180.3876      1763.8029      1944.9717      2930.1282     -1293.6863      110.4864       1.1178662      52906.792    
  20100000   285.35043      2611.6903     -1200.5906      1733.0396      1937.5587      2934.1175     -1331.0154      107.53417      1.1246377      52588.239    
  20120000   280.50564      2612.1229     -1262.3911      1723.5674      1877.0967      3000.289      -1267.8121      110.09393      1.1197235      52819.036    
  20140000   280.24676      2637.5337     -1212.1758      1720.8546      1979.8413      2910.1089     -1305.7052      112.99195      1.1231774      52656.609    
  20160000   280.2162       2658.7203     -1204.1031      1722.0716      1905.4588      2982.6102     -1296.3176      117.88872      1.1224674      52689.916    
  20180000   276.4274       2724.4862     -1248.1681      1719.5134      1940.1215      3029.2202     -1262.5694      114.85994      1.1308563      52299.053    
  20200000   279.00608      2614.5762     -1211.6155      1732.2317      1891.5121      2889.2788     -1237.1163      118.42773      1.1193776      52835.358    
  20220000   282.9928       2725.6836     -1157.9918      1723.3959      1932.6888      2946.717      -1270.7767      120.52294      1.1230811      52661.128    
  20240000   279.9267       2592.4668     -1229.8578      1712.9074      1927.7012      2922.4628     -1283.9329      111.74263      1.1196649      52821.802    
  20260000   278.79603      2666.1882     -1248.5874      1723.086       1920.4503      2952.7699     -1230.2372      117.40634      1.1313707      52275.275    
  20280000   281.32242      2648.8575     -1248.8543      1711.3336      1937.4504      2973.0109     -1267.7669      112.28047      1.1286389      52401.803    
  20300000   279.642        2667.5072     -1229.0935      1716.8212      1947.6981      2922.0728     -1241.3202      119.69555      1.1271256      52472.161    
  20320000   278.7808       2741.3916     -1212.0944      1723.0511      1975.1653      2961.1329     -1251.126       113.62468      1.1234508      52643.797    
  20340000   278.64423      2617.4462     -1228.9311      1707.9885      1964.5404      2895.7612     -1269.6162      115.98766      1.1283831      52413.682    
  20360000   276.80292      2614.7        -1228.7056      1705.7874      1958.0933      2938.7845     -1296.3947      105.91884      1.121796       52721.455    
  20380000   277.53652      2661.457      -1167.4668      1717.0289      1879.823       2965.5297     -1276.1722      111.68797      1.1197017      52820.063    
  20400000   279.84279      2729.5707     -1221.4616      1735.3717      1935.2523      2933.1498     -1201.7923      117.69609      1.1192818      52839.878    
  20400104   283.3387       2662.3941     -1202.4279      1730.7308      1911.209       2936.1204     -1256.1492      111.5262       1.1190555      52850.565    
Loop time of 3857.03 on 24 procs for 1200000 steps with 5001 atoms

Performance: 6.720 ns/day, 3.571 hours/ns, 311.121 timesteps/s, 1.556 Matom-step/s
99.5% CPU use with 24 MPI tasks x no OpenMP threads

MPI task timing breakdown:
Section |  min time  |  avg time  |  max time  |%varavg| %total
---------------------------------------------------------------
Pair    | 1774.6     | 2167.5     | 2515.5     | 393.1 | 56.20
Bond    | 510.58     | 601.92     | 687.15     | 189.9 | 15.61
Kspace  | 477.29     | 891.06     | 1368.8     | 704.0 | 23.10
Neigh   | 22.542     | 22.604     | 22.651     |   0.8 |  0.59
Comm    | 126.16     | 128.1      | 131.46     |  12.7 |  3.32
Output  | 0.0029379  | 0.0035192  | 0.016248   |   4.5 |  0.00
Modify  | 31.463     | 33.377     | 34.677     |  17.0 |  0.87
Other   |            | 12.45      |            |       |  0.32

Nlocal:        208.375 ave         224 max         194 min
Histogram: 2 2 2 5 4 1 2 1 2 3
Nghost:        4753.04 ave        4800 max        4714 min
Histogram: 2 4 4 1 4 2 0 2 4 1
Neighs:        71591.5 ave       81311 max       61101 min
Histogram: 2 3 2 1 3 1 5 3 2 2

Total # of neighbors = 1718195
Ave neighs/atom = 343.57029
Ave special neighs/atom = 5.6904619
Neighbor list builds = 7880
Dangerous builds = 0
unfix           fNPT
unfix           fMOM
next            a
jump            SELF loop
variable        a loop 26
variable        b equal 600-20*($a-1)
variable        b equal 600-20*(18-1)
fix             fMOM all momentum 100 linear 1 1 1 angular
fix             fNPT all npt temp $b $b $(100.0*dt) iso 1 1 $(100.0*dt)
fix             fNPT all npt temp 260 $b $(100.0*dt) iso 1 1 $(100.0*dt)
fix             fNPT all npt temp 260 260 $(100.0*dt) iso 1 1 $(100.0*dt)
fix             fNPT all npt temp 260 260 25 iso 1 1 $(100.0*dt)
fix             fNPT all npt temp 260 260 25 iso 1 1 25
run             1200000
PPPM initialization ...
  using 12-bit tables for long-range coulomb (../kspace.cpp:342)
  G vector (1/distance) = 0.11751411
  grid = 4 4 4
  stencil order = 5
  estimated absolute RMS force accuracy = 0.32778483
  estimated relative force accuracy = 0.00098711428
  using double precision KISS FFT
  3d grid and FFT values/proc = 294 4
Generated 36 of 36 mixed pair_coeff terms from sixthpower/sixthpower mixing rule
WARNING: Inconsistent image flags (../domain.cpp:815)
Per MPI rank memory allocation (min/avg/max) = 15.03 | 15.06 | 15.24 Mbytes
   Step          Temp          PotEng         E_vdwl         E_coul         E_bond        E_angle        E_dihed        E_impro        Density         Volume    
  20400104   283.3387       2662.5942     -1202.4279      1732.4075      1911.209       2936.1204     -1256.1492      111.5262       1.1190555      52850.565    
  20420000   259.46929      2386.4194     -1267.535       1716.792       1835.3528      2889.027      -1315.3619      98.379118      1.1266326      52495.12     
  20440000   259.8237       2286.5807     -1261.5915      1701.1378      1791.944       2885.6058     -1365.1347      105.00923      1.1333313      52184.841    
  20460000   261.85712      2369.5247     -1273.334       1690.5769      1868.6389      2886.3086     -1343.8579      111.37267      1.1332263      52189.679    
  20480000   263.72441      2343.6026     -1246.4784      1709.8368      1830.3702      2885.0848     -1364.9481      100.19419      1.1373214      52001.761    
  20500000   257.20656      2357.4054     -1298.2167      1714.5294      1825.0347      2885.5391     -1306.58        107.28835      1.1395248      51901.207    
  20520000   256.01055      2294.8577     -1241.6716      1703.7572      1796.6119      2802.1578     -1306.4029      110.70255      1.1313974      52274.043    
  20540000   260.95826      2297.8978     -1262.2584      1691.7511      1762.8214      2855.6366     -1289.1609      109.46106      1.1326962      52214.103    
  20560000   258.59206      2289.1381     -1280.7434      1703.1392      1836.8991      2817.7783     -1324.248       105.91168      1.1335029      52176.942    
  20580000   257.93644      2314.7839     -1265.1474      1709.4646      1837.6671      2856.7867     -1355.7743      102.11513      1.1419592      51790.567    
  20600000   261.13828      2346.0396     -1297.1653      1682.9594      1806.218       2870.6378     -1254.3419      108.24117      1.1287187      52398.101    
  20620000   260.48815      2379.7173     -1241.5292      1717.4454      1794.069       2842.0505     -1275.7924      113.40906      1.129808       52347.58     
  20640000   261.25483      2329.5878     -1242.0715      1723.7944      1811.8309      2828.0077     -1326.5902      104.70357      1.1285456      52406.135    
  20660000   258.45047      2416.5451     -1273.6428      1707.6528      1842.1226      2874.2969     -1274.6341      110.82349      1.1365547      52036.841    
  20680000   262.17841      2246.425      -1272.1701      1706.713       1793.3224      2836.1845     -1352.36        104.90545      1.1301827      52330.223    
  20700000   257.58984      2419.8702     -1273.8482      1703.9034      1912.8171      2833.8344     -1294.1849      107.8232       1.1277949      52441.021    
  20720000   262.15286      2358.8034     -1248.0262      1715.0829      1788.3787      2820.9079     -1261.4642      114.19953      1.1264655      52502.909    
  20740000   266.49546      2381.5384     -1269.9722      1666.5572      1847.9359      2915.6521     -1316.1928      107.51598      1.1250098      52570.847    
  20760000   261.58111      2384.343      -1261.6503      1711.0732      1814.3376      2812.334      -1229.3706      107.85529      1.1354181      52088.932    
  20780000   260.81376      2373.7673     -1294.1425      1708.0986      1865.4149      2869.1723     -1306.2105      101.72088      1.1268647      52484.307    
  20800000   257.11727      2423.6472     -1262.8719      1719.4502      1808.2899      2866.5381     -1243.8141      106.32885      1.126896       52482.849    
  20820000   258.53077      2413.5717     -1245.8649      1700.4168      1904.9659      2829.3194     -1310.0435      105.32411      1.1277386      52443.637    
  20840000   257.21791      2294.5707     -1272.0369      1682.4466      1847.5432      2824.8065     -1322.2159      104.56969      1.1356442      52078.562    
  20860000   258.28477      2365.8118     -1273.6165      1702.9583      1870.1192      2866.9765     -1333.2467      103.0907       1.1339317      52157.213    
  20880000   257.92988      2404.7478     -1236.4314      1710.4256      1838.7523      2868.5299     -1314.1026      107.90844      1.128774       52395.534    
  20900000   259.20076      2430.8343     -1239.1536      1710.5186      1821.2183      2881.6939     -1281.1856      107.7287       1.1247808      52581.547    
  20920000   259.75123      2394.9643     -1250.5577      1705.9989      1851.1502      2814.3893     -1259.0106      103.03967      1.1248165      52579.881    
  20940000   258.7404       2336.5604     -1263.6281      1710.4838      1886.8391      2787.931      -1320.5573      105.15889      1.1299846      52339.399    
  20960000   268.49645      2369.7697     -1274.7485      1724.702       1868.5912      2828.1253     -1313.7798      107.15492      1.1208202      52767.351    
  20980000   264.89021      2339.2037     -1224.6654      1710.3669      1825.2108      2829.3963     -1329.4696      98.149444      1.1306818      52307.127    
  21000000   259.9773       2477.3232     -1247.0108      1716.8971      1813.9742      2942.0359     -1281.5029      102.49632      1.1307437      52304.264    
  21020000   261.73531      2366.9414     -1217.1022      1714.8985      1813.3177      2820.3873     -1295.1639      100.729        1.1223836      52693.853    
  21040000   265.32782      2342.938      -1283.3783      1714.798       1840.5772      2856.7257     -1327.8109      112.26179      1.1292303      52374.362    
  21060000   261.18699      2311.6286     -1260.4986      1716.1081      1825.1312      2740.5016     -1248.923       109.61559      1.1385487      51945.705    
  21080000   258.3253       2405.4333     -1297.0527      1695.3957      1831.792       2948.8101     -1312.1822      108.6755       1.1252275      52560.675    
  21100000   256.71994      2403.2352     -1264.1464      1696.8569      1837.5182      2912.4738     -1316.355       107.29734      1.1322649      52233.992    
  21120000   261.8251       2380.0245     -1258.9043      1711.2815      1886.0828      2896.7957     -1388.0477      102.86611      1.1351912      52099.343    
  21140000   261.76238      2414.3712     -1282.2668      1721.8238      1862.5807      2896.6342     -1320.0751      105.69643      1.1294138      52365.851    
  21160000   261.00538      2414.5828     -1230.7958      1704.6427      1870.8654      2874.3332     -1339.2211      104.88555      1.1328314      52207.87     
  21180000   257.25726      2396.7925     -1233.9227      1698.4494      1858.378       2808.8815     -1275.525       110.84079      1.1319656      52247.8      
  21200000   261.00083      2272.9824     -1321.0425      1717.4633      1806.2867      2811.007      -1276.7762      106.01925      1.1307745      52302.839    
  21220000   254.92455      2359.0917     -1286.5328      1692.0359      1862.0711      2863.5196     -1308.7016      106.61039      1.1215233      52734.271    
  21240000   264.09625      2379.5325     -1263.4331      1712.3949      1848.119       2856.1272     -1313.0169      109.37251      1.1369404      52019.187    
  21260000   264.22513      2318.8418     -1266.8436      1726.0673      1759.4335      2839.5371     -1278.014       108.29365      1.1342266      52143.65     
  21280000   264.271        2321.6941     -1323.9407      1689.0514      1834.5425      2867.5537     -1284.4739      108.51286      1.1312987      52278.603    
  21300000   265.80532      2366.1545     -1299.7015      1703.7502      1802.2782      2910.127      -1291.7526      111.53833      1.1378766      51976.387    
  21320000   265.20925      2329.4192     -1275.6631      1699.4781      1845.585       2843.1259     -1318.4892      105.57503      1.135012       52107.568    
  21340000   258.98232      2318.1016     -1304.9226      1709.8199      1790.3034      2853.5956     -1264.8223      104.4181       1.1347531      52119.457    
  21360000   258.78641      2397.3094     -1276.3008      1724.1175      1837.7669      2816.3404     -1239.0517      104.70192      1.1360278      52060.976    
  21380000   255.95816      2308.4679     -1248.0217      1711.9684      1768.3776      2810.481      -1266.1546      102.05035      1.1398307      51887.281    
  21400000   258.87388      2282.1169     -1291.4327      1699.5686      1823.0919      2840.3213     -1315.0345      95.286808      1.1358081      52071.044    
  21420000   263.98182      2377.7919     -1267.5826      1698.0054      1893.5117      2769.9275     -1254.7204      108.78073      1.1317295      52258.701    
  21440000   259.66346      2437.6649     -1254.5732      1724.6274      1886.8962      2835.8605     -1286.6097      101.69357      1.1278033      52440.628    
  21460000   260.06622      2454.5157     -1271.5549      1714.1764      1854.626       2825.8307     -1210.9298      112.68512      1.1323131      52231.768    
  21480000   258.71689      2355.1776     -1274.5657      1687.431       1863.0146      2813.0927     -1266.9885      103.02987      1.1284281      52411.595    
  21500000   261.3055       2391.0024     -1285.4168      1729.9288      1863.6276      2830.2897     -1280.6195      103.26806      1.1349396      52110.893    
  21520000   262.11186      2422.761      -1248.7332      1717.7111      1860.6352      2871.5349     -1312.3429      103.98065      1.1331906      52191.324    
  21540000   260.49184      2328.2555     -1275.6525      1703.3772      1826.8261      2828.6287     -1290.676       105.98687      1.1258089      52533.527    
  21560000   258.09906      2296.0588     -1284.6748      1702.866       1842.6126      2821.8457     -1317.4855      101.44652      1.129456       52363.893    
  21580000   259.95541      2305.1383     -1276.2983      1727.46        1799.0639      2821.573      -1298.6593      102.42715      1.1261472      52517.746    
  21600000   253.46832      2425.034      -1251.8693      1737.2253      1844.6246      2876.7872     -1313.3557      101.84639      1.132499       52223.194    
  21600104   259.18928      2395.5955     -1280.9184      1730.5017      1857.5757      2896.7866     -1337.5468      99.102484      1.1303221      52323.77     
Loop time of 3847.3 on 24 procs for 1200000 steps with 5001 atoms

Performance: 6.737 ns/day, 3.562 hours/ns, 311.907 timesteps/s, 1.560 Matom-step/s
99.5% CPU use with 24 MPI tasks x no OpenMP threads

MPI task timing breakdown:
Section |  min time  |  avg time  |  max time  |%varavg| %total
---------------------------------------------------------------
Pair    | 1807.4     | 2185.2     | 2509.4     | 398.7 | 56.80
Bond    | 506.52     | 601.56     | 675.89     | 178.8 | 15.64
Kspace  | 476.25     | 865.02     | 1315.6     | 722.1 | 22.48
Neigh   | 20.67      | 20.712     | 20.741     |   0.4 |  0.54
Comm    | 126.29     | 128.56     | 132.05     |  13.1 |  3.34
Output  | 0.0041569  | 0.0049368  | 0.022302   |   5.2 |  0.00
Modify  | 31.339     | 33.449     | 34.895     |  18.2 |  0.87
Other   |            | 12.77      |            |       |  0.33

Nlocal:        208.375 ave         224 max         187 min
Histogram: 2 3 1 0 2 2 4 2 5 3
Nghost:        4768.96 ave        4818 max        4736 min
Histogram: 1 4 6 4 0 3 1 3 0 2
Neighs:        72055.7 ave       82408 max       59256 min
Histogram: 3 1 0 2 4 3 2 4 3 2

Total # of neighbors = 1729337
Ave neighs/atom = 345.79824
Ave special neighs/atom = 5.6904619
Neighbor list builds = 7198
Dangerous builds = 0
unfix           fNPT
unfix           fMOM
next            a
jump            SELF loop
variable        a loop 26
variable        b equal 600-20*($a-1)
variable        b equal 600-20*(19-1)
fix             fMOM all momentum 100 linear 1 1 1 angular
fix             fNPT all npt temp $b $b $(100.0*dt) iso 1 1 $(100.0*dt)
fix             fNPT all npt temp 240 $b $(100.0*dt) iso 1 1 $(100.0*dt)
fix             fNPT all npt temp 240 240 $(100.0*dt) iso 1 1 $(100.0*dt)
fix             fNPT all npt temp 240 240 25 iso 1 1 $(100.0*dt)
fix             fNPT all npt temp 240 240 25 iso 1 1 25
run             1200000
PPPM initialization ...
  using 12-bit tables for long-range coulomb (../kspace.cpp:342)
  G vector (1/distance) = 0.11779762
  grid = 4 4 4
  stencil order = 5
  estimated absolute RMS force accuracy = 0.32724037
  estimated relative force accuracy = 0.00098547467
  using double precision KISS FFT
  3d grid and FFT values/proc = 294 4
Generated 36 of 36 mixed pair_coeff terms from sixthpower/sixthpower mixing rule
WARNING: Inconsistent image flags (../domain.cpp:815)
Per MPI rank memory allocation (min/avg/max) = 15.03 | 15.06 | 15.24 Mbytes
   Step          Temp          PotEng         E_vdwl         E_coul         E_bond        E_angle        E_dihed        E_impro        Density         Volume    
  21600104   259.18928      2395.9204     -1280.9184      1734.6082      1857.5757      2896.7866     -1337.5468      99.102484      1.1303221      52323.77     
  21620000   243.05783      2059.4513     -1310.8512      1704.6031      1694.8152      2792.1385     -1351.6574      104.3523       1.1328555      52206.759    
  21640000   239.61199      2023.0749     -1318.6148      1731.0012      1706.0942      2663.7454     -1284.7591      99.23835       1.1323817      52228.602    
  21660000   238.09613      2085.9719     -1271.028       1723.0373      1720.684       2689.9661     -1302.5473      100.07515      1.1330272      52198.849    
  21680000   242.69616      2063.1108     -1289.7326      1730.0605      1713.4332      2753.5773     -1370.561       100.22543      1.1330446      52198.047    
  21700000   237.49132      2058.2238     -1342.419       1725.6636      1741.1168      2766.9171     -1350.0214      91.308555      1.1317152      52259.362    
  21720000   239.87064      2062.4275     -1312.8967      1694.3982      1770.6326      2681.4294     -1294.0053      96.980281      1.1333898      52182.148    
  21740000   241.21681      1988.4359     -1311.2964      1710.6698      1641.4956      2714.5403     -1292.2526      99.443907      1.1364563      52041.343    
  21760000   232.58954      2047.5276     -1289.2942      1726.7981      1702.0264      2717.4894     -1334.6635      99.255387      1.140288       51866.473    
  21780000   236.51351      2063.2273     -1317.2236      1721.9287      1754.2367      2760.3289     -1373.5955      91.578408      1.1278899      52436.601    
  21800000   235.01629      2106.6535     -1291.6078      1718.5549      1694.8379      2786.6556     -1325.2316      97.935156      1.1320573      52243.572    
  21820000   236.08934      2054.6621     -1288.8908      1724.7491      1698.7832      2764.6666     -1364.0546      93.668385      1.130871       52298.372    
  21840000   240.24317      2052.142      -1278.4497      1722.9293      1691.5936      2735.6664     -1345.72        100.09011      1.1286652      52400.582    
  21860000   241.43936      2093.7121     -1244.5842      1732.7437      1746.481       2755.98       -1424.0705      100.96085      1.131735       52258.448    
  21880000   239.51891      2101.4966     -1253.4571      1735.5379      1735.416       2720.7438     -1359.6182      97.169068      1.1335794      52173.419    
  21900000   238.15523      2044.6274     -1276.3675      1722.3443      1687.8268      2754.2375     -1372.9788      103.46086      1.1358514      52069.059    
  21920000   238.64596      2075.5331     -1303.0241      1703.3555      1692.925       2786.2613     -1322.6032      92.405224      1.1318592      52252.712    
  21940000   235.56367      2066.2718     -1251.5428      1704.2         1726.844       2740.3464     -1379.0655      99.492915      1.1359356      52065.202    
  21960000   237.08408      2060.2187     -1278.0494      1718.309       1714.109       2796.3762     -1413.5019      96.963466      1.1324266      52226.533    
  21980000   242.00077      2113.2801     -1298.0896      1721.5072      1767.2695      2740.4416     -1343.14        99.162848      1.1320454      52244.118    
  22000000   241.23042      2040.0504     -1267.1553      1718.9751      1697.7112      2663.2627     -1303.8043      104.78184      1.1328988      52204.764    
  22020000   239.04645      2072.3312     -1276.5349      1737.841       1728.4522      2759.5415     -1406.2651      102.9441       1.1333952      52181.899    
  22040000   242.58351      2085.3423     -1282.4665      1723.5269      1722.7558      2785.3288     -1389.4155      99.637565      1.1330797      52196.431    
  22060000   238.24955      2032.7356     -1314.9037      1719.4077      1723.6522      2777.3997     -1398.3754      99.459961      1.1429424      51746.014    
  22080000   241.46856      2061.629      -1305.2073      1724.545       1759.872       2700.0598     -1347.2029      103.54507      1.1313874      52274.503    
  22100000   240.31564      2002.4296     -1311.7844      1742.0394      1703.0371      2770.2158     -1426.1237      99.138136      1.1338111      52162.761    
  22120000   240.16657      1981.2474     -1312.4172      1719.2474      1695.6585      2732.8698     -1380.2161      99.844257      1.1424623      51767.761    
  22140000   240.37148      2129.0987     -1305.9527      1743.2268      1785.9385      2725.0945     -1342.3849      96.932546      1.1325955      52218.746    
  22160000   239.81497      2112.1699     -1246.9458      1720.4599      1777.9956      2762.1603     -1421.369       93.547434      1.1311815      52284.019    
  22180000   239.43616      2028.3895     -1264.6582      1705.5253      1713.1936      2747.0173     -1387.8337      89.19548       1.1290568      52382.408    
  22200000   233.84449      2038.2258     -1309.0257      1743.2375      1732.005       2686.9852     -1339.3525      98.4755        1.1425909      51761.936    
  22220000   242.10251      2131.0961     -1281.2862      1736.3054      1779.4936      2759.2395     -1389.0152      100.33903      1.1348296      52115.942    
  22240000   238.94674      2002.8051     -1246.2366      1707.1325      1689.5006      2706.3425     -1374.4536      94.413499      1.1401662      51872.014    
  22260000   243.8167       2025.9735     -1346.5648      1721.6137      1762.4525      2717.2968     -1352.841       97.879369      1.1402972      51866.051    
  22280000   237.73242      2004.1994     -1273.1491      1709.0252      1729.7783      2718.2887     -1404.9575      99.305891      1.1368643      52022.671    
  22300000   237.21601      2046.7849     -1274.1912      1705.0316      1712.4785      2725.514      -1344.0633      96.258685      1.141689       51802.827    
  22320000   235.50772      2141.6742     -1292.8225      1732.0712      1756.7037      2759.7421     -1339.1262      98.956183      1.1290834      52381.174    
  22340000   239.89478      2054.6359     -1299.8793      1716.0504      1763.1141      2741.9283     -1389.9717      97.364272      1.1424787      51767.016    
  22360000   239.22674      2034.6586     -1279.0217      1739.4485      1734.6274      2742.4891     -1431.8455      102.70297      1.1330664      52197.041    
  22380000   237.74385      2061.8829     -1278.7444      1716.2229      1787.5052      2714.3447     -1395.3555      91.235807      1.1313861      52274.563    
  22400000   235.12482      2024.7112     -1288.1195      1731.2045      1726.5996      2732.7541     -1393.6267      89.762695      1.1440504      51695.898    
  22420000   240.95969      2075.5547     -1269.6578      1729.3441      1733.4902      2765.3337     -1408.4832      99.133092      1.1291596      52377.639    
  22440000   244.36981      2064.1138     -1261.0051      1734.6744      1700.5211      2711.7176     -1346.7444      98.531846      1.1286674      52400.48     
  22460000   239.84842      2058.2753     -1244.2816      1739.3708      1759.067       2634.6634     -1354.5417      97.676293      1.141496       51811.583    
  22480000   236.33751      2085.3429     -1287.4665      1726.4523      1735.8785      2749.6823     -1365.593       100.08844      1.1322675      52233.871    
  22500000   242.68412      2046.1067     -1315.0536      1742.1362      1767.8805      2713.7241     -1387.6459      98.868974      1.1364051      52043.69     
  22520000   241.20759      2090.449      -1278.6636      1731.1387      1748.3131      2720.5231     -1361.6331      104.67327      1.138979       51926.079    
  22540000   243.5357       2079.9964     -1287.716       1731.6666      1765.2463      2767.6787     -1417.8174      94.653966      1.1310084      52292.022    
  22560000   238.02437      2018.559      -1283.8468      1710.6674      1706.9661      2739.2542     -1375.7676      94.565418      1.1398751      51885.259    
  22580000   236.89748      2103.2528     -1312.2024      1718.1104      1772.5003      2737.9566     -1338.5246      99.058932      1.1300052      52338.446    
  22600000   248.38992      2036.4412     -1294.465       1725.6759      1634.6623      2770.6412     -1324.5818      98.484255      1.1360512      52059.903    
  22620000   247.04722      2067.0664     -1263.4414      1716.1677      1735.7522      2724.5197     -1368.0393      95.881193      1.1321929      52237.314    
  22640000   243.72729      2039.7957     -1323.5752      1696.6053      1728.1646      2738.6004     -1323.8675      97.757851      1.1336242      52171.361    
  22660000   243.67794      2076.2495     -1301.3761      1726.8777      1687.013       2782.8415     -1346.4084      101.1437       1.1328284      52208.009    
  22680000   238.83049      2069.7877     -1294.553       1714.1341      1716.4661      2828.5519     -1411.5831      90.530326      1.1298574      52345.293    
  22700000   239.70925      2069.4902     -1254.4633      1713.1178      1734.239       2741.5734     -1386.5327      95.160638      1.1307652      52303.267    
  22720000   241.38299      2140.1734     -1317.2405      1699.4402      1799.9285      2787.8995     -1356.6647      100.78972      1.1339693      52155.482    
  22740000   242.8731       2061.1402     -1305.8806      1712.7672      1724.2316      2769.9149     -1365.2095      99.131071      1.135321       52093.386    
  22760000   242.52842      2071.9231     -1275.7001      1722.6994      1700.6645      2755.9364     -1352.5071      94.385909      1.1324146      52227.088    
  22780000   241.57152      2083.4732     -1248.0494      1706.4031      1752.4747      2757.925      -1407.767       96.393225      1.133097       52195.632    
  22800000   239.93223      2060.3487     -1289.1739      1705.4941      1686.0106      2750.3811     -1319.8626      100.86266      1.13466        52123.734    
  22800104   238.36965      2022.0082     -1281.1096      1716.516       1706.9892      2696.6416     -1339.9228      96.508185      1.1365864      52035.387    
Loop time of 3906.96 on 24 procs for 1200000 steps with 5001 atoms

Performance: 6.634 ns/day, 3.618 hours/ns, 307.144 timesteps/s, 1.536 Matom-step/s
99.5% CPU use with 24 MPI tasks x no OpenMP threads

MPI task timing breakdown:
Section |  min time  |  avg time  |  max time  |%varavg| %total
---------------------------------------------------------------
Pair    | 1809.1     | 2197.8     | 2549.7     | 411.7 | 56.25
Bond    | 503.49     | 600.86     | 675.32     | 183.5 | 15.38
Kspace  | 488.47     | 914.22     | 1381.9     | 734.6 | 23.40
Neigh   | 19.454     | 19.494     | 19.524     |   0.5 |  0.50
Comm    | 126.48     | 128.63     | 131.98     |  12.6 |  3.29
Output  | 0.003563   | 0.0045735  | 0.027244   |   7.0 |  0.00
Modify  | 31.388     | 33.382     | 34.836     |  17.8 |  0.85
Other   |            | 12.59      |            |       |  0.32

Nlocal:        208.375 ave         227 max         183 min
Histogram: 2 1 0 3 1 6 3 3 3 2
Nghost:        4778.12 ave        4833 max        4737 min
Histogram: 3 2 6 1 3 2 1 4 0 2
Neighs:        72337.8 ave       83619 max       57136 min
Histogram: 2 1 0 2 2 4 5 4 3 1

Total # of neighbors = 1736106
Ave neighs/atom = 347.15177
Ave special neighs/atom = 5.6904619
Neighbor list builds = 6740
Dangerous builds = 0
unfix           fNPT
unfix           fMOM
next            a
jump            SELF loop
variable        a loop 26
variable        b equal 600-20*($a-1)
variable        b equal 600-20*(20-1)
fix             fMOM all momentum 100 linear 1 1 1 angular
fix             fNPT all npt temp $b $b $(100.0*dt) iso 1 1 $(100.0*dt)
fix             fNPT all npt temp 220 $b $(100.0*dt) iso 1 1 $(100.0*dt)
fix             fNPT all npt temp 220 220 $(100.0*dt) iso 1 1 $(100.0*dt)
fix             fNPT all npt temp 220 220 25 iso 1 1 $(100.0*dt)
fix             fNPT all npt temp 220 220 25 iso 1 1 25
run             1200000
PPPM initialization ...
  using 12-bit tables for long-range coulomb (../kspace.cpp:342)
  G vector (1/distance) = 0.11795418
  grid = 4 4 4
  stencil order = 5
  estimated absolute RMS force accuracy = 0.32693698
  estimated relative force accuracy = 0.000984561
  using double precision KISS FFT
  3d grid and FFT values/proc = 294 4
Generated 36 of 36 mixed pair_coeff terms from sixthpower/sixthpower mixing rule
WARNING: Inconsistent image flags (../domain.cpp:815)
Per MPI rank memory allocation (min/avg/max) = 15.03 | 15.06 | 15.24 Mbytes
   Step          Temp          PotEng         E_vdwl         E_coul         E_bond        E_angle        E_dihed        E_impro        Density         Volume    
  22800104   238.36965      2022.1978     -1281.1096      1718.7933      1706.9892      2696.6416     -1339.9228      96.508185      1.1365864      52035.387    
  22820000   217.58152      1674.8335     -1339.9044      1710.941       1587.4649      2613.9803     -1411.8197      89.788589      1.1436714      51713.032    
  22840000   221.6647       1719.6488     -1316.2453      1700.5958      1632.2769      2686.8025     -1491.7048      83.062188      1.1392417      51914.106    
  22860000   219.15047      1678.2054     -1390.3104      1697.8813      1590.67        2659.5779     -1395.2429      91.636338      1.1371393      52010.087    
  22880000   217.8444       1754.2294     -1339.5602      1719.2467      1644.7722      2657.7122     -1439.5237      87.481241      1.1408192      51842.321    
  22900000   216.46714      1741.2802     -1345.5249      1704.0509      1584.4532      2670.8588     -1389.3589      92.81915       1.1432262      51733.169    
  22920000   220.29247      1640.9515     -1331.1663      1707.9619      1589.604       2568.0008     -1406.0029      88.530663      1.1386964      51938.967    
  22940000   220.83767      1709.046      -1320.1015      1722.9036      1564.5399      2633.0583     -1402.4645      86.44025       1.145871       51613.766    
  22960000   222.99457      1687.8075     -1332.4689      1714.9913      1594.6903      2636.39       -1436.1437      86.685207      1.1362879      52049.058    
  22980000   217.46355      1780.2428     -1305.7147      1747.1936      1563.5698      2637.1566     -1376.6885      90.535533      1.1439085      51702.313    
  23000000   219.75405      1777.0432     -1359.7807      1712.3271      1621.3894      2668.845      -1379.5423      89.675595      1.1404853      51857.501    
  23020000   217.8563       1737.7459     -1339.1877      1723.2625      1561.6687      2652.4288     -1380.2746      95.666361      1.1451695      51645.38     
  23040000   214.10625      1680.438      -1379.3243      1715.2298      1628.4981      2591.876      -1393.9061      94.014116      1.1468928      51567.78     
  23060000   225.21361      1707.2834     -1323.9328      1720.6188      1635.5852      2593.5346     -1427.1199      84.425061      1.1343595      52137.542    
  23080000   220.20346      1728.0699     -1320.3157      1730.0431      1622.1188      2638.385      -1449.606       83.281441      1.1410737      51830.76     
  23100000   223.90048      1728.943      -1302.3683      1696.504       1624.6152      2621.6498     -1420.718       84.98004       1.1407562      51845.185    
  23120000   218.17467      1763.9025     -1305.9381      1722.9909      1603.8183      2658.9235     -1427.1326      87.086681      1.1364892      52039.84     
  23140000   219.27759      1757.839      -1326.2261      1710.0925      1659.3408      2635.3087     -1440.1981      95.464392      1.1428391      51750.694    
  23160000   217.08025      1650.2456     -1353.0445      1704.3299      1608.9133      2557.3822     -1379.0452      87.302141      1.1365325      52037.859    
  23180000   219.30486      1696.1637     -1315.7168      1733.7015      1588.6649      2638.2417     -1462.9433      89.88078       1.1411163      51828.824    
  23200000   221.39848      1738.0333     -1331.4794      1724.935       1591.61        2679.7584     -1438.4991      87.295024      1.1358081      52071.044    
  23220000   221.96579      1733.6984     -1327.5812      1715.7735      1599.2354      2660.4317     -1427.243       89.008594      1.1325326      52221.645    
  23240000   220.27358      1770.735      -1309.3584      1732.9141      1650.0406      2656.746      -1470.0892      85.962883      1.1451001      51648.511    
  23260000   220.62915      1759.3113     -1324.0845      1709.0094      1645.5372      2623.9569     -1411.2024      91.562449      1.1463262      51593.267    
  23280000   220.85415      1701.0305     -1350.9569      1731.578       1580.9915      2638.6161     -1410.1758      86.490905      1.138717       51938.028    
  23300000   219.9449       1758.1027     -1323.5993      1727.0488      1659.9609      2616.2611     -1429.7684      84.050221      1.1429476      51745.782    
  23320000   223.34043      1682.0926     -1327.8275      1740.0174      1582.6433      2607.806      -1434.2594      89.375188      1.1381545      51963.697    
  23340000   219.41436      1740.87       -1317.1567      1727.0287      1653.6623      2630.2127     -1462.0196      85.122397      1.1380531      51968.329    
  23360000   221.73414      1728.4753     -1335.5428      1721.6558      1627.1473      2685.4065     -1485.7724      91.159041      1.1363721      52045.204    
  23380000   217.87971      1735.104      -1317.2023      1696.001       1600.4251      2640.0358     -1397.7196      89.24738       1.1342056      52144.616    
  23400000   218.0177       1657.2284     -1337.3649      1712.2844      1643.0683      2575.8447     -1446.3153      85.887965      1.1359174      52066.034    
  23420000   224.94134      1766.1595     -1303.4208      1723.4913      1645.2405      2598.7479     -1415.8586      93.918958      1.1359226      52065.796    
  23440000   219.8632       1759.0051     -1271.3778      1717.4767      1593.9085      2586.6228     -1386.4782      94.937567      1.1381823      51962.428    
  23460000   218.11674      1746.8777     -1295.7304      1718.4757      1624.4344      2610.896      -1425.5017      90.029582      1.1427048      51756.774    
  23480000   222.94553      1737.8627     -1294.8058      1705.0275      1630.28        2655.6882     -1468.4563      85.790303      1.1377903      51980.33     
  23500000   221.2647       1771.0463     -1298.3354      1712.5768      1615.88        2588.126      -1366.1293      95.146905      1.1386976      51938.915    
  23520000   216.19067      1769.0215     -1328.9776      1709.384       1615.5844      2647.9        -1388.4616      89.958813      1.1445101      51675.136    
  23540000   218.27195      1671.504      -1316.4609      1683.3076      1623.9839      2603.9936     -1432.9692      85.943606      1.1374775      51994.623    
  23560000   214.36937      1740.3254     -1309.9009      1734.5402      1650.819       2597.257      -1438.9737      82.639197      1.1348583      52114.626    
  23580000   217.11968      1743.1514     -1380.6293      1692.992       1631.4193      2655.38       -1369.9741      90.042062      1.1436788      51712.698    
  23600000   223.03208      1751.2913     -1356.4166      1707.3635      1606.0548      2659.1197     -1379.0374      90.115743      1.1402075      51870.134    
  23620000   221.02359      1844.1826     -1321.5868      1740.3401      1677.5129      2648.744      -1414.6731      90.196804      1.1419555      51790.737    
  23640000   225.51794      1759.4587     -1356.9426      1711.658       1590.6319      2660.9226     -1367.398       96.969253      1.1455531      51628.087    
  23660000   218.27292      1734.5384     -1354.9383      1705.3456      1580.4044      2703.0997     -1410.5432      87.339255      1.1420107      51788.233    
  23680000   218.75462      1758.2279     -1302.2425      1723.3174      1580.2836      2613.7885     -1376.2488      95.304601      1.1388106      51933.761    
  23700000   218.96743      1797.9392     -1339.0431      1736.512       1654.4209      2607.3581     -1370.979       86.161936      1.1362882      52049.045    
  23720000   219.47517      1778.9637     -1293.0746      1731.6706      1585.495       2608.7275     -1369.3903      91.786157      1.1341831      52145.651    
  23740000   221.20598      1747.2671     -1335.4758      1703.0576      1656.7714      2638.9778     -1426.6146      86.458051      1.1416915      51802.711    
  23760000   214.7101       1708.4259     -1325.16        1718.1084      1637.0091      2585.3544     -1421.5074      90.717874      1.1411918      51825.394    
  23780000   221.343        1708.5063     -1351.711       1721.6087      1587.8041      2615.8357     -1377.5414      88.683748      1.1459735      51609.147    
  23800000   223.74813      1801.6548     -1324.3233      1703.3361      1630.7392      2700.7588     -1424.8307      92.072629      1.1407217      51846.753    
  23820000   218.24198      1748.0801     -1313.5945      1709.313       1649.9934      2664.0986     -1473.2945      87.666614      1.1351373      52101.818    
  23840000   220.48991      1717.2487     -1333.2477      1726.0976      1594.677       2704.9077     -1483.1358      83.784166      1.1382808      51957.933    
  23860000   219.05645      1720.2739     -1364.7109      1695.3556      1674.2095      2633.2862     -1421.4635      79.835893      1.1394297      51905.543    
  23880000   218.71835      1793.2959     -1290.5318      1710.2824      1622.7201      2638.4524     -1404.4495      92.90729       1.1404288      51860.069    
  23900000   218.31494      1732.5011     -1335.4887      1712.667       1596.1479      2592.9204     -1347.9688      90.162448      1.1349824      52108.926    
  23920000   219.31218      1752.6636     -1323.9647      1738.4592      1637.3452      2651.0301     -1461.3616      86.981372      1.1443205      51683.7      
  23940000   219.00196      1758.0003     -1333.9841      1723.4295      1629.2187      2616.1978     -1389.4132      88.660627      1.1420472      51786.579    
  23960000   221.3193       1797.2719     -1320.6743      1748.5548      1674.2409      2684.0837     -1496.6451      83.364632      1.1399231      51883.074    
  23980000   222.79875      1676.146      -1352.2034      1713.4527      1609.1131      2630.2334     -1437.196       88.697218      1.1385499      51945.651    
  24000000   221.91206      1722.5045     -1315.7912      1736.1288      1609.5246      2572.6167     -1391.2617      86.984703      1.1397388      51891.462    
  24000104   222.65063      1753.6444     -1316.7647      1715.3758      1631.4925      2630.5158     -1420.692       89.559627      1.1419805      51789.6      
Loop time of 3864.85 on 24 procs for 1200000 steps with 5001 atoms

Performance: 6.707 ns/day, 3.579 hours/ns, 310.491 timesteps/s, 1.553 Matom-step/s
99.5% CPU use with 24 MPI tasks x no OpenMP threads

MPI task timing breakdown:
Section |  min time  |  avg time  |  max time  |%varavg| %total
---------------------------------------------------------------
Pair    | 1826.9     | 2208.7     | 2524.9     | 395.7 | 57.15
Bond    | 503.47     | 600.29     | 670.45     | 178.0 | 15.53
Kspace  | 482.43     | 863.26     | 1326.9     | 723.9 | 22.34
Neigh   | 18.149     | 18.166     | 18.186     |   0.3 |  0.47
Comm    | 126.46     | 128.76     | 132.32     |  12.8 |  3.33
Output  | 0.0055326  | 0.0060976  | 0.018554   |   3.3 |  0.00
Modify  | 30.875     | 33.138     | 34.7       |  19.5 |  0.86
Other   |            | 12.56      |            |       |  0.33

Nlocal:        208.375 ave         227 max         183 min
Histogram: 1 0 2 1 3 7 2 4 3 1
Nghost:        4796.54 ave        4844 max        4746 min
Histogram: 4 1 1 2 1 4 2 7 1 1
Neighs:        72816.8 ave       82154 max       57801 min
Histogram: 1 0 1 3 3 1 5 4 2 4

Total # of neighbors = 1747602
Ave neighs/atom = 349.45051
Ave special neighs/atom = 5.6904619
Neighbor list builds = 6262
Dangerous builds = 0
unfix           fNPT
unfix           fMOM
next            a
jump            SELF loop
variable        a loop 26
variable        b equal 600-20*($a-1)
variable        b equal 600-20*(21-1)
fix             fMOM all momentum 100 linear 1 1 1 angular
fix             fNPT all npt temp $b $b $(100.0*dt) iso 1 1 $(100.0*dt)
fix             fNPT all npt temp 200 $b $(100.0*dt) iso 1 1 $(100.0*dt)
fix             fNPT all npt temp 200 200 $(100.0*dt) iso 1 1 $(100.0*dt)
fix             fNPT all npt temp 200 200 25 iso 1 1 $(100.0*dt)
fix             fNPT all npt temp 200 200 25 iso 1 1 25
run             1200000
PPPM initialization ...
  using 12-bit tables for long-range coulomb (../kspace.cpp:342)
  G vector (1/distance) = 0.11808838
  grid = 4 4 4
  stencil order = 5
  estimated absolute RMS force accuracy = 0.32667536
  estimated relative force accuracy = 0.00098377316
  using double precision KISS FFT
  3d grid and FFT values/proc = 294 4
Generated 36 of 36 mixed pair_coeff terms from sixthpower/sixthpower mixing rule
WARNING: Inconsistent image flags (../domain.cpp:815)
Per MPI rank memory allocation (min/avg/max) = 15.03 | 15.06 | 15.24 Mbytes
   Step          Temp          PotEng         E_vdwl         E_coul         E_bond        E_angle        E_dihed        E_impro        Density         Volume    
  24000104   222.65063      1753.8667     -1316.7647      1717.3878      1631.4925      2630.5158     -1420.692       89.559627      1.1419805      51789.6      
  24020000   200.66385      1399.2354     -1374.8951      1719.225       1511.7138      2519.2916     -1479.4235      80.72965       1.1451095      51648.086    
  24040000   201.32341      1431.9984     -1364.9805      1710.1453      1508.9358      2580.8361     -1508.8685      83.755356      1.1428625      51749.632    
  24060000   200.73207      1411.1534     -1405.5125      1711.6153      1548.0565      2558.3703     -1505.5079      81.653484      1.1384041      51952.305    
  24080000   203.01919      1424.4353     -1355.3856      1724.5363      1461.4571      2571.9613     -1482.1493      81.714166      1.146124       51602.369    
  24100000   200.61384      1453.5154     -1358.5175      1723.2868      1511.3317      2586.7776     -1510.3298      78.716739      1.1462473      51596.821    
  24120000   203.88477      1409.9483     -1356.0954      1704.5235      1489.9538      2585.4183     -1519.9891      83.710876      1.1478724      51523.77     
  24140000   201.07436      1513.0273     -1340.8477      1739.042       1516.5591      2545.5875     -1451.3084      81.774535      1.1420352      51787.119    
  24160000   202.52688      1447.0884     -1371.5597      1713.1314      1509.5913      2550.6958     -1452.0294      75.171452      1.1513874      51366.476    
  24180000   201.24549      1454.3113     -1367.3173      1730.1748      1525.1561      2565.0191     -1502.7596      81.669703      1.1440238      51697.1      
  24200000   199.22293      1426.986      -1341.4105      1709.7852      1520.1924      2561.1619     -1526.7265      81.77583       1.1408065      51842.9      
  24220000   199.02955      1532.4952     -1334.5061      1725.3644      1550.3568      2583.0872     -1497.5816      83.546578      1.1423521      51772.756    
  24240000   197.58199      1434.2254     -1373.1388      1738.3487      1510.4272      2559.9976     -1503.3565      79.589327      1.1394683      51903.782    
  24260000   197.31652      1401.6596     -1357.0098      1738.3272      1498.8759      2470.5859     -1451.6499      79.890984      1.1413397      51818.681    
  24280000   197.8581       1456.4396     -1380.133       1747.7321      1477.8369      2566.9745     -1461.9952      83.623533      1.1385823      51944.173    
  24300000   195.94111      1430.1138     -1336.8861      1717.5384      1510.3559      2520.6156     -1483.6829      79.905504      1.142354       51772.671    
  24320000   196.68751      1486.0202     -1329.2068      1746.9029      1498.9191      2549.2205     -1481.5151      79.458892      1.1517873      51348.642    
  24340000   195.62905      1502.3186     -1337.037       1739.9514      1518.9767      2568.4061     -1498.8057      88.151505      1.1456403      51624.157    
  24360000   198.086        1447.4082     -1362.1981      1706.5777      1503.3411      2590.6224     -1497.8375      84.202714      1.1428548      51749.982    
  24380000   197.9172       1438.5574     -1375.5927      1721.2745      1508.1046      2537.5401     -1453.2073      78.003593      1.1489077      51477.343    
  24400000   199.09025      1395.2921     -1366.901       1706.815       1537.744       2538.6505     -1520.4822      77.029852      1.1423086      51774.728    
  24420000   201.12154      1481.9459     -1358.4968      1744.9263      1546.4276      2542.3013     -1498.2371      83.04289       1.1417882      51798.324    
  24440000   195.84452      1417.2831     -1361.3846      1738.9425      1518.7265      2552.5446     -1535.8501      81.770206      1.1485703      51492.466    
  24460000   201.47525      1408.5653     -1359.4638      1735.2173      1502.4093      2530.7288     -1499.1242      76.54497       1.1384242      51951.386    
  24480000   203.33698      1424.0641     -1402.8068      1721.4795      1490.374       2562.9152     -1456.7535      86.90796       1.1426925      51757.331    
  24500000   199.86825      1376.8971     -1349.8786      1723.2805      1479.096       2520.904      -1494.5596      75.645015      1.1394471      51904.747    
  24520000   201.34692      1461.9635     -1338.9324      1734.0364      1516.0676      2528.0761     -1483.0077      83.298276      1.1418242      51796.692    
  24540000   203.11779      1316.7155     -1359.9337      1714.0912      1486.4206      2512.5261     -1534.197       75.630151      1.1423395      51773.327    
  24560000   197.73081      1373.2374     -1362.1228      1720.761       1494.8574      2532.5639     -1511.675       76.598575      1.1503807      51411.43     
  24580000   199.57222      1436.6995     -1406.9077      1709.424       1501.5599      2615.0851     -1487.1268      82.160289      1.1454129      51634.407    
  24600000   203.3231       1387.7079     -1393.2456      1716.7621      1485.7492      2571.5258     -1495.4133      79.978579      1.1479418      51520.658    
  24620000   197.77177      1389.1704     -1398.6924      1711.2383      1487.8943      2599.8228     -1511.2165      77.733576      1.1475443      51538.501    
  24640000   200.92354      1429.9294     -1344.2078      1707.9561      1534.4798      2530.7933     -1501.209       79.332603      1.1428188      51751.61     
  24660000   201.40472      1443.8017     -1367.0947      1731.5662      1501.8678      2518.8346     -1446.0471      82.337263      1.1437697      51708.587    
  24680000   204.31615      1411.3834     -1360.0049      1699.9757      1494.7892      2535.9398     -1462.7319      81.124347      1.1471197      51557.578    
  24700000   200.80997      1379.6212     -1368.5724      1713.8723      1491.546       2511.5128     -1474.0502      82.702786      1.1414101      51815.483    
  24720000   200.43318      1423.6925     -1382.0527      1705.0064      1526.1155      2502.6704     -1436.139       85.674124      1.150539       51404.355    
  24740000   198.29437      1435.3889     -1349.127       1726.1376      1495.2017      2513.5639     -1451.712       78.834432      1.1484644      51497.215    
  24760000   198.18731      1474.8665     -1386.1974      1720.0754      1523.971       2576.5795     -1462.9908      81.076235      1.1406126      51851.71     
  24780000   201.426        1481.9553     -1352.0393      1713.3324      1501.0342      2585.8293     -1469.2534      80.639281      1.1366123      52034.205    
  24800000   197.31482      1430.7586     -1340.5011      1737.0473      1500.2815      2512.2936     -1477.0771      76.470173      1.1474755      51541.594    
  24820000   202.52938      1400.7602     -1348.767       1730.3588      1516.8107      2560.519      -1562.1205      81.425584      1.1471611      51555.721    
  24840000   196.7363       1451.472      -1399.2454      1713.6181      1513.4181      2581.7111     -1460.9486      80.826095      1.1431825      51735.148    
  24860000   200.79422      1413.2247     -1364.1159      1728.3846      1527.2686      2462.3051     -1444.3698      81.227773      1.1481442      51511.574    
  24880000   197.11738      1395.5457     -1374.1313      1718.9745      1504.6966      2516.1376     -1475.4796      82.781766      1.1420344      51787.155    
  24900000   200.48547      1447.1039     -1362.8214      1714.07        1546.1374      2551.202      -1505.6486      81.702857      1.1388915      51930.072    
  24920000   197.62753      1486.0196     -1339.7876      1718.9352      1542.7043      2497.534      -1441.4187      85.767876      1.1440565      51695.624    
  24940000   200.03208      1426.113      -1367.9138      1731.5758      1499.4791      2538.2689     -1480.8216      83.352458      1.145998       51608.045    
  24960000   198.88701      1469.5204     -1387.2468      1716.1827      1558.8907      2537.1367     -1461.1972      83.433588      1.1457714      51618.252    
  24980000   201.1713       1451.405      -1359.6364      1730.6093      1526.2691      2520.8286     -1465.7539      77.013961      1.142117       51783.412    
  25000000   199.82968      1527.782      -1373.1529      1709.3034      1595.449       2579.1009     -1484.2192      78.48744       1.1437875      51707.782    
  25020000   200.40287      1398.8098     -1361.0471      1716.1957      1498.4423      2507.217      -1470.4286      85.77857       1.1429001      51747.929    
  25040000   200.10959      1344.5002     -1355.4004      1716.0032      1469.9176      2463.7414     -1453.3243      81.221264      1.1434111      51724.806    
  25060000   199.21765      1437.8396     -1369.441       1707.6084      1504.7258      2600.0379     -1507.3479      79.888172      1.1463076      51594.105    
  25080000   203.19256      1414.4486     -1341.9208      1725.8527      1489.5416      2508.7301     -1471.8486      81.906485      1.1488882      51478.217    
  25100000   201.6769       1449.621      -1373.5178      1694.3407      1545.1156      2560.8508     -1478.1921      78.805755      1.1349804      52109.018    
  25120000   201.48678      1436.3166     -1338.9446      1726.3783      1495.5667      2506.8283     -1452.7642      76.878217      1.1454453      51632.944    
  25140000   198.71433      1401.239      -1399.2981      1728.582       1497.5636      2544.0441     -1469.2246      76.952307      1.1460995      51603.475    
  25160000   199.1821       1407.5736     -1350.395       1720.6847      1477.8637      2509.8825     -1453.713       80.906951      1.1407948      51843.43     
  25180000   200.05194      1452.3504     -1341.4169      1703.434       1519.1121      2547.3292     -1473.3399      74.938794      1.1444938      51675.874    
  25200000   201.10062      1385.3127     -1359.3445      1711.0722      1541.1934      2529.6915     -1534.9405      75.309643      1.1446814      51667.405    
  25200104   200.61187      1444.9987     -1377.3443      1706.4005      1526.1306      2548.636      -1460.6294      79.573697      1.1433296      51728.493    
Loop time of 3882.82 on 24 procs for 1200000 steps with 5001 atoms

Performance: 6.676 ns/day, 3.595 hours/ns, 309.054 timesteps/s, 1.546 Matom-step/s
99.5% CPU use with 24 MPI tasks x no OpenMP threads

MPI task timing breakdown:
Section |  min time  |  avg time  |  max time  |%varavg| %total
---------------------------------------------------------------
Pair    | 1791.2     | 2202.4     | 2564       | 406.8 | 56.72
Bond    | 505.4      | 599.65     | 670.18     | 174.0 | 15.44
Kspace  | 464.41     | 889.4      | 1378.8     | 725.2 | 22.91
Neigh   | 16.597     | 16.615     | 16.633     |   0.2 |  0.43
Comm    | 126.43     | 128.74     | 132.11     |  13.2 |  3.32
Output  | 0.011796   | 0.012564   | 0.029743   |   3.2 |  0.00
Modify  | 31.262     | 33.443     | 35.073     |  18.8 |  0.86
Other   |            | 12.52      |            |       |  0.32

Nlocal:        208.375 ave         223 max         190 min
Histogram: 1 3 0 2 3 4 2 5 2 2
Nghost:        4811.46 ave        4852 max        4774 min
Histogram: 2 4 1 5 2 1 2 2 3 2
Neighs:        72933.8 ave       82516 max       62205 min
Histogram: 3 0 3 4 2 2 1 3 2 4

Total # of neighbors = 1750411
Ave neighs/atom = 350.0122
Ave special neighs/atom = 5.6904619
Neighbor list builds = 5749
Dangerous builds = 0
unfix           fNPT
unfix           fMOM
next            a
jump            SELF loop
variable        a loop 26
variable        b equal 600-20*($a-1)
variable        b equal 600-20*(22-1)
fix             fMOM all momentum 100 linear 1 1 1 angular
fix             fNPT all npt temp $b $b $(100.0*dt) iso 1 1 $(100.0*dt)
fix             fNPT all npt temp 180 $b $(100.0*dt) iso 1 1 $(100.0*dt)
fix             fNPT all npt temp 180 180 $(100.0*dt) iso 1 1 $(100.0*dt)
fix             fNPT all npt temp 180 180 25 iso 1 1 $(100.0*dt)
fix             fNPT all npt temp 180 180 25 iso 1 1 25
run             1200000
PPPM initialization ...
  using 12-bit tables for long-range coulomb (../kspace.cpp:342)
  G vector (1/distance) = 0.11812186
  grid = 4 4 4
  stencil order = 5
  estimated absolute RMS force accuracy = 0.32660988
  estimated relative force accuracy = 0.00098357597
  using double precision KISS FFT
  3d grid and FFT values/proc = 294 4
Generated 36 of 36 mixed pair_coeff terms from sixthpower/sixthpower mixing rule
WARNING: Inconsistent image flags (../domain.cpp:815)
Per MPI rank memory allocation (min/avg/max) = 15.03 | 15.06 | 15.24 Mbytes
   Step          Temp          PotEng         E_vdwl         E_coul         E_bond        E_angle        E_dihed        E_impro        Density         Volume    
  25200104   200.61187      1445.053      -1377.3443      1706.9014      1526.1306      2548.636      -1460.6294      79.573697      1.1433296      51728.493    
  25220000   181.96585      1102.9438     -1364.061       1715.7541      1407.2662      2403.041      -1553.6363      72.512217      1.1512263      51373.667    
  25240000   180.58905      1129.8514     -1413.8103      1710.2139      1362.7501      2443.0338     -1467.3387      73.191235      1.151345       51368.371    
  25260000   180.16191      1110.2118     -1390.6703      1692.7165      1406.6353      2421.1887     -1510.3001      68.817963      1.1545048      51227.776    
  25280000   176.979        1126.6157     -1370.6753      1732.1577      1354.1048      2456.547      -1539.6701      71.965455      1.1539761      51251.248    
  25300000   178.87854      1116.1694     -1393.6564      1730.1374      1404.9245      2427.1525     -1550.1091      75.797956      1.1437658      51708.765    
  25320000   178.22631      1161.8157     -1363.1408      1724.7394      1429.9095      2410.215      -1538.2493      76.200049      1.1473394      51547.707    
  25340000   180.1447       1105.6947     -1397.2327      1708.8099      1410.1527      2421.07       -1533.669       74.756737      1.1572932      51104.348    
  25360000   182.86459      1112.6598     -1407.2051      1731.4191      1375.701       2401.6743     -1483.3432      72.479561      1.1484706      51496.933    
  25380000   181.03072      1140.1814     -1418.3432      1729.908       1408.908       2496.8934     -1570.262       71.260669      1.1483711      51501.396    
  25400000   182.5992       1092.4928     -1401.9192      1726.5698      1371.6727      2400.3618     -1502.4609      76.569688      1.1524803      51317.768    
  25420000   178.2006       1088.366      -1397.1625      1712.0147      1338.1742      2440.8589     -1504.9383      77.48003       1.1522761      51326.862    
  25440000   180.16158      1172.7125     -1382.5634      1721.1435      1437.0012      2427.9874     -1526.9843      74.36635       1.1479999      51518.048    
  25460000   183.3601       1097.8355     -1398.4594      1721.8761      1434.01        2416.2071     -1563.1432      65.543853      1.1486118      51490.603    
  25480000   180.03944      1129.6708     -1413.6283      1718.6629      1407.4358      2420.8368     -1499.6266      73.959914      1.1529289      51297.801    
  25500000   178.51414      1200.9824     -1413.9037      1723.1375      1467.217       2455.2871     -1529.8904      77.581973      1.1484719      51496.876    
  25520000   182.94084      1104.4993     -1377.8097      1702.0887      1384.4962      2490.3406     -1586.4711      70.120024      1.1519295      51342.304    
  25540000   183.69933      1127.4407     -1392.7904      1713.7534      1413.5636      2366.5019     -1469.8959      74.886448      1.1494364      51453.663    
  25560000   178.78702      1089.1986     -1397.6104      1716.3289      1392.7162      2448.7689     -1564.7722      71.812729      1.1485569      51493.067    
  25580000   179.92909      1092.2609     -1368.983       1702.0741      1394.9383      2392.9005     -1521.1513      70.247028      1.1501597      51421.308    
  25600000   182.7605       1180.2211     -1403.0589      1722.5484      1405.5559      2480.808      -1520.8316      73.554692      1.1528756      51300.172    
  25620000   179.76401      1128.0967     -1400.397       1722.5949      1416.7891      2423.5653     -1528.6988      72.490932      1.152585       51313.104    
  25640000   181.89431      1130.381      -1407.5194      1715.9199      1423.1175      2436.4757     -1530.9146      71.777763      1.1505958      51401.816    
  25660000   176.98078      1086.8945     -1431.2         1740.8157      1418.1734      2454.858      -1585.3218      67.723099      1.1507131      51396.576    
  25680000   182.38771      1167.4613     -1413.6325      1701.6612      1434.6758      2483.8985     -1532.4107      71.185033      1.147291       51549.881    
  25700000   180.70396      1167.3823     -1417.7744      1751.0507      1410.1616      2465.7911     -1535.4466      71.631961      1.1525573      51314.337    
  25720000   179.14285      1119.7533     -1390.4834      1720.7506      1367.4335      2463.1258     -1536.362       73.908408      1.1502457      51417.462    
  25740000   180.57009      1136.2987     -1392.9916      1708.309       1419.4689      2423.1133     -1518.9194      75.822925      1.1498665      51434.42     
  25760000   180.1567       1114.2288     -1364.6808      1713.6229      1434.3385      2489.5214     -1653.5415      73.02748       1.1493851      51455.963    
  25780000   178.43082      1170.4685     -1397.2816      1709.5363      1408.3985      2454.0395     -1500.9473      74.94382       1.1525943      51312.691    
  25800000   176.17265      1192.0488     -1390.1445      1726.2661      1405.0929      2447.9457     -1491.485       72.549676      1.1473195      51548.601    
  25820000   179.32197      1184.7989     -1368.8583      1713.1036      1460.6538      2467.3464     -1582.9972      73.816023      1.1456426      51624.052    
  25840000   183.57854      1154.8906     -1417.005       1711.9793      1403.2847      2483.108      -1524.9663      76.770377      1.1474132      51544.393    
  25860000   177.00082      1108.803      -1411.7851      1721.3354      1403.5603      2430.9211     -1528.391       71.531112      1.1477249      51530.394    
  25880000   179.51909      1183.1562     -1376.7257      1704.2653      1444.0845      2478.7813     -1558.7672      69.770557      1.1493836      51456.028    
  25900000   184.1758       1124.0706     -1403.944       1720.8139      1412.3634      2447.7278     -1549.7157      74.965598      1.1526103      51311.977    
  25920000   180.97338      1126.8437     -1410.5697      1726.1029      1418.7202      2462.0281     -1563.9223      72.990981      1.1485143      51494.975    
  25940000   175.06524      1067.3914     -1405.4796      1719.4246      1413.7478      2352.2547     -1512.7442      78.605375      1.1523903      51321.774    
  25960000   177.47443      1095.8123     -1405.2644      1696.7015      1432.414       2447.2764     -1570.722       73.719158      1.1451717      51645.284    
  25980000   182.63389      1141.6941     -1382.0646      1717.0252      1421.8901      2440.2561     -1552.2063      75.017405      1.1473611      51546.733    
  26000000   181.14457      1123.3101     -1404.2312      1714.9725      1398.9344      2391.4553     -1475.8017      75.980492      1.1544414      51230.592    
  26020000   184.14963      1159.5563     -1371.2357      1719.3656      1419.3618      2451.2655     -1554.6347      73.365859      1.1488092      51481.758    
  26040000   182.5644       1073.4995     -1414.26        1714.2521      1359.5877      2436.0965     -1518.792       74.555419      1.1491865      51464.852    
  26060000   177.47417      1112.3328     -1419.5878      1714.0899      1392.6777      2465.5462     -1538.4779      76.453804      1.1491647      51465.829    
  26080000   182.92046      1110.4891     -1402.2222      1711.7163      1425.609       2429.1223     -1546.6268      71.126132      1.1456899      51621.922    
  26100000   178.28925      1136.9992     -1417.3008      1722.3328      1410.4066      2476.5223     -1549.2757      72.606644      1.1446457      51669.013    
  26120000   181.91746      1092.3923     -1398.4744      1723.4874      1405.8467      2455.8176     -1584.0448      67.888556      1.1453825      51635.778    
  26140000   182.12001      1061.5141     -1383.5483      1723.4398      1383.8174      2410.0897     -1559.1781      64.735005      1.1499586      51430.298    
  26160000   178.57469      1115.9268     -1391.5241      1706.588       1383.6796      2459.9111     -1539.7069      75.042132      1.1479697      51519.406    
  26180000   178.50453      1164.2682     -1399.9155      1705.0499      1459.3683      2432.426      -1527.3673      72.883162      1.1521064      51334.423    
  26200000   179.41247      1076.1857     -1443.1487      1722.1463      1405.3555      2494.4584     -1594.3859      69.700165      1.1487708      51483.478    
  26220000   180.09629      1110.7432     -1384.0387      1726.2384      1361.8272      2396.9235     -1486.4475      74.441907      1.1490347      51471.653    
  26240000   181.18929      1086.2252     -1360.6727      1725.2816      1413.7738      2377.3184     -1562.9116      72.017051      1.146978       51563.949    
  26260000   179.35065      1196.6975     -1402.226       1716.8822      1442.4548      2477.1859     -1531.5698      71.985341      1.1472673      51550.948    
  26280000   180.85347      1060.69       -1428.8764      1700.6308      1380.6502      2408.5334     -1496.1668      73.769408      1.1511836      51375.571    
  26300000   179.82236      1180.5546     -1392.0253      1707.2104      1416.8014      2472.4838     -1517.5985      71.867754      1.1484547      51497.648    
  26320000   175.35946      1062.9132     -1399.9427      1712.7994      1377.1831      2406.8107     -1523.6168      68.021312      1.1511413      51377.458    
  26340000   176.63071      1115.3136     -1366.2079      1726.5129      1400.2217      2441.6962     -1577.7053      68.875595      1.1514219      51364.94     
  26360000   180.2444       1205.7094     -1354.5641      1718.7526      1470.9799      2410.6661     -1535.5816      73.962306      1.1498506      51435.13     
  26380000   182.9535       1129.7287     -1396.8487      1722.3734      1393.8676      2439.0434     -1527.3309      76.872695      1.1495406      51449.003    
  26400000   174.80427      1160.2686     -1400.9139      1697.8955      1427.5211      2485.4636     -1541.2408      69.411617      1.1465028      51585.32     
  26400104   181.13759      1112.5168     -1390.8986      1714.0397      1408.4924      2451.9207     -1563.6208      70.691396      1.1498787      51433.872    
Loop time of 3863.72 on 24 procs for 1200000 steps with 5001 atoms

Performance: 6.709 ns/day, 3.578 hours/ns, 310.582 timesteps/s, 1.553 Matom-step/s
99.5% CPU use with 24 MPI tasks x no OpenMP threads

MPI task timing breakdown:
Section |  min time  |  avg time  |  max time  |%varavg| %total
---------------------------------------------------------------
Pair    | 1890.3     | 2222.6     | 2545.4     | 392.9 | 57.53
Bond    | 500.85     | 599.03     | 670.16     | 175.3 | 15.50
Kspace  | 467.42     | 853.5      | 1259.2     | 715.6 | 22.09
Neigh   | 14.343     | 14.36      | 14.37      |   0.2 |  0.37
Comm    | 126.67     | 128.73     | 131.97     |  12.4 |  3.33
Output  | 0.0047199  | 0.0050422  | 0.011834   |   2.0 |  0.00
Modify  | 31.091     | 33.148     | 34.585     |  18.3 |  0.86
Other   |            | 12.33      |            |       |  0.32

Nlocal:        208.375 ave         226 max         188 min
Histogram: 2 1 1 2 3 4 4 5 1 1
Nghost:        4814.38 ave        4847 max        4783 min
Histogram: 3 4 2 1 0 5 3 1 1 4
Neighs:        73194.1 ave       82068 max       60470 min
Histogram: 2 0 2 3 3 2 1 5 3 3

Total # of neighbors = 1756659
Ave neighs/atom = 351.26155
Ave special neighs/atom = 5.6904619
Neighbor list builds = 4987
Dangerous builds = 0
