LAMMPS (22 Dec 2022)
WARNING: Using I/O redirection is unreliable with parallel runs. Better to use the -in switch to read input files. (../lammps.cpp:531)
# PREREQUISITES:
#
#     You must use moltemplate.sh to create 3 files:
#        system.data  system.in.init  system.in.settings
#     (Follow the instructions in README_setup.sh,
#      or run the file as a script using ./README_setup.sh)

# ------------------------------- Initialization Section --------------------

units real
atom_style full
boundary p p p

pair_style lj/class2/coul/cut 10.0
bond_style class2
angle_style class2
dihedral_style class2
improper_style class2


# ------------------------------- Atom Definition Section -------------------

read_data       "pack_mol.data" extra/bond/per/atom 1 extra/angle/per/atom 12 extra/dihedral/per/atom 12 extra/improper/per/atom 12 extra/special/per/atom 12
Reading data file ...
  orthogonal box = (0 0 0) to (42.862121 42.862121 42.862121)
  2 by 1 by 3 MPI processor grid
  reading atoms ...
  2996 atoms
  scanning bonds ...
  5 = max bonds/atom
  scanning angles ...
  18 = max angles/atom
  scanning dihedrals ...
  26 = max dihedrals/atom
  scanning impropers ...
  16 = max impropers/atom
  reading bonds ...
  3131 bonds
  reading angles ...
  5396 angles
  reading dihedrals ...
  7121 dihedrals
  reading impropers ...
  2556 impropers
Finding 1-2 1-3 1-4 neighbors ...
  special bond factors lj:    0        0        0       
  special bond factors coul:  0        0        0       
     4 = max # of 1-2 neighbors
     7 = max # of 1-3 neighbors
    15 = max # of 1-4 neighbors
    29 = max # of special neighbors
  special bonds CPU = 0.066 seconds
  read_data CPU = 0.321 seconds

include calc.pram

# Masses

mass		1    12.01115  # c
mass		2    12.01115  # c1
mass		3    12.01115  # c3h
mass		4    12.01115  # cp
mass		5     1.00797  # h
mass		6     1.00797  # hc
mass		7    15.99940  # o3e
mass		8    15.99940  # oc
mass		9    15.99940  # oh

# Potentials

pair_coeff	 1  1    0.05400    4.01000  # c,c
pair_coeff	 2  2    0.05400    4.01000  # c1,c1
pair_coeff	 3  3    0.05400    4.01000  # c3h,c3h
pair_coeff	 4  4    0.06400    4.01000  # cp,cp
pair_coeff	 5  5    0.02000    2.99500  # h,h
pair_coeff	 6  6    0.02000    2.99500  # hc,hc
pair_coeff	 7  7    0.24000    3.53500  # o3e,o3e
pair_coeff	 8  8    0.24000    3.53500  # oc,oc
pair_coeff	 9  9    0.24000    3.53500  # oh,oh

# Bond Coeffs

bond_coeff	 1    1.53000  299.67000 -501.77000  679.81000  # c,c
bond_coeff	 2    1.53000  299.67000 -501.77000  679.81000  # c,c1
bond_coeff	 3    1.53000  299.67000 -501.77000  679.81000  # c,c3h
bond_coeff	 4    1.10100  345.00000 -691.89000  844.60000  # c,hc
bond_coeff	 5    1.42000  400.39540 -835.19510 1313.01420  # c,o3e
bond_coeff	 6    1.42000  400.39540 -835.19510 1313.01420  # c,oc
bond_coeff	 7    1.42000  400.39540 -835.19510 1313.01420  # c,oh
bond_coeff	 8    1.10100  345.00000 -691.89000  844.60000  # c1,hc
bond_coeff	 9    1.42000  400.39540 -835.19510 1313.01420  # c1,oc
bond_coeff	10    1.10100  345.00000 -691.89000  844.60000  # c3h,hc
bond_coeff	11    1.42000  400.39540 -835.19510 1313.01420  # c3h,o3e
bond_coeff	12    1.41700  470.83610 -627.61790 1327.63450  # cp,cp
bond_coeff	13    1.09820  372.82510 -803.45260  894.31730  # cp,hc
bond_coeff	14    1.37680  428.87980 -738.23510 1114.96550  # cp,oc
bond_coeff	15    0.96000  493.84800    0.00000    0.00000  # h,oh

# Angle Coeffs

angle_coeff	 1  112.67000   39.51600   -7.44300   -9.55830  # c,c,c
angle_coeff	 2  110.77000   41.45300  -10.60400    5.12900  # c,c,hc
angle_coeff	 3  111.27000   54.53810   -8.36420  -13.08380  # c,c,oc
angle_coeff	 4  112.67000   39.51600   -7.44300   -9.55830  # c,c1,c
angle_coeff	 5  110.77000   41.45300  -10.60400    5.12900  # c,c1,hc
angle_coeff	 6  111.27000   54.53810   -8.36420  -13.08380  # c,c1,oc
angle_coeff	 7  112.67000   39.51600   -7.44300   -9.55830  # c,c3h,c
angle_coeff	 8  110.77000   41.45300  -10.60400    5.12900  # c,c3h,hc
angle_coeff	 9  111.27000   54.53810   -8.36420  -13.08380  # c,c3h,o3e
angle_coeff	10  104.50000   35.74540  -10.00670   -6.27290  # c,o3e,c3h
angle_coeff	11  104.50000   35.74540  -10.00670   -6.27290  # c,oc,c1
angle_coeff	12  102.96950   38.97390   -6.25950   -8.17100  # c,oc,cp
angle_coeff	13  109.00000   58.50000    0.00000    0.00000  # c,oh,h
angle_coeff	14  110.77000   41.45300  -10.60400    5.12900  # c1,c,hc
angle_coeff	15  111.27000   54.53810   -8.36420  -13.08380  # c1,c,oc
angle_coeff	16  111.27000   54.53810   -8.36420  -13.08380  # c1,c,oh
angle_coeff	17  110.77000   41.45300  -10.60400    5.12900  # c3h,c,hc
angle_coeff	18  111.27000   54.53810   -8.36420  -13.08380  # c3h,c,o3e
angle_coeff	19  111.27000   54.53810   -8.36420  -13.08380  # c3h,c,oc
angle_coeff	20  118.90000   61.02260  -34.99310    0.00000  # cp,cp,cp
angle_coeff	21  117.94000   35.15580  -12.46820    0.00000  # cp,cp,hc
angle_coeff	22  123.42000   73.67810  -21.67870    0.00000  # cp,cp,oc
angle_coeff	23  107.66000   39.64100  -12.92100   -2.43180  # hc,c,hc
angle_coeff	24  108.72800   58.54460  -10.80880  -12.40060  # hc,c,o3e
angle_coeff	25  108.72800   58.54460  -10.80880  -12.40060  # hc,c,oc
angle_coeff	26  108.72800   58.54460  -10.80880  -12.40060  # hc,c,oh
angle_coeff	27  108.72800   58.54460  -10.80880  -12.40060  # hc,c1,oc
angle_coeff	28  108.72800   58.54460  -10.80880  -12.40060  # hc,c3h,o3e

# BondBond Coeffs

angle_coeff	 1 bb    0.00000    1.53000    1.53000  # c,c,c
angle_coeff	 2 bb    3.38720    1.53000    1.10100  # c,c,hc
angle_coeff	 3 bb   11.43180    1.53000    1.42000  # c,c,oc
angle_coeff	 4 bb    0.00000    1.53000    1.53000  # c,c1,c
angle_coeff	 5 bb    3.38720    1.53000    1.10100  # c,c1,hc
angle_coeff	 6 bb   11.43180    1.53000    1.42000  # c,c1,oc
angle_coeff	 7 bb    0.00000    1.53000    1.53000  # c,c3h,c
angle_coeff	 8 bb    3.38720    1.53000    1.10100  # c,c3h,hc
angle_coeff	 9 bb   11.43180    1.53000    1.42000  # c,c3h,o3e
angle_coeff	10 bb   -7.11310    1.42000    1.42000  # c,o3e,c3h
angle_coeff	11 bb   -7.11310    1.42000    1.42000  # c,oc,c1
angle_coeff	12 bb    0.00000    1.42000    1.37680  # c,oc,cp
angle_coeff	13 bb    0.00000    1.42000    0.96000  # c,oh,h
angle_coeff	14 bb    3.38720    1.53000    1.10100  # c1,c,hc
angle_coeff	15 bb   11.43180    1.53000    1.42000  # c1,c,oc
angle_coeff	16 bb   11.43180    1.53000    1.42000  # c1,c,oh
angle_coeff	17 bb    3.38720    1.53000    1.10100  # c3h,c,hc
angle_coeff	18 bb   11.43180    1.53000    1.42000  # c3h,c,o3e
angle_coeff	19 bb   11.43180    1.53000    1.42000  # c3h,c,oc
angle_coeff	20 bb   68.28560    1.41700    1.41700  # cp,cp,cp
angle_coeff	21 bb    1.07950    1.41700    1.09820  # cp,cp,hc
angle_coeff	22 bb   48.47540    1.41700    1.37680  # cp,cp,oc
angle_coeff	23 bb    5.33160    1.10100    1.10100  # hc,c,hc
angle_coeff	24 bb   23.19790    1.10100    1.42000  # hc,c,o3e
angle_coeff	25 bb   23.19790    1.10100    1.42000  # hc,c,oc
angle_coeff	26 bb   23.19790    1.10100    1.42000  # hc,c,oh
angle_coeff	27 bb   23.19790    1.10100    1.42000  # hc,c1,oc
angle_coeff	28 bb   23.19790    1.10100    1.42000  # hc,c3h,o3e

# BondAngle Coeffs

angle_coeff	 1 ba    8.01600    8.01600    1.53000    1.53000  # c,c,c
angle_coeff	 2 ba   20.75400   11.42100    1.53000    1.10100  # c,c,hc
angle_coeff	 3 ba   20.40330    2.68680    1.53000    1.42000  # c,c,oc
angle_coeff	 4 ba    8.01600    8.01600    1.53000    1.53000  # c,c1,c
angle_coeff	 5 ba   20.75400   11.42100    1.53000    1.10100  # c,c1,hc
angle_coeff	 6 ba   20.40330    2.68680    1.53000    1.42000  # c,c1,oc
angle_coeff	 7 ba    8.01600    8.01600    1.53000    1.53000  # c,c3h,c
angle_coeff	 8 ba   20.75400   11.42100    1.53000    1.10100  # c,c3h,hc
angle_coeff	 9 ba    2.68680   20.40330    1.53000    1.42000  # c,c3h,o3e
angle_coeff	10 ba   -2.81120   -2.81120    1.42000    1.42000  # c,o3e,c3h
angle_coeff	11 ba   -2.81120   -2.81120    1.42000    1.42000  # c,oc,c1
angle_coeff	12 ba    0.00000    0.00000    1.42000    1.37680  # c,oc,cp
angle_coeff	13 ba    0.00000    0.00000    1.42000    0.96000  # c,oh,h
angle_coeff	14 ba   11.42100   20.75400    1.53000    1.10100  # c1,c,hc
angle_coeff	15 ba   20.40330    2.68680    1.53000    1.42000  # c1,c,oc
angle_coeff	16 ba   20.40330    2.68680    1.53000    1.42000  # c1,c,oh
angle_coeff	17 ba   11.42100   20.75400    1.53000    1.10100  # c3h,c,hc
angle_coeff	18 ba    2.68680   20.40330    1.53000    1.42000  # c3h,c,o3e
angle_coeff	19 ba   20.40330    2.68680    1.53000    1.42000  # c3h,c,oc
angle_coeff	20 ba   28.87080   28.87080    1.41700    1.41700  # cp,cp,cp
angle_coeff	21 ba   20.00330   24.21830    1.41700    1.09820  # cp,cp,hc
angle_coeff	22 ba   58.47900  107.68060    1.41700    1.37680  # cp,cp,oc
angle_coeff	23 ba   18.10300   18.10300    1.10100    1.10100  # hc,c,hc
angle_coeff	24 ba    4.61890   55.32700    1.10100    1.42000  # hc,c,o3e
angle_coeff	25 ba   55.32700    4.61890    1.10100    1.42000  # hc,c,oc
angle_coeff	26 ba    4.61890   55.32700    1.10100    1.42000  # hc,c,oh
angle_coeff	27 ba   55.32700    4.61890    1.10100    1.42000  # hc,c1,oc
angle_coeff	28 ba    4.61890   55.32700    1.10100    1.42000  # hc,c3h,o3e

# Dihedral Coeffs

dihedral_coeff	 1    0.00000    0.00000    0.03160    0.00000   -0.16810    0.00000  # c,c,c,hc
dihedral_coeff	 2    0.71370    0.00000    0.26600    0.00000   -0.25450    0.00000  # c,c,c,oc
dihedral_coeff	 3   -0.52030    0.00000   -0.30280    0.00000   -0.34500    0.00000  # c,c,oc,c1
dihedral_coeff	 4    0.00000    0.00000    0.00000    0.00000    0.13000  180.00000  # c,c,oc,cp
dihedral_coeff	 5    0.00000    0.00000    0.03160    0.00000   -0.16810    0.00000  # c,c1,c,hc
dihedral_coeff	 6    0.71370    0.00000    0.26600    0.00000   -0.25450    0.00000  # c,c1,c,oc
dihedral_coeff	 7    0.71370    0.00000    0.26600    0.00000   -0.25450    0.00000  # c,c1,c,oh
dihedral_coeff	 8   -0.52030    0.00000   -0.30280    0.00000   -0.34500    0.00000  # c,c1,oc,c
dihedral_coeff	 9    0.00000    0.00000    0.03160    0.00000   -0.16810    0.00000  # c,c3h,c,hc
dihedral_coeff	10    0.71370    0.00000    0.26600    0.00000   -0.25450    0.00000  # c,c3h,c,o3e
dihedral_coeff	11    0.71370    0.00000    0.26600    0.00000   -0.25450    0.00000  # c,c3h,c,oc
dihedral_coeff	12   -0.52030    0.00000   -0.30280    0.00000   -0.34500    0.00000  # c,c3h,o3e,c
dihedral_coeff	13    0.53020    0.00000    0.00000    0.00000   -0.39660    0.00000  # c,o3e,c3h,hc
dihedral_coeff	14    0.53020    0.00000    0.00000    0.00000   -0.39660    0.00000  # c,oc,c1,hc
dihedral_coeff	15    0.00000    0.00000    1.50000    0.00000    0.00000    0.00000  # c,oc,cp,cp
dihedral_coeff	16   -0.52030    0.00000   -0.30280    0.00000   -0.34500    0.00000  # c1,c,oc,c1
dihedral_coeff	17    0.00000    0.00000    0.00000    0.00000    0.13000  180.00000  # c1,c,oc,cp
dihedral_coeff	18    0.00000    0.00000    0.00000    0.00000    0.13000  180.00000  # c1,c,oh,h
dihedral_coeff	19    0.53020    0.00000    0.00000    0.00000   -0.39660    0.00000  # c1,oc,c,hc
dihedral_coeff	20    0.00000    0.00000    0.00000    0.00000    0.13000  180.00000  # c3h,c,oc,cp
dihedral_coeff	21    0.53020    0.00000    0.00000    0.00000   -0.39660    0.00000  # c3h,o3e,c,hc
dihedral_coeff	22    8.36670    0.00000    1.19320    0.00000    0.00000    0.00000  # cp,cp,cp,cp
dihedral_coeff	23    0.00000    0.00000    3.96610    0.00000    0.00000    0.00000  # cp,cp,cp,hc
dihedral_coeff	24    0.00000    0.00000    4.84980    0.00000    0.00000    0.00000  # cp,cp,cp,oc
dihedral_coeff	25    0.95130    0.00000    0.11550    0.00000    0.07200    0.00000  # cp,oc,c,hc
dihedral_coeff	26    0.00000    0.00000    0.00000    0.00000    0.13000  180.00000  # h,oh,c,hc
dihedral_coeff	27   -0.14320    0.00000    0.06170    0.00000   -0.10830    0.00000  # hc,c,c,hc
dihedral_coeff	28   -0.14350    0.00000    0.25300    0.00000   -0.09050    0.00000  # hc,c,c,oc
dihedral_coeff	29   -0.14320    0.00000    0.06170    0.00000   -0.10830    0.00000  # hc,c,c1,hc
dihedral_coeff	30   -0.14350    0.00000    0.25300    0.00000   -0.09050    0.00000  # hc,c,c1,oc
dihedral_coeff	31   -0.14320    0.00000    0.06170    0.00000   -0.10830    0.00000  # hc,c,c3h,hc
dihedral_coeff	32   -0.14350    0.00000    0.25300    0.00000   -0.09050    0.00000  # hc,c,c3h,o3e
dihedral_coeff	33   -0.14350    0.00000    0.25300    0.00000   -0.09050    0.00000  # hc,c1,c,oc
dihedral_coeff	34   -0.14350    0.00000    0.25300    0.00000   -0.09050    0.00000  # hc,c1,c,oh
dihedral_coeff	35   -0.14350    0.00000    0.25300    0.00000   -0.09050    0.00000  # hc,c3h,c,o3e
dihedral_coeff	36   -0.14350    0.00000    0.25300    0.00000   -0.09050    0.00000  # hc,c3h,c,oc
dihedral_coeff	37    0.00000    0.00000    1.87690    0.00000    0.00000    0.00000  # hc,cp,cp,hc
dihedral_coeff	38    0.00000    0.00000    1.72340    0.00000    0.00000    0.00000  # hc,cp,cp,oc
dihedral_coeff	39   -0.18200    0.00000   -0.10840    0.00000   -0.70470    0.00000  # o3e,c3h,c,oc
dihedral_coeff	40   -0.18200    0.00000   -0.10840    0.00000   -0.70470    0.00000  # oc,c,c1,oc
dihedral_coeff	41   -0.18200    0.00000   -0.10840    0.00000   -0.70470    0.00000  # oc,c1,c,oh

# MiddleBondTorsion Coeffs

dihedral_coeff	 1 mbt  -14.87900   -3.65810   -0.31380    1.53000  # c,c,c,hc
dihedral_coeff	 2 mbt  -21.88420   -7.67640   -0.68680    1.53000  # c,c,c,oc
dihedral_coeff	 3 mbt   -5.92880   -2.70070   -0.31750    1.42000  # c,c,oc,c1
dihedral_coeff	 4 mbt    0.00000    0.00000    0.00000    1.42000  # c,c,oc,cp
dihedral_coeff	 5 mbt  -14.87900   -3.65810   -0.31380    1.53000  # c,c1,c,hc
dihedral_coeff	 6 mbt  -21.88420   -7.67640   -0.68680    1.53000  # c,c1,c,oc
dihedral_coeff	 7 mbt  -21.88420   -7.67640   -0.68680    1.53000  # c,c1,c,oh
dihedral_coeff	 8 mbt   -5.92880   -2.70070   -0.31750    1.42000  # c,c1,oc,c
dihedral_coeff	 9 mbt  -14.87900   -3.65810   -0.31380    1.53000  # c,c3h,c,hc
dihedral_coeff	10 mbt  -21.88420   -7.67640   -0.68680    1.53000  # c,c3h,c,o3e
dihedral_coeff	11 mbt  -21.88420   -7.67640   -0.68680    1.53000  # c,c3h,c,oc
dihedral_coeff	12 mbt   -5.92880   -2.70070   -0.31750    1.42000  # c,c3h,o3e,c
dihedral_coeff	13 mbt   -6.80070   -4.65460   -1.41010    1.42000  # c,o3e,c3h,hc
dihedral_coeff	14 mbt   -6.80070   -4.65460   -1.41010    1.42000  # c,oc,c1,hc
dihedral_coeff	15 mbt    0.00000    0.00000    0.00000    1.37680  # c,oc,cp,cp
dihedral_coeff	16 mbt   -5.92880   -2.70070   -0.31750    1.42000  # c1,c,oc,c1
dihedral_coeff	17 mbt    0.00000    0.00000    0.00000    1.42000  # c1,c,oc,cp
dihedral_coeff	18 mbt    0.00000    0.00000    0.00000    1.42000  # c1,c,oh,h
dihedral_coeff	19 mbt   -6.80070   -4.65460   -1.41010    1.42000  # c1,oc,c,hc
dihedral_coeff	20 mbt    0.00000    0.00000    0.00000    1.42000  # c3h,c,oc,cp
dihedral_coeff	21 mbt   -6.80070   -4.65460   -1.41010    1.42000  # c3h,o3e,c,hc
dihedral_coeff	22 mbt   27.59890   -2.31200    0.00000    1.41700  # cp,cp,cp,cp
dihedral_coeff	23 mbt    0.00000   -1.15210    0.00000    1.41700  # cp,cp,cp,hc
dihedral_coeff	24 mbt    0.00000    4.82550    0.00000    1.41700  # cp,cp,cp,oc
dihedral_coeff	25 mbt    0.00000    0.00000    0.00000    1.42000  # cp,oc,c,hc
dihedral_coeff	26 mbt    0.00000    0.00000    0.00000    1.42000  # h,oh,c,hc
dihedral_coeff	27 mbt  -14.26100   -0.53220   -0.48640    1.53000  # hc,c,c,hc
dihedral_coeff	28 mbt  -16.79750   -1.22960   -0.27500    1.53000  # hc,c,c,oc
dihedral_coeff	29 mbt  -14.26100   -0.53220   -0.48640    1.53000  # hc,c,c1,hc
dihedral_coeff	30 mbt  -16.79750   -1.22960   -0.27500    1.53000  # hc,c,c1,oc
dihedral_coeff	31 mbt  -14.26100   -0.53220   -0.48640    1.53000  # hc,c,c3h,hc
dihedral_coeff	32 mbt  -16.79750   -1.22960   -0.27500    1.53000  # hc,c,c3h,o3e
dihedral_coeff	33 mbt  -16.79750   -1.22960   -0.27500    1.53000  # hc,c1,c,oc
dihedral_coeff	34 mbt  -16.79750   -1.22960   -0.27500    1.53000  # hc,c1,c,oh
dihedral_coeff	35 mbt  -16.79750   -1.22960   -0.27500    1.53000  # hc,c3h,c,o3e
dihedral_coeff	36 mbt  -16.79750   -1.22960   -0.27500    1.53000  # hc,c3h,c,oc
dihedral_coeff	37 mbt    0.00000    4.82280    0.00000    1.41700  # hc,cp,cp,hc
dihedral_coeff	38 mbt    0.00000    5.54320    0.00000    1.41700  # hc,cp,cp,oc
dihedral_coeff	39 mbt  -17.25850   -3.61570   -0.83640    1.53000  # o3e,c3h,c,oc
dihedral_coeff	40 mbt  -17.25850   -3.61570   -0.83640    1.53000  # oc,c,c1,oc
dihedral_coeff	41 mbt  -17.25850   -3.61570   -0.83640    1.53000  # oc,c1,c,oh

# EndBondTorsion Coeffs

dihedral_coeff	 1 ebt    0.24860    0.24220   -0.09250    0.08140    0.05910    0.22190    1.53000    1.10100  # c,c,c,hc
dihedral_coeff	 2 ebt    1.15380    0.84090   -0.91380   -0.31900    0.44110   -0.71740    1.53000    1.42000  # c,c,c,oc
dihedral_coeff	 3 ebt   -0.24560    1.05170   -0.77950    0.47410    1.26350    0.55760    1.53000    1.42000  # c,c,oc,c1
dihedral_coeff	 4 ebt    0.00000    0.00000    0.00000    0.00000    0.00000    0.00000    1.53000    1.37680  # c,c,oc,cp
dihedral_coeff	 5 ebt    0.24860    0.24220   -0.09250    0.08140    0.05910    0.22190    1.53000    1.10100  # c,c1,c,hc
dihedral_coeff	 6 ebt    1.15380    0.84090   -0.91380   -0.31900    0.44110   -0.71740    1.53000    1.42000  # c,c1,c,oc
dihedral_coeff	 7 ebt   -0.31900    0.44110   -0.71740    1.15380    0.84090   -0.91380    1.53000    1.42000  # c,c1,c,oh
dihedral_coeff	 8 ebt    0.47410    1.26350    0.55760   -0.24560    1.05170   -0.77950    1.53000    1.42000  # c,c1,oc,c
dihedral_coeff	 9 ebt    0.24860    0.24220   -0.09250    0.08140    0.05910    0.22190    1.53000    1.10100  # c,c3h,c,hc
dihedral_coeff	10 ebt   -0.31900    0.44110   -0.71740    1.15380    0.84090   -0.91380    1.53000    1.42000  # c,c3h,c,o3e
dihedral_coeff	11 ebt    1.15380    0.84090   -0.91380   -0.31900    0.44110   -0.71740    1.53000    1.42000  # c,c3h,c,oc
dihedral_coeff	12 ebt   -0.24560    1.05170   -0.77950    0.47410    1.26350    0.55760    1.53000    1.42000  # c,c3h,o3e,c
dihedral_coeff	13 ebt   -0.16200    0.15640   -1.14080   -0.60540    1.33390    0.96480    1.42000    1.10100  # c,o3e,c3h,hc
dihedral_coeff	14 ebt   -0.16200    0.15640   -1.14080   -0.60540    1.33390    0.96480    1.42000    1.10100  # c,oc,c1,hc
dihedral_coeff	15 ebt    0.00000    0.00000    0.00000    0.00000    0.00000    0.00000    1.42000    1.41700  # c,oc,cp,cp
dihedral_coeff	16 ebt    0.47410    1.26350    0.55760   -0.24560    1.05170   -0.77950    1.53000    1.42000  # c1,c,oc,c1
dihedral_coeff	17 ebt    0.00000    0.00000    0.00000    0.00000    0.00000    0.00000    1.53000    1.37680  # c1,c,oc,cp
dihedral_coeff	18 ebt    0.00000    0.00000    0.00000    0.00000    0.00000    0.00000    1.53000    0.96000  # c1,c,oh,h
dihedral_coeff	19 ebt   -0.60540    1.33390    0.96480   -0.16200    0.15640   -1.14080    1.42000    1.10100  # c1,oc,c,hc
dihedral_coeff	20 ebt    0.00000    0.00000    0.00000    0.00000    0.00000    0.00000    1.53000    1.37680  # c3h,c,oc,cp
dihedral_coeff	21 ebt   -0.60540    1.33390    0.96480   -0.16200    0.15640   -1.14080    1.42000    1.10100  # c3h,o3e,c,hc
dihedral_coeff	22 ebt   -0.11850    6.32040    0.00000   -0.11850    6.32040    0.00000    1.41700    1.41700  # cp,cp,cp,cp
dihedral_coeff	23 ebt    0.00000   -6.89580    0.00000    0.00000   -0.46690    0.00000    1.41700    1.09820  # cp,cp,cp,hc
dihedral_coeff	24 ebt    0.00000    0.26550    0.00000    0.00000    4.89050    0.00000    1.41700    1.37680  # cp,cp,cp,oc
dihedral_coeff	25 ebt    0.00000    0.00000    0.00000    0.00000    0.00000    0.00000    1.37680    1.10100  # cp,oc,c,hc
dihedral_coeff	26 ebt    0.00000    0.00000    0.00000    0.00000    0.00000    0.00000    0.96000    1.10100  # h,oh,c,hc
dihedral_coeff	27 ebt    0.21300    0.31200    0.07770    0.21300    0.31200    0.07770    1.10100    1.10100  # hc,c,c,hc
dihedral_coeff	28 ebt    0.59030    0.66690    0.85840    0.96810    0.95510    0.04360    1.10100    1.42000  # hc,c,c,oc
dihedral_coeff	29 ebt    0.21300    0.31200    0.07770    0.21300    0.31200    0.07770    1.10100    1.10100  # hc,c,c1,hc
dihedral_coeff	30 ebt    0.59030    0.66690    0.85840    0.96810    0.95510    0.04360    1.10100    1.42000  # hc,c,c1,oc
dihedral_coeff	31 ebt    0.21300    0.31200    0.07770    0.21300    0.31200    0.07770    1.10100    1.10100  # hc,c,c3h,hc
dihedral_coeff	32 ebt    0.96810    0.95510    0.04360    0.59030    0.66690    0.85840    1.10100    1.42000  # hc,c,c3h,o3e
dihedral_coeff	33 ebt    0.59030    0.66690    0.85840    0.96810    0.95510    0.04360    1.10100    1.42000  # hc,c1,c,oc
dihedral_coeff	34 ebt    0.96810    0.95510    0.04360    0.59030    0.66690    0.85840    1.10100    1.42000  # hc,c1,c,oh
dihedral_coeff	35 ebt    0.96810    0.95510    0.04360    0.59030    0.66690    0.85840    1.10100    1.42000  # hc,c3h,c,o3e
dihedral_coeff	36 ebt    0.59030    0.66690    0.85840    0.96810    0.95510    0.04360    1.10100    1.42000  # hc,c3h,c,oc
dihedral_coeff	37 ebt    0.00000   -0.68900    0.00000    0.00000   -0.68900    0.00000    1.09820    1.09820  # hc,cp,cp,hc
dihedral_coeff	38 ebt    0.00000    4.26410    0.00000    0.00000   -1.58670    0.00000    1.09820    1.37680  # hc,cp,cp,oc
dihedral_coeff	39 ebt    1.01650    0.75530   -0.46090    1.01650    0.75530   -0.46090    1.42000    1.42000  # o3e,c3h,c,oc
dihedral_coeff	40 ebt    1.01650    0.75530   -0.46090    1.01650    0.75530   -0.46090    1.42000    1.42000  # oc,c,c1,oc
dihedral_coeff	41 ebt    1.01650    0.75530   -0.46090    1.01650    0.75530   -0.46090    1.42000    1.42000  # oc,c1,c,oh

# AngleTorsion Coeffs

dihedral_coeff	 1 at   -0.24540    0.00000   -0.11360    0.31130    0.45160   -0.19880  112.67000  110.77000  # c,c,c,hc
dihedral_coeff	 2 at    0.96720   -0.75660   -1.23310    0.56230   -0.30410   -0.40150  112.67000  111.27000  # c,c,c,oc
dihedral_coeff	 3 at   -2.74660    1.48770   -0.89550    0.56760    0.94500    0.07030  111.27000  104.50000  # c,c,oc,c1
dihedral_coeff	 4 at    0.00000    0.00000    0.00000    0.00000    0.00000    0.00000  111.27000  102.96950  # c,c,oc,cp
dihedral_coeff	 5 at   -0.24540    0.00000   -0.11360    0.31130    0.45160   -0.19880  112.67000  110.77000  # c,c1,c,hc
dihedral_coeff	 6 at    0.96720   -0.75660   -1.23310    0.56230   -0.30410   -0.40150  112.67000  111.27000  # c,c1,c,oc
dihedral_coeff	 7 at    0.56230   -0.30410   -0.40150    0.96720   -0.75660   -1.23310  112.67000  111.27000  # c,c1,c,oh
dihedral_coeff	 8 at    0.56760    0.94500    0.07030   -2.74660    1.48770   -0.89550  111.27000  104.50000  # c,c1,oc,c
dihedral_coeff	 9 at   -0.24540    0.00000   -0.11360    0.31130    0.45160   -0.19880  112.67000  110.77000  # c,c3h,c,hc
dihedral_coeff	10 at    0.56230   -0.30410   -0.40150    0.96720   -0.75660   -1.23310  112.67000  111.27000  # c,c3h,c,o3e
dihedral_coeff	11 at    0.96720   -0.75660   -1.23310    0.56230   -0.30410   -0.40150  112.67000  111.27000  # c,c3h,c,oc
dihedral_coeff	12 at   -2.74660    1.48770   -0.89550    0.56760    0.94500    0.07030  111.27000  104.50000  # c,c3h,o3e,c
dihedral_coeff	13 at   -0.77770    0.43400   -0.66530   -1.82340    1.63930    0.51440  104.50000  108.72800  # c,o3e,c3h,hc
dihedral_coeff	14 at   -0.77770    0.43400   -0.66530   -1.82340    1.63930    0.51440  104.50000  108.72800  # c,oc,c1,hc
dihedral_coeff	15 at    0.00000    0.00000    0.00000    0.00000    0.00000    0.00000  102.96950  123.42000  # c,oc,cp,cp
dihedral_coeff	16 at    0.56760    0.94500    0.07030   -2.74660    1.48770   -0.89550  111.27000  104.50000  # c1,c,oc,c1
dihedral_coeff	17 at    0.00000    0.00000    0.00000    0.00000    0.00000    0.00000  111.27000  102.96950  # c1,c,oc,cp
dihedral_coeff	18 at    0.00000    0.00000    0.00000    0.00000    0.00000    0.00000  111.27000  109.00000  # c1,c,oh,h
dihedral_coeff	19 at   -1.82340    1.63930    0.51440   -0.77770    0.43400   -0.66530  104.50000  108.72800  # c1,oc,c,hc
dihedral_coeff	20 at    0.00000    0.00000    0.00000    0.00000    0.00000    0.00000  111.27000  102.96950  # c3h,c,oc,cp
dihedral_coeff	21 at   -1.82340    1.63930    0.51440   -0.77770    0.43400   -0.66530  104.50000  108.72800  # c3h,o3e,c,hc
dihedral_coeff	22 at    1.97670    1.02390    0.00000    1.97670    1.02390    0.00000  118.90000  118.90000  # cp,cp,cp,cp
dihedral_coeff	23 at    0.00000    2.50140    0.00000    0.00000    2.71470    0.00000  118.90000  117.94000  # cp,cp,cp,hc
dihedral_coeff	24 at    0.00000   10.01550    0.00000    0.00000    1.74040    0.00000  118.90000  123.42000  # cp,cp,cp,oc
dihedral_coeff	25 at    0.00000    0.00000    0.00000    0.00000    0.00000    0.00000  102.96950  108.72800  # cp,oc,c,hc
dihedral_coeff	26 at    0.00000    0.00000    0.00000    0.00000    0.00000    0.00000  109.00000  108.72800  # h,oh,c,hc
dihedral_coeff	27 at   -0.80850    0.55690   -0.24660   -0.80850    0.55690   -0.24660  110.77000  110.77000  # hc,c,c,hc
dihedral_coeff	28 at   -0.18920    0.49180    0.72730    2.36680    2.49200   -1.01220  110.77000  111.27000  # hc,c,c,oc
dihedral_coeff	29 at   -0.80850    0.55690   -0.24660   -0.80850    0.55690   -0.24660  110.77000  110.77000  # hc,c,c1,hc
dihedral_coeff	30 at   -0.18920    0.49180    0.72730    2.36680    2.49200   -1.01220  110.77000  111.27000  # hc,c,c1,oc
dihedral_coeff	31 at   -0.80850    0.55690   -0.24660   -0.80850    0.55690   -0.24660  110.77000  110.77000  # hc,c,c3h,hc
dihedral_coeff	32 at    2.36680    2.49200   -1.01220   -0.18920    0.49180    0.72730  110.77000  111.27000  # hc,c,c3h,o3e
dihedral_coeff	33 at   -0.18920    0.49180    0.72730    2.36680    2.49200   -1.01220  110.77000  111.27000  # hc,c1,c,oc
dihedral_coeff	34 at    2.36680    2.49200   -1.01220   -0.18920    0.49180    0.72730  110.77000  111.27000  # hc,c1,c,oh
dihedral_coeff	35 at    2.36680    2.49200   -1.01220   -0.18920    0.49180    0.72730  110.77000  111.27000  # hc,c3h,c,o3e
dihedral_coeff	36 at   -0.18920    0.49180    0.72730    2.36680    2.49200   -1.01220  110.77000  111.27000  # hc,c3h,c,oc
dihedral_coeff	37 at    0.00000    2.45010    0.00000    0.00000    2.45010    0.00000  117.94000  117.94000  # hc,cp,cp,hc
dihedral_coeff	38 at    0.00000    2.57060    0.00000    0.00000    1.87290    0.00000  117.94000  123.42000  # hc,cp,cp,oc
dihedral_coeff	39 at    0.55110    0.97370   -0.66730    0.55110    0.97370   -0.66730  111.27000  111.27000  # o3e,c3h,c,oc
dihedral_coeff	40 at    0.55110    0.97370   -0.66730    0.55110    0.97370   -0.66730  111.27000  111.27000  # oc,c,c1,oc
dihedral_coeff	41 at    0.55110    0.97370   -0.66730    0.55110    0.97370   -0.66730  111.27000  111.27000  # oc,c1,c,oh

# AngleAngleTorsion Coeffs

dihedral_coeff	 1 aat  -16.16400  112.67000  110.77000  # c,c,c,hc
dihedral_coeff	 2 aat  -29.04200  112.67000  111.27000  # c,c,c,oc
dihedral_coeff	 3 aat  -19.00590  111.27000  104.50000  # c,c,oc,c1
dihedral_coeff	 4 aat    0.00000  111.27000  102.96950  # c,c,oc,cp
dihedral_coeff	 5 aat  -16.16400  112.67000  110.77000  # c,c1,c,hc
dihedral_coeff	 6 aat  -29.04200  112.67000  111.27000  # c,c1,c,oc
dihedral_coeff	 7 aat  -29.04200  112.67000  111.27000  # c,c1,c,oh
dihedral_coeff	 8 aat  -19.00590  111.27000  104.50000  # c,c1,oc,c
dihedral_coeff	 9 aat  -16.16400  112.67000  110.77000  # c,c3h,c,hc
dihedral_coeff	10 aat  -29.04200  112.67000  111.27000  # c,c3h,c,o3e
dihedral_coeff	11 aat  -29.04200  112.67000  111.27000  # c,c3h,c,oc
dihedral_coeff	12 aat  -19.00590  111.27000  104.50000  # c,c3h,o3e,c
dihedral_coeff	13 aat  -16.44380  104.50000  108.72800  # c,o3e,c3h,hc
dihedral_coeff	14 aat  -16.44380  104.50000  108.72800  # c,oc,c1,hc
dihedral_coeff	15 aat    0.00000  102.96950  123.42000  # c,oc,cp,cp
dihedral_coeff	16 aat  -19.00590  111.27000  104.50000  # c1,c,oc,c1
dihedral_coeff	17 aat    0.00000  111.27000  102.96950  # c1,c,oc,cp
dihedral_coeff	18 aat    0.00000  111.27000  109.00000  # c1,c,oh,h
dihedral_coeff	19 aat  -16.44380  104.50000  108.72800  # c1,oc,c,hc
dihedral_coeff	20 aat    0.00000  111.27000  102.96950  # c3h,c,oc,cp
dihedral_coeff	21 aat  -16.44380  104.50000  108.72800  # c3h,o3e,c,hc
dihedral_coeff	22 aat    0.00000  118.90000  118.90000  # cp,cp,cp,cp
dihedral_coeff	23 aat   -4.81410  118.90000  117.94000  # cp,cp,cp,hc
dihedral_coeff	24 aat  -21.02470  118.90000  123.42000  # cp,cp,cp,oc
dihedral_coeff	25 aat    0.00000  102.96950  108.72800  # cp,oc,c,hc
dihedral_coeff	26 aat    0.00000  109.00000  108.72800  # h,oh,c,hc
dihedral_coeff	27 aat  -12.56400  110.77000  110.77000  # hc,c,c,hc
dihedral_coeff	28 aat  -20.20060  110.77000  111.27000  # hc,c,c,oc
dihedral_coeff	29 aat  -12.56400  110.77000  110.77000  # hc,c,c1,hc
dihedral_coeff	30 aat  -20.20060  110.77000  111.27000  # hc,c,c1,oc
dihedral_coeff	31 aat  -12.56400  110.77000  110.77000  # hc,c,c3h,hc
dihedral_coeff	32 aat  -20.20060  110.77000  111.27000  # hc,c,c3h,o3e
dihedral_coeff	33 aat  -20.20060  110.77000  111.27000  # hc,c1,c,oc
dihedral_coeff	34 aat  -20.20060  110.77000  111.27000  # hc,c1,c,oh
dihedral_coeff	35 aat  -20.20060  110.77000  111.27000  # hc,c3h,c,o3e
dihedral_coeff	36 aat  -20.20060  110.77000  111.27000  # hc,c3h,c,oc
dihedral_coeff	37 aat    0.35980  117.94000  117.94000  # hc,cp,cp,hc
dihedral_coeff	38 aat    4.22960  117.94000  123.42000  # hc,cp,cp,oc
dihedral_coeff	39 aat  -14.04840  111.27000  111.27000  # o3e,c3h,c,oc
dihedral_coeff	40 aat  -14.04840  111.27000  111.27000  # oc,c,c1,oc
dihedral_coeff	41 aat  -14.04840  111.27000  111.27000  # oc,c1,c,oh

# BondBond13 Coeffs

dihedral_coeff	 1 bb13    0.00000    1.53000    1.10100  # c,c,c,hc
dihedral_coeff	 2 bb13    0.00000    1.53000    1.42000  # c,c,c,oc
dihedral_coeff	 3 bb13    0.00000    1.53000    1.42000  # c,c,oc,c1
dihedral_coeff	 4 bb13    0.00000    1.53000    1.37680  # c,c,oc,cp
dihedral_coeff	 5 bb13    0.00000    1.53000    1.10100  # c,c1,c,hc
dihedral_coeff	 6 bb13    0.00000    1.53000    1.42000  # c,c1,c,oc
dihedral_coeff	 7 bb13    0.00000    1.53000    1.42000  # c,c1,c,oh
dihedral_coeff	 8 bb13    0.00000    1.53000    1.42000  # c,c1,oc,c
dihedral_coeff	 9 bb13    0.00000    1.53000    1.10100  # c,c3h,c,hc
dihedral_coeff	10 bb13    0.00000    1.53000    1.42000  # c,c3h,c,o3e
dihedral_coeff	11 bb13    0.00000    1.53000    1.42000  # c,c3h,c,oc
dihedral_coeff	12 bb13    0.00000    1.53000    1.42000  # c,c3h,o3e,c
dihedral_coeff	13 bb13    0.00000    1.42000    1.10100  # c,o3e,c3h,hc
dihedral_coeff	14 bb13    0.00000    1.42000    1.10100  # c,oc,c1,hc
dihedral_coeff	15 bb13    0.00000    1.42000    1.41700  # c,oc,cp,cp
dihedral_coeff	16 bb13    0.00000    1.53000    1.42000  # c1,c,oc,c1
dihedral_coeff	17 bb13    0.00000    1.53000    1.37680  # c1,c,oc,cp
dihedral_coeff	18 bb13    0.00000    1.53000    0.96000  # c1,c,oh,h
dihedral_coeff	19 bb13    0.00000    1.42000    1.10100  # c1,oc,c,hc
dihedral_coeff	20 bb13    0.00000    1.53000    1.37680  # c3h,c,oc,cp
dihedral_coeff	21 bb13    0.00000    1.42000    1.10100  # c3h,o3e,c,hc
dihedral_coeff	22 bb13   53.00000    1.41700    1.41700  # cp,cp,cp,cp
dihedral_coeff	23 bb13   -6.27410    1.41700    1.09820  # cp,cp,cp,hc
dihedral_coeff	24 bb13   -2.24360    1.41700    1.37680  # cp,cp,cp,oc
dihedral_coeff	25 bb13    0.00000    1.37680    1.10100  # cp,oc,c,hc
dihedral_coeff	26 bb13    0.00000    0.96000    1.10100  # h,oh,c,hc
dihedral_coeff	27 bb13    0.00000    1.10100    1.10100  # hc,c,c,hc
dihedral_coeff	28 bb13    0.00000    1.10100    1.42000  # hc,c,c,oc
dihedral_coeff	29 bb13    0.00000    1.10100    1.10100  # hc,c,c1,hc
dihedral_coeff	30 bb13    0.00000    1.10100    1.42000  # hc,c,c1,oc
dihedral_coeff	31 bb13    0.00000    1.10100    1.10100  # hc,c,c3h,hc
dihedral_coeff	32 bb13    0.00000    1.10100    1.42000  # hc,c,c3h,o3e
dihedral_coeff	33 bb13    0.00000    1.10100    1.42000  # hc,c1,c,oc
dihedral_coeff	34 bb13    0.00000    1.10100    1.42000  # hc,c1,c,oh
dihedral_coeff	35 bb13    0.00000    1.10100    1.42000  # hc,c3h,c,o3e
dihedral_coeff	36 bb13    0.00000    1.10100    1.42000  # hc,c3h,c,oc
dihedral_coeff	37 bb13   -1.70770    1.09820    1.09820  # hc,cp,cp,hc
dihedral_coeff	38 bb13    2.05170    1.09820    1.37680  # hc,cp,cp,oc
dihedral_coeff	39 bb13    0.00000    1.42000    1.42000  # o3e,c3h,c,oc
dihedral_coeff	40 bb13    0.00000    1.42000    1.42000  # oc,c,c1,oc
dihedral_coeff	41 bb13    0.00000    1.42000    1.42000  # oc,c1,c,oh

# Improper Coeffs

improper_coeff	 1    0.00000    0.00000  # c,c,c,hc
improper_coeff	 2    0.00000    0.00000  # c,c,hc,hc
improper_coeff	 3    0.00000    0.00000  # c,c,hc,oc
improper_coeff	 4    0.00000    0.00000  # c,c,oc,hc
improper_coeff	 5    0.00000    0.00000  # c,c1,hc,hc
improper_coeff	 6    0.00000    0.00000  # c,c1,hc,oc
improper_coeff	 7    0.00000    0.00000  # c,c1,hc,oh
improper_coeff	 8    0.00000    0.00000  # c,c1,oc,hc
improper_coeff	 9    0.00000    0.00000  # c,c3h,hc,hc
improper_coeff	10    0.00000    0.00000  # c,c3h,hc,oc
improper_coeff	11    0.00000    0.00000  # c,c3h,o3e,hc
improper_coeff	12    0.00000    0.00000  # c,hc,hc,o3e
improper_coeff	13    0.00000    0.00000  # c,hc,hc,oc
improper_coeff	14    0.00000    0.00000  # c,hc,hc,oh
improper_coeff	15    0.00000    0.00000  # c1,c,c,hc
improper_coeff	16    0.00000    0.00000  # c1,c,c,oc
improper_coeff	17    0.00000    0.00000  # c1,c,oc,hc
improper_coeff	18    0.00000    0.00000  # c3h,c,c,hc
improper_coeff	19    0.00000    0.00000  # c3h,c,c,o3e
improper_coeff	20    0.00000    0.00000  # c3h,c,o3e,hc
improper_coeff	21    4.89120    0.00000  # cp,cp,cp,hc
improper_coeff	22   13.04210    0.00000  # cp,cp,cp,oc

# AngleAngle Coeffs

improper_coeff	 1 aa   -1.31990   -1.31990    0.11840  112.67000  110.77000  110.77000  # c,c,c,hc
improper_coeff	 2 aa    0.27380   -0.48250    0.27380  110.77000  110.77000  107.66000  # c,c,hc,hc
improper_coeff	 3 aa    0.00000    0.00000    0.16890  110.77000  111.27000  108.72800  # c,c,hc,oc
improper_coeff	 4 aa    0.16890    0.00000    0.00000  111.27000  110.77000  108.72800  # c,c,oc,hc
improper_coeff	 5 aa    0.00000   -0.48250    0.00000  110.77000  110.77000  107.66000  # c,c1,hc,hc
improper_coeff	 6 aa    0.00000    0.00000    0.00000  110.77000  111.27000  108.72800  # c,c1,hc,oc
improper_coeff	 7 aa    0.00000    2.59260    0.00000  110.77000  111.27000  108.72800  # c,c1,hc,oh
improper_coeff	 8 aa    0.00000    0.00000    0.00000  111.27000  110.77000  108.72800  # c,c1,oc,hc
improper_coeff	 9 aa    0.00000   -0.48250    0.00000  110.77000  110.77000  107.66000  # c,c3h,hc,hc
improper_coeff	10 aa    0.00000    0.00000    0.00000  110.77000  111.27000  108.72800  # c,c3h,hc,oc
improper_coeff	11 aa    0.00000    2.59260    3.91770  111.27000  110.77000  108.72800  # c,c3h,o3e,hc
improper_coeff	12 aa    2.42590    2.42590    2.12830  107.66000  108.72800  108.72800  # c,hc,hc,o3e
improper_coeff	13 aa    0.00000    0.00000    2.12830  107.66000  108.72800  108.72800  # c,hc,hc,oc
improper_coeff	14 aa    2.42590    2.42590    2.12830  107.66000  108.72800  108.72800  # c,hc,hc,oh
improper_coeff	15 aa   -1.31990   -1.31990    0.11840  112.67000  110.77000  110.77000  # c1,c,c,hc
improper_coeff	16 aa    0.00000    0.00000   -3.57440  112.67000  111.27000  111.27000  # c1,c,c,oc
improper_coeff	17 aa    0.16890    0.00000    0.00000  111.27000  110.77000  108.72800  # c1,c,oc,hc
improper_coeff	18 aa   -1.31990   -1.31990    0.11840  112.67000  110.77000  110.77000  # c3h,c,c,hc
improper_coeff	19 aa   -0.83300   -0.83300   -3.57440  112.67000  111.27000  111.27000  # c3h,c,c,o3e
improper_coeff	20 aa    0.16890    2.59260    3.91770  111.27000  110.77000  108.72800  # c3h,c,o3e,hc
improper_coeff	21 aa    0.00000    0.00000    0.00000  118.90000  117.94000  117.94000  # cp,cp,cp,hc
improper_coeff	22 aa    0.00000    0.00000    0.00000  118.90000  123.42000  123.42000  # cp,cp,cp,oc

# ------------------------------- OPT Section -------------------------------
minimize 1.0e-5 1.0e-7 100000 400000
Generated 36 of 36 mixed pair_coeff terms from sixthpower/geometric mixing rule
Neighbor list info ...
  update: every = 1 steps, delay = 0 steps, check = yes
  max neighbors/atom: 2000, page size: 100000
  master list distance cutoff = 12
  ghost atom cutoff = 12
  binsize = 6, bins = 8 8 8
  1 neighbor lists, perpetual/occasional/extra = 1 0 0
  (1) pair lj/class2/coul/cut, perpetual
      attributes: half, newton on
      pair build: half/bin/newton
      stencil: half/bin/3d
      bin: standard
Per MPI rank memory allocation (min/avg/max) = 27.45 | 27.58 | 27.92 Mbytes
   Step          Temp          E_pair         E_mol          TotEng         Press     
         0   0             -656.27853      17824.832      17168.553     -1935.394     
        29   0             -797.36192      15414.777      14617.415      1737.5837    
Loop time of 2.29222 on 6 procs for 29 steps with 2996 atoms

99.6% CPU use with 6 MPI tasks x no OpenMP threads

Minimization stats:
  Stopping criterion = energy tolerance
  Energy initial, next-to-last, final = 
      17168.5533623642   14617.5170053104   14617.4154407734
  Force two-norm initial, final = 1959.6229 1383.6384
  Force max component initial, final = 153.29177 1055.308
  Final line search alpha, max atom move = 5.8979783e-07 0.00062241837
  Iterations, force evaluations = 29 94

MPI task timing breakdown:
Section |  min time  |  avg time  |  max time  |%varavg| %total
---------------------------------------------------------------
Pair    | 0.050558   | 0.1255     | 0.22979    |  17.1 |  5.48
Bond    | 0.079419   | 0.14796    | 0.24691    |  15.1 |  6.45
Neigh   | 0          | 0          | 0          |   0.0 |  0.00
Comm    | 0.707      | 0.95893    | 1.2152     |  17.7 | 41.83
Output  | 0          | 0          | 0          |   0.0 |  0.00
Modify  | 0          | 0          | 0          |   0.0 |  0.00
Other   |            | 1.06       |            |       | 46.24

Nlocal:        499.333 ave         708 max         313 min
Histogram: 2 0 0 0 1 1 0 0 1 1
Nghost:        3837.33 ave        4001 max        3693 min
Histogram: 1 0 2 0 1 0 0 1 0 1
Neighs:        72793.7 ave      126698 max       27846 min
Histogram: 2 0 0 1 0 0 2 0 0 1

Total # of neighbors = 436762
Ave neighs/atom = 145.78171
Ave special neighs/atom = 9.2216288
Neighbor list builds = 0
Dangerous builds = 0
# ------------------------------- Run Section -------------------------------
#

thermo_style custom step temp pe evdwl ecoul ebond eangle edihed eimp density vol
thermo          100

neigh_modify delay 0 every 1 check yes

fix Langevin  all langevin 300 300 100.0 482432
fix moveLimit all nve/limit 0.1
run 10000
Generated 36 of 36 mixed pair_coeff terms from sixthpower/geometric mixing rule
Per MPI rank memory allocation (min/avg/max) = 26.33 | 26.46 | 26.8 Mbytes
   Step          Temp          PotEng         E_vdwl         E_coul         E_bond        E_angle        E_dihed        E_impro        Density         Volume    
        29   0              14617.415     -565.38251     -231.97941      535.12863      15487.551     -546.23568     -61.666355      0.44999999     78744.633    
       100   183.69511      15481.881     -640.01096     -190.29867      1013.3767      15639.112     -290.93994     -49.358433      0.44999999     78744.633    
       200   266.94667      15964.558     -800.98204     -236.27011      1299.1398      15932.661     -201.59144     -28.399101      0.44999999     78744.633    
       300   288.03517      16100.536     -817.58354     -238.773        1337.5608      16010.493     -160.30057     -30.861385      0.44999999     78744.633    
       400   293.60587      16159.522     -844.21476     -300.67355      1430.6685      16066.193     -172.40005     -20.051326      0.44999999     78744.633    
       500   296.15343      16261.591     -830.46935     -219.83787      1439.7622      15963.897     -85.012077     -6.749036       0.44999999     78744.633    
       600   297.98456      16204.788     -844.02584     -309.23255      1380.304       16080.47      -93.409155     -9.318028       0.44999999     78744.633    
       700   301.12443      16193.723     -834.47106     -242.6928       1430.9768      15962.521     -97.351885     -25.259332      0.44999999     78744.633    
       800   306.30499      16193.4       -838.82461     -258.15934      1445.2701      15985.54      -124.18821     -16.238205      0.44999999     78744.633    
       900   307.39756      16273.12      -852.2658      -222.49847      1494.8135      16093.273     -235.63378     -4.5682912      0.44999999     78744.633    
      1000   307.01337      16177.627     -821.55402     -288.80675      1504.0348      16059.477     -264.89515     -10.629093      0.44999999     78744.633    
      1100   304.74948      16048.357     -828.39607     -408.39917      1448.7631      16046.01      -197.98196     -11.639299      0.44999999     78744.633    
      1200   302.15196      16041.006     -846.33775     -405.57453      1444.8026      16068.003     -200.44225     -19.445481      0.44999999     78744.633    
      1300   294.18235      16193.835     -836.12427     -307.615        1520.164       16146.306     -317.22207     -11.673392      0.44999999     78744.633    
      1400   296.17593      16024.621     -851.04058     -404.63798      1439.0413      16019.657     -166.00437     -12.393913      0.44999999     78744.633    
      1500   301.26779      16045.899     -865.98957     -388.99488      1425.9804      15994.164     -116.83112     -2.430396       0.44999999     78744.633    
      1600   298.37687      16081.615     -864.85553     -433.93781      1482.9123      16065.071     -145.32071     -22.25494       0.44999999     78744.633    
      1700   300.37203      16156.838     -847.50557     -314.27941      1458.9592      16031.657     -154.95966     -17.033017      0.44999999     78744.633    
      1800   295.859        16022.843     -870.26658     -315.52347      1388.967       15984.541     -149.15319     -15.721229      0.44999999     78744.633    
      1900   303.84604      16045.468     -847.8835      -330.49035      1425.3019      15938.654     -129.42756     -10.685843      0.44999999     78744.633    
      2000   301.02606      16028.878     -863.32877     -333.26003      1421.1791      16020.037     -214.12162     -1.6268609      0.44999999     78744.633    
      2100   302.83983      15988.078     -845.71019     -363.39199      1465.2975      15977.087     -231.61135     -13.593444      0.44999999     78744.633    
      2200   299.8666       15985.281     -884.65677     -382.48906      1396.153       16001.482     -137.67317     -7.5350439      0.44999999     78744.633    
      2300   301.8412       15931.894     -866.5728      -399.63086      1393.1842      15977.095     -171.26952     -0.91230297     0.44999999     78744.633    
      2400   306.59566      15958.839     -879.78245     -335.17089      1422.2713      15953.045     -186.17291     -15.350788      0.44999999     78744.633    
      2500   303.22285      15899.417     -880.52515     -461.53411      1456.6392      15984.212     -189.80554     -9.5695807      0.44999999     78744.633    
      2600   309.19115      15830.344     -890.61583     -475.06218      1384.4068      16014.378     -184.83718     -17.925815      0.44999999     78744.633    
      2700   305.2561       15957.665     -876.27114     -404.53875      1448.9737      15986.093     -183.32728     -13.264736      0.44999999     78744.633    
      2800   299.14989      16012.173     -872.03656     -379.14517      1417.12        16092.031     -236.25506     -9.5415945      0.44999999     78744.633    
      2900   295.14892      15946.422     -845.2912      -370.60314      1392.6103      15888.628     -104.55223     -14.369571      0.44999999     78744.633    
      3000   295.11386      15891.75      -898.94555     -438.39949      1424.8149      16025.692     -214.658       -6.7543548      0.44999999     78744.633    
      3100   305.52531      15866.298     -877.23924     -447.53476      1458.9817      15987.012     -241.03441     -13.887339      0.44999999     78744.633    
      3200   296.9159       15826.516     -874.7226      -468.13055      1382.8863      16045.67      -245.18411     -14.003319      0.44999999     78744.633    
      3300   305.85155      15976.65      -889.01173     -379.17961      1423.2039      16036.236     -201.07046     -13.528494      0.44999999     78744.633    
      3400   309.19936      15830.938     -858.72993     -428.11754      1423.6755      15960.025     -259.11836     -6.7965069      0.44999999     78744.633    
      3500   305.00112      15957.853     -859.39602     -366.61047      1455.6429      16005.017     -265.77454     -11.025976      0.44999999     78744.633    
      3600   299.85506      15893.538     -886.42593     -406.89118      1411.7211      16019.469     -238.51052     -5.8252817      0.44999999     78744.633    
      3700   303.86841      15847.28      -860.94766     -406.12957      1425.5206      15978.108     -267.53939     -21.731711      0.44999999     78744.633    
      3800   301.24928      15847.822     -911.86619     -441.37055      1424.4989      16004.244     -231.02363      3.3398245      0.44999999     78744.633    
      3900   296.79875      15833.849     -875.7752      -479.87671      1460.4535      15917.504     -162.26168     -26.194707      0.44999999     78744.633    
      4000   298.1313       15963.3       -879.67806     -373.60095      1507.9456      15981.095     -260.97744     -11.483746      0.44999999     78744.633    
      4100   297.14332      15861.905     -882.68465     -461.92169      1470.025       15992.231     -242.17823     -13.566285      0.44999999     78744.633    
      4200   307.13939      15896.729     -887.65392     -353.54723      1411.2353      15946.409     -205.75071     -13.962538      0.44999999     78744.633    
      4300   301.55075      16003.498     -872.8944      -266.25489      1451.4474      15992.075     -293.91387     -6.9612362      0.44999999     78744.633    
      4400   298.46446      15906.82      -881.32979     -356.8897       1407.2276      16023.067     -280.10158     -5.1527584      0.44999999     78744.633    
      4500   307.73979      15907.934     -904.2628      -346.01464      1496.5345      15978.189     -294.72826     -21.783231      0.44999999     78744.633    
      4600   309.1895       15850.03      -919.79187     -449.33101      1446.352       16023.376     -232.7994      -17.775954      0.44999999     78744.633    
      4700   302.7062       15880.799     -906.17557     -400.91528      1448.6122      15922.754     -172.27126     -11.20553       0.44999999     78744.633    
      4800   301.71156      15835.085     -913.81403     -434.69679      1443.2567      15983.44      -228.06925     -15.032457      0.44999999     78744.633    
      4900   304.74915      15862.226     -911.68892     -403.61071      1433.9561      16017.312     -264.08461     -9.6584439      0.44999999     78744.633    
      5000   301.69555      15920.008     -919.66217     -392.31428      1482.908       15971.938     -213.32195     -9.5396738      0.44999999     78744.633    
      5100   299.64781      15874.49      -880.66465     -459.55507      1430.8125      16043.238     -249.82991     -9.5115204      0.44999999     78744.633    
      5200   293.14294      15805.045     -911.74518     -460.14533      1432.5241      15957.511     -208.27263     -4.8260628      0.44999999     78744.633    
      5300   302.00301      15814.984     -902.52663     -434.07635      1492.5073      15896.041     -226.02103     -10.940623      0.44999999     78744.633    
      5400   307.49675      15747.815     -916.76428     -437.44569      1383.4775      15989.499     -261.53709     -9.4139035      0.44999999     78744.633    
      5500   299.88835      15766.198     -925.28313     -474.27928      1475.4335      15926.207     -218.57298     -17.307435      0.44999999     78744.633    
      5600   300.34366      15836.994     -925.61374     -443.21621      1437.5717      15971.629     -187.35259     -16.024135      0.44999999     78744.633    
      5700   300.68317      15819.428     -910.11031     -417.29929      1444.1301      15914.357     -203.00944     -8.6399365      0.44999999     78744.633    
      5800   302.18079      15730.347     -913.66506     -462.75358      1440.3786      15968.986     -281.50992     -21.08918       0.44999999     78744.633    
      5900   301.60356      15747.667     -930.69534     -472.57495      1382.0098      15937.188     -148.77072     -19.489992      0.44999999     78744.633    
      6000   293.153        15825.597     -930.25973     -425.87294      1406.0618      16044.121     -245.9199      -22.532715      0.44999999     78744.633    
      6100   306.68735      15851.269     -945.35939     -437.05114      1517.5834      15913.64      -190.51401     -7.0297851      0.44999999     78744.633    
      6200   302.4751       15912.678     -906.11269     -353.62336      1470.8616      15961.906     -251.91317     -8.4407843      0.44999999     78744.633    
      6300   300.07287      15940.551     -933.56546     -294.93284      1436.4177      15950.367     -207.05682     -10.678664      0.44999999     78744.633    
      6400   305.01613      15952.891     -927.74651     -238.40939      1500.5017      15929.329     -288.99538     -21.788756      0.44999999     78744.633    
      6500   300.02676      15876.782     -940.42693     -344.58991      1430.0582      15977.766     -231.31054     -14.714628      0.44999999     78744.633    
      6600   292.38222      15893.273     -928.98683     -353.56992      1419.1864      16048.219     -278.86101     -12.714312      0.44999999     78744.633    
      6700   302.19902      15832.485     -928.93726     -398.26066      1449.2179      16012.737     -279.9085      -22.363553      0.44999999     78744.633    
      6800   305.37953      15693.588     -954.13016     -486.68761      1439.385       15932.669     -220.48438     -17.164047      0.44999999     78744.633    
      6900   301.33758      15795.244     -953.28012     -455.3797       1436.995       15996.394     -221.83143     -7.6534938      0.44999999     78744.633    
      7000   290.84215      15779.794     -936.47331     -478.28882      1522.4361      15898.446     -219.33395     -6.9919571      0.44999999     78744.633    
      7100   294.04348      15792.098     -930.37801     -390.80303      1445.3316      15924.012     -237.79667     -18.26805       0.44999999     78744.633    
      7200   300.62163      15794.805     -930.76798     -442.45031      1483.2849      15946.407     -252.3641      -9.3045023      0.44999999     78744.633    
      7300   295.41739      15793.285     -938.58911     -471.92344      1478.2334      15990.615     -259.07087     -5.9803726      0.44999999     78744.633    
      7400   307.62343      15797.771     -956.72178     -418.65529      1439.1076      16002.206     -258.06703     -10.098917      0.44999999     78744.633    
      7500   305.06578      15764.413     -945.99699     -436.82573      1459.912       15945.068     -251.31158     -6.4330826      0.44999999     78744.633    
      7600   304.4849       15761.844     -956.08925     -413.54406      1400.2212      15938.804     -191.5401      -16.007697      0.44999999     78744.633    
      7700   303.98711      15792.045     -973.13437     -402.83427      1482.8106      15918.383     -228.41298     -4.7673317      0.44999999     78744.633    
      7800   305.43275      15871.747     -935.6703      -358.09518      1457.0769      15973.392     -259.9803      -4.9755113      0.44999999     78744.633    
      7900   299.72159      15853.155     -962.89745     -356.52739      1524.2003      15934.439     -274.82195     -11.237388      0.44999999     78744.633    
      8000   299.0375       15807.483     -934.52227     -410.96794      1486.861       15996.229     -320.95812     -9.1580425      0.44999999     78744.633    
      8100   305.18426      15782.162     -953.78714     -433.12327      1460.0348      16008.433     -298.85286     -0.54226172     0.44999999     78744.633    
      8200   301.47996      15850.208     -956.88704     -374.12344      1475.255       15941.643     -231.34946     -4.3304012      0.44999999     78744.633    
      8300   297.33994      15877.952     -924.04546     -349.8754       1422.8202      16004.429     -270.42029     -4.9559899      0.44999999     78744.633    
      8400   300.56099      15736.722     -940.62385     -395.81608      1438.4314      15897.412     -251.57035     -11.111273      0.44999999     78744.633    
      8500   300.07593      15786.542     -964.02089     -377.98047      1427.8432      15990.395     -280.14051     -9.5542793      0.44999999     78744.633    
      8600   306.33451      15740.691     -935.55008     -416.04648      1439.8733      15954.875     -304.54822      2.0874997      0.44999999     78744.633    
      8700   310.32177      15748.827     -953.38801     -461.81664      1480.3115      16031.823     -334.29281     -13.809554      0.44999999     78744.633    
      8800   295.5963       15703         -940.97795     -513.75977      1477.2834      15996.261     -311.78041     -4.0262935      0.44999999     78744.633    
      8900   295.08507      15719.62      -960.48992     -506.60189      1495.45        16019.41      -319.20906     -8.9388915      0.44999999     78744.633    
      9000   297.31846      15707.801     -965.59693     -426.93123      1502.4273      15880.224     -269.95323     -12.369288      0.44999999     78744.633    
      9100   296.84452      15740.35      -981.2877      -445.7029       1475.8646      16008.284     -306.69314     -10.11475       0.44999999     78744.633    
      9200   298.36816      15693.684     -963.54673     -470.10239      1446.5669      15899.712     -211.73738     -7.2077308      0.44999999     78744.633    
      9300   300.24757      15738.401     -953.88645     -417.70586      1434.2369      15931.602     -235.70967     -20.135728      0.44999999     78744.633    
      9400   304.08522      15628.028     -980.27083     -500.34866      1428.2409      15934.867     -241.55579     -12.905044      0.44999999     78744.633    
      9500   306.85887      15612.639     -971.63984     -547.62777      1449.3621      15957.364     -255.2971      -19.522327      0.44999999     78744.633    
      9600   295.48645      15623.407     -987.6195      -541.137        1390.0862      16021.123     -253.75097     -5.2941571      0.44999999     78744.633    
      9700   295.65334      15572.783     -992.21777     -553.22019      1425.8122      15930.013     -225.61674     -11.987657      0.44999999     78744.633    
      9800   299.81362      15723.65      -990.78969     -437.40972      1421.4571      15959.05      -221.26288     -7.3943547      0.44999999     78744.633    
      9900   297.38328      15657.245     -969.45845     -465.5478       1404.4478      15949.495     -256.82411     -4.8678213      0.44999999     78744.633    
     10000   303.55283      15525.703     -969.50038     -599.16186      1461.8032      15913.828     -268.81278     -12.454156      0.44999999     78744.633    
     10029   301.08606      15645.183     -978.15363     -526.0922       1451.0807      15994.46      -289.37076     -6.7412035      0.44999999     78744.633    
Loop time of 155.066 on 6 procs for 10000 steps with 2996 atoms

Performance: 5.572 ns/day, 4.307 hours/ns, 64.489 timesteps/s, 193.208 katom-step/s
99.6% CPU use with 6 MPI tasks x no OpenMP threads

MPI task timing breakdown:
Section |  min time  |  avg time  |  max time  |%varavg| %total
---------------------------------------------------------------
Pair    | 3.654      | 10.49      | 16.232     | 153.3 |  6.76
Bond    | 6.2565     | 14.394     | 21.485     | 163.4 |  9.28
Neigh   | 2.893      | 3.138      | 3.4407     |  11.1 |  2.02
Comm    | 71.865     | 92.677     | 107.28     | 129.3 | 59.77
Output  | 1.9066     | 2.0192     | 2.101      |   5.6 |  1.30
Modify  | 0.18605    | 0.33231    | 0.4482     |  18.6 |  0.21
Other   |            | 32.02      |            |       | 20.65

Nlocal:        499.333 ave         724 max         312 min
Histogram: 2 0 0 1 0 1 0 0 1 1
Nghost:        3868.83 ave        4100 max        3724 min
Histogram: 1 2 0 0 1 0 1 0 0 1
Neighs:        76225.8 ave      140172 max       30697 min
Histogram: 2 0 0 1 1 1 0 0 0 1

Total # of neighbors = 457355
Ave neighs/atom = 152.65521
Ave special neighs/atom = 9.2216288
Neighbor list builds = 228
Dangerous builds = 0
unfix Langevin
unfix moveLimit


fix 		relax all npt temp 300.0 300.0 100 iso 1.0 1.0 1000
run 20000
Generated 36 of 36 mixed pair_coeff terms from sixthpower/geometric mixing rule
Per MPI rank memory allocation (min/avg/max) = 26.33 | 26.63 | 27.45 Mbytes
   Step          Temp          PotEng         E_vdwl         E_coul         E_bond        E_angle        E_dihed        E_impro        Density         Volume    
     10029   301.08606      15645.183     -978.15363     -526.0922       1451.0807      15994.46      -289.37076     -6.7412035      0.44999999     78744.633    
     10100   301.51007      15658.12      -949.33242     -516.83884      1450.4792      15994.542     -312.27073     -8.4586185      0.45084587     78596.893    
     10200   305.2745       15709.457     -966.79367     -431.27949      1416.1919      15948.008     -252.46503     -4.2042925      0.45367101     78107.446    
     10300   297.77762      15798.144     -968.2111      -343.67383      1464.935       15948.781     -285.0875      -18.600226      0.45887082     77222.352    
     10400   297.79133      15719.798     -992.84453     -358.26655      1457.3709      15957.407     -335.35446     -8.5139867      0.46509296     76189.251    
     10500   297.74277      15790.893     -1022.0985     -293.03313      1421.5698      15948.737     -253.90946     -10.372574      0.47147141     75158.5      
     10600   304.12096      15665.328     -995.33455     -407.58744      1393.3416      15929.267     -245.22696     -9.1318624      0.47765571     74185.408    
     10700   308.75254      15816.485     -1042.8553     -278.45003      1465.7132      15972.438     -285.53778     -14.822867      0.48195089     73524.264    
     10800   305.89361      15723.934     -1044.864      -354.326        1429.0185      15958.625     -250.22975     -14.289496      0.48665478     72813.594    
     10900   301.39904      15605.614     -1069.13       -457.86877      1401.8074      15929.885     -189.04095     -10.038365      0.49099127     72170.497    
     11000   303.02238      15629.68      -1072.0859     -389.35674      1420.2121      15926.56      -235.55355     -20.095458      0.49634099     71392.62     
     11100   298.64308      15777.862     -1092.455      -247.30703      1379.074       16013.299     -261.51423     -13.234358      0.50079817     70757.215    
     11200   299.39891      15616.818     -1085.5312     -377.79705      1393.9684      15977.861     -278.26446     -13.418371      0.50531203     70125.155    
     11300   298.61183      15544.003     -1104.7934     -384.73679      1434.4649      15908.837     -289.34909     -20.41918       0.50995179     69487.125    
     11400   295.7354       15551.15      -1125.6206     -380.11822      1435.2366      15951.293     -314.20694     -15.434032      0.51428319     68901.891    
     11500   302.18492      15615.966     -1114.3786     -346.8131       1427.6773      15921.023     -259.47283     -12.06908       0.51888557     68290.748    
     11600   306.02638      15516.417     -1128.085      -444.6855       1372.8168      15942.895     -213.2172      -13.307585      0.52289693     67766.861    
     11700   307.42084      15481.542     -1119.3931     -420.74319      1436.5065      15964.952     -358.65635     -21.12402       0.52687167     67255.626    
     11800   302.46523      15624.828     -1128.9269     -263.54665      1434.9187      15901.237     -307.98731     -10.8662        0.5307151      66768.562    
     11900   299.17647      15527.979     -1142.4341     -360.57151      1417.6915      15986.599     -363.75217     -9.5538976      0.53368752     66396.689    
     12000   294.54878      15387.176     -1111.7771     -531.40101      1402.0997      15985.915     -340.39777     -17.263004      0.53660709     66035.438    
     12100   297.39073      15511.524     -1154.504      -415.5738       1429.682       16100.005     -438.55639     -9.5283751      0.53927199     65709.112    
     12200   305.62807      15482.24      -1149.6679     -351.35295      1376.0431      15910.574     -288.63386     -14.722808      0.54245143     65323.976    
     12300   297.45406      15325.707     -1146.7838     -517.36138      1409.5049      15918.93      -325.3373      -13.244564      0.54511792     65004.438    
     12400   294.51151      15289.479     -1159.3172     -570.15691      1348.8872      16000.097     -315.55543     -14.475365      0.54800538     64661.927    
     12500   296.12475      15383.181     -1143.0368     -550.56437      1370.9952      15979.335     -267.84238     -5.7057663      0.5518827      64207.637    
     12600   305.49316      15282.095     -1154.1329     -622.77851      1441.6805      15925.154     -293.7432      -14.084785      0.55581007     63753.944    
     12700   303.6814       15363.219     -1141.1995     -530.36429      1383.4096      15997.077     -333.02864     -12.675651      0.5600864      63267.174    
     12800   291.58584      15407.575     -1186.6479     -528.34556      1408.3192      15960.504     -230.94051     -15.314685      0.56526695     62687.344    
     12900   300.68155      15294.627     -1182.3375     -545.50716      1402.9118      15934.713     -300.75222     -14.400039      0.5709282      62065.745    
     13000   302.23096      15402.155     -1200.9291     -432.67158      1360.4651      16025.08      -334.3417      -15.447913      0.57684449     61429.18     
     13100   302.26141      15456.967     -1219.6886     -364.3629       1397.1145      15919.146     -261.95092     -13.29126       0.5828178      60799.591    
     13200   296.9406       15437.005     -1225.8819     -431.86792      1364.8767      16041.574     -302.35933     -9.3364148      0.58829898     60233.121    
     13300   305.15708      15453.686     -1221.8148     -366.49562      1394.4137      15934.963     -269.4552      -17.925401      0.593514       59703.872    
     13400   309.75603      15439.91      -1255.1136     -387.18504      1352.0961      16016.697     -276.30079     -10.284031      0.59757617     59298.021    
     13500   310.01136      15414.12      -1218.0072     -390.65541      1423.2242      15935.643     -321.16797     -14.916163      0.60192948     58869.162    
     13600   299.21906      15301.9       -1269.0174     -491.89664      1391.4431      16003.826     -325.0402      -7.4153138      0.60505616     58564.951    
     13700   301.01323      15220.712     -1244.761      -533.79642      1369.7627      15933.91      -282.06727     -22.336006      0.60964501     58124.127    
     13800   303.87541      15192.553     -1302.7981     -510.6495       1427.1997      15960.291     -358.57561     -22.91503       0.61475574     57640.916    
     13900   294.29534      15327.339     -1297.2583     -413.88465      1376.0462      15985.087     -309.63294     -13.01847       0.61978556     57173.136    
     14000   296.19179      15349.866     -1272.1321     -321.39128      1350.9801      15920.511     -309.41965     -18.682449      0.62496369     56699.428    
     14100   294.60882      15172.94      -1326.9124     -472.31563      1371.4818      15954.183     -338.27208     -15.224837      0.62867329     56364.863    
     14200   298.64015      15111.575     -1322.0415     -533.47868      1381.1467      15956.302     -364.88705     -5.466968       0.6319436      56073.175    
     14300   301.55476      15124.777     -1328.9119     -572.07699      1427.5553      15971.025     -353.96936     -18.844445      0.63393592     55896.949    
     14400   306.30368      15137.748     -1360.4254     -533.58899      1365.9896      15952.152     -279.07519     -7.3047652      0.63569786     55742.022    
     14500   300.59895      15130.075     -1355.1047     -532.549        1382.1376      15935.256     -284.29732     -15.367898      0.63727042     55604.47     
     14600   296.27932      15157.279     -1360.8552     -489.97242      1380.8019      15947.779     -296.96206     -23.512444      0.63867617     55482.082    
     14700   296.18853      15368.757     -1345.9418     -312.8211       1325.9925      15975.886     -254.8222      -19.536417      0.63921562     55435.26     
     14800   300.97242      15195.246     -1371.4242     -481.72251      1374.2885      15914.338     -210.36352     -29.86955       0.63955963     55405.442    
     14900   298.35141      15259.451     -1376.6192     -474.19259      1374.2483      16038.905     -290.40074     -12.490218      0.64141256     55245.385    
     15000   304.32189      15318.296     -1368.353      -362.03536      1447.0705      15971.415     -344.59106     -25.209744      0.6441989      55006.433    
     15100   300.55501      15230.047     -1358.974      -420.24896      1334.7633      16010.135     -319.41174     -16.216926      0.64666163     54796.948    
     15200   294.97117      15169.376     -1334.9236     -476.73866      1371.0538      15983.307     -360.89337     -12.42954       0.64900923     54598.737    
     15300   299.1709       15082.786     -1369.0277     -559.05782      1381.8177      15925.838     -277.03625     -19.74858       0.64994441     54520.176    
     15400   302.22067      15276.92      -1373.2361     -433.98778      1372.3246      16032.198     -318.79436     -1.5848168      0.65079053     54449.293    
     15500   303.95214      15185.994     -1376.6227     -510.32471      1393.6368      15943.917     -252.41827     -12.194055      0.65232728     54321.022    
     15600   301.54634      15148.943     -1332.1873     -548.07906      1369.0381      15955.778     -281.4367      -14.169585      0.65478306     54117.289    
     15700   296.61716      15042.504     -1373.4509     -635.98151      1311.9386      16030.544     -282.79317     -7.7535171      0.6580107      53851.836    
     15800   295.33905      15196.602     -1392.7731     -506.66974      1366.9818      15947.253     -200.53863     -17.650564      0.66194364     53531.875    
     15900   309.50575      15187.522     -1391.596      -496.57415      1360.3056      15941.743     -210.6222      -15.734636      0.6658207      53220.16     
     16000   304.00157      15324.331     -1403.6849     -404.52313      1362.0675      16042.761     -252.34299     -19.945642      0.66907516     52961.291    
     16100   303.2677       15217.543     -1411.9518     -474.08125      1375.0958      16009.9       -267.28874     -14.131119      0.67178073     52747.991    
     16200   305.85743      15207.756     -1407.4257     -421.68808      1355.2906      15990.538     -287.93111     -21.027633      0.67422835     52556.502    
     16300   300.1266       15142.777     -1393.7367     -530.26316      1334.1353      16008.953     -253.00082     -23.310802      0.6768434      52353.445    
     16400   297.0177       15248.712     -1380.5238     -466.80206      1335.6689      16026.428     -238.99979     -27.059315      0.67913076     52177.115    
     16500   299.57596      15254.208     -1398.7821     -467.66244      1331.8813      15962.12      -152.6182      -20.730861      0.68009862     52102.862    
     16600   305.48397      15178.902     -1400.5295     -484.33803      1374.0964      15948.028     -239.59173     -18.763641      0.68083795     52046.282    
     16700   298.25647      15224.142     -1381.334      -480.00973      1380.1523      15991.754     -274.08492     -12.335991      0.68295047     51885.291    
     16800   295.81345      15410.94      -1410.373      -315.30091      1443.8749      15944.23      -238.70591     -12.785557      0.68666672     51604.488    
     16900   307.50091      15193.171     -1419.7747     -448.03546      1370.8397      15910.656     -199.89654     -20.617881      0.69121925     51264.608    
     17000   300.89753      15284.206     -1413.0011     -400.24502      1374.4287      15938.65      -198.42575     -17.200861      0.69617017     50900.033    
     17100   297.06369      15333.655     -1417.1687     -314.1871       1416.8747      15968.626     -295.86125     -24.629287      0.70053682     50582.757    
     17200   292.61336      15123.726     -1425.3913     -485.30662      1360.7949      15955.093     -262.9854      -18.479011      0.70495274     50265.9      
     17300   295.18572      15012.676     -1432.5024     -638.36847      1370.0943      15964.034     -243.23329     -7.3473642      0.70810546     50042.1      
     17400   303.29845      15071.75      -1411.917      -568.2336       1413.7252      15913.087     -271.03007     -3.880616       0.71157333     49798.218    
     17500   298.78212      15108.306     -1429.4873     -549.8247       1398.5023      16018.85      -317.99909     -11.735434      0.71348152     49665.034    
     17600   300.05061      15166.422     -1417.0535     -475.27632      1372.9836      15921.827     -212.27478     -23.783446      0.71597764     49491.886    
     17700   298.7693       15275.988     -1443.4224     -438.22085      1384.1461      16045.04      -266.9869      -4.5687783      0.71732528     49398.906    
     17800   309.34099      15266.704     -1437.8725     -405.56978      1427.576       15977.528     -271.10983     -23.847474      0.71837742     49326.556    
     17900   304.8597       15205.042     -1422.8893     -458.09864      1391.5552      15973.744     -262.04057     -17.229015      0.72001415     49214.427    
     18000   296.92849      15201.328     -1432.7239     -472.83268      1343.4976      15975.155     -194.9955      -16.772125      0.72322949     48995.629    
     18100   293.8277       15188.27      -1431.5148     -494.14738      1418.9998      15996.437     -282.42712     -19.077876      0.72753747     48705.511    
     18200   302.64704      15168.12      -1428.3228     -423.78634      1397.8048      15924.94      -282.80662     -19.708908      0.73256389     48371.322    
     18300   298.66541      15208.167     -1446.3302     -400.12619      1345.8231      15995.793     -271.86089     -15.131865      0.73751415     48046.65     
     18400   294.70262      15140.959     -1456.3576     -468.27857      1406.3957      15991.159     -308.97771     -22.981523      0.74197966     47757.487    
     18500   300.58829      14933.682     -1448.4003     -598.63427      1348.2566      15964.34      -297.6114      -34.268093      0.74652305     47466.832    
     18600   297.79772      15006.496     -1460.0011     -597.15513      1412.4293      15970.034     -299.80324     -19.007997      0.75187638     47128.87     
     18700   304.3313       14950.139     -1451.154      -653.37133      1387.8599      15999.184     -320.81077     -11.569093      0.75663035     46832.755    
     18800   302.23344      15075.414     -1446.7264     -526.65751      1396.8985      16042.192     -383.33045     -6.9629401      0.76122788     46549.903    
     18900   294.06578      15058.821     -1462.5732     -525.60778      1389.7573      15954.796     -287.74324     -9.8083203      0.76562974     46282.272    
     19000   294.28621      15034.066     -1459.9173     -525.28199      1329.0372      15994.024     -282.43408     -21.36213       0.77005266     46016.443    
     19100   298.42941      15035.004     -1476.9862     -532.80831      1382.1674      16018.719     -341.9913      -14.096527      0.77365125     45802.4      
     19200   301.64806      15084.82      -1479.754      -485.14871      1444.1962      15966.532     -349.04186     -11.963538      0.77720977     45592.69     
     19300   301.53246      15055.792     -1448.1231     -537.4567       1378.0381      15971.834     -290.55839     -17.942569      0.77890497     45493.463    
     19400   306.27922      15081.616     -1498.1013     -504.79266      1440.2349      16009.831     -353.92924     -11.62583       0.77970217     45446.948    
     19500   301.84839      15203.892     -1475.5155     -411.22549      1441.9668      15933.295     -269.0404      -15.588661      0.78271474     45272.028    
     19600   299.37676      15070.708     -1489.5519     -471.91423      1398.4419      15927.512     -279.60411     -14.1758        0.78572658     45098.492    
     19700   295.922        15117.527     -1497.2615     -429.79209      1389.4724      15960.826     -296.37748     -9.3406088      0.78910776     44905.254    
     19800   301.91955      14996.386     -1488.9776     -522.66964      1418.1912      15886.84      -286.0499      -10.947566      0.79567071     44534.86     
     19900   302.06892      15034.756     -1477.55       -507.05884      1364.6562      15959.878     -297.65065     -7.5187799      0.80337353     44107.856    
     20000   302.04119      15092.203     -1501.7739     -506.7917       1393.4936      15947.429     -229.8819      -10.27139       0.80709503     43904.476    
     20100   307.18912      15055.325     -1510.3655     -436.45914      1405.5539      15899.336     -279.6367      -23.103516      0.80884335     43809.576    
     20200   292.12464      14952.378     -1517.8739     -596.42881      1381.8797      15962.565     -262.84143     -14.922287      0.80815499     43846.891    
     20300   293.33823      15004.63      -1515.7828     -537.47692      1398.959       15884.072     -209.39204     -15.748877      0.80762423     43875.707    
     20400   298.31621      15047.412     -1537.6945     -514.7853       1380.8147      16015.957     -275.25752     -21.622675      0.80703283     43907.86     
     20500   296.27904      15047.653     -1477.2933     -559.61306      1390.3863      15991.607     -276.79633     -20.637409      0.80931823     43783.87     
     20600   302.21649      15072.938     -1519.7085     -473.18625      1423.755       15982.609     -321.86488     -18.666338      0.81184396     43647.654    
     20700   305.2199       15036.907     -1551.2545     -438.20696      1393.9757      15980.457     -324.48792     -23.57606       0.81567534     43442.633    
     20800   295.8631       14916.59      -1523.1776     -514.51361      1331.6056      15936.409     -297.01223     -16.720992      0.82119483     43150.642    
     20900   294.74601      14980.44      -1520.6185     -489.73913      1367.2478      15876.206     -231.12553     -21.530802      0.82643899     42876.83     
     21000   299.89268      14889.701     -1515.035      -605.18944      1319.7149      15995.981     -294.13467     -11.636065      0.83126487     42627.91     
     21100   300.60238      14987.059     -1513.8944     -551.15334      1422.7844      15962.43      -314.07745     -19.029851      0.83363092     42506.921    
     21200   301.0347       14968.24      -1530.8392     -568.66267      1362.6752      16037.778     -313.96038     -18.750449      0.83504736     42434.82     
     21300   295.34914      15035.056     -1510.3283     -515.00601      1443.4085      15970.15      -340.41287     -12.75503       0.83572136     42400.596    
     21400   289.69917      14971.446     -1546.0574     -517.98829      1387.6956      15998.604     -322.64649     -28.161076      0.83525703     42424.167    
     21500   291.66867      14850.27      -1556.7249     -611.00723      1409.2684      15934.627     -314.2391      -11.654131      0.83604345     42384.261    
     21600   299.16852      14944.734     -1532.8161     -539.01533      1367.3232      15933.846     -265.32446     -19.279462      0.83735817     42317.715    
     21700   295.8499       15134.108     -1547.4721     -431.65723      1318.1518      15993.972     -189.85283     -9.0341658      0.83844712     42262.754    
     21800   297.31301      15146.715     -1534.0948     -412.20338      1421.3972      15970.421     -290.84348     -7.9611556      0.84023196     42172.978    
     21900   301.21669      15181.968     -1519.391      -365.92298      1408.9335      15970.409     -300.15794     -11.902671      0.84317365     42025.844    
     22000   302.09606      15192.834     -1518.1804     -378.20221      1389.1532      15945.161     -228.884       -16.214176      0.84481258     41944.314    
     22100   302.44162      15001.471     -1511.6127     -552.33966      1402.0964      15992.116     -310.15597     -18.632783      0.84667545     41852.028    
     22200   297.06477      15081.568     -1507.4773     -433.01471      1462.2518      15928.488     -344.16299     -24.517489      0.84940844     41717.367    
     22300   294.00664      15021.687     -1542.5435     -489.0148       1387.3098      15927.721     -260.39928     -1.3867716      0.85202953     41589.033    
     22400   298.4184       14920.858     -1529.2145     -588.28565      1346.4792      15976.757     -272.85585     -12.022308      0.85617436     41387.696    
     22500   304.07889      15105.198     -1538.6026     -431.73345      1360.9721      15995.523     -274.72119     -6.239932       0.8608994      41160.54     
     22600   306.32913      15316.61      -1566.2626     -189.8022       1380.883       15976.665     -284.91602      0.042637887    0.86611421     40912.715    
     22700   297.14336      15083.418     -1546.4732     -451.6007       1439.4242      15911.316     -258.00299     -11.245632      0.87325643     40578.097    
     22800   305.2028       14816.022     -1558.5904     -601.43398      1367.4519      15921.371     -292.94842     -19.827569      0.87955407     40287.556    
     22900   294.98051      14868.104     -1613.4988     -631.67502      1423.9646      15937.882     -231.15944     -17.409225      0.88519854     40030.663    
     23000   303.34355      14854.798     -1610.3875     -582.71684      1336.4583      15971.66      -242.72469     -17.491923      0.8911519      39763.237    
     23100   303.48354      14867.038     -1615.505      -625.95938      1379.1683      15974.663     -234.77235     -10.556667      0.89522095     39582.501    
     23200   307.26176      14693.421     -1595.9472     -763.30455      1425.2869      15913.177     -257.56113     -28.229681      0.89881193     39424.359    
     23300   295.5149       14875.336     -1615.2742     -606.17009      1363.4297      15991.188     -245.83657     -12.001812      0.8994652      39395.726    
     23400   302.21258      14909.774     -1585.714      -474.03805      1324.3903      15888.597     -223.40402     -20.057472      0.90028105     39360.024    
     23500   296.05225      14983.395     -1601.0845     -472.05721      1399.4298      15963.785     -295.33547     -11.342154      0.90238039     39268.455    
     23600   307.18688      14969.144     -1599.7363     -488.61342      1352.7085      15944.451     -232.55637     -7.1098894      0.90437448     39181.871    
     23700   307.06694      15023.545     -1603.9873     -508.19924      1419.2068      15981.037     -239.69121     -24.820981      0.90506611     39151.929    
     23800   307.48969      14831.607     -1615.1655     -613.65626      1336.2133      15969.745     -234.34966     -11.179453      0.90424652     39187.416    
     23900   297.7986       14933.1       -1608.8814     -529.21253      1370.832       15928.951     -214.4878      -14.101776      0.90558769     39129.379    
     24000   299.98495      14979.254     -1577.0059     -459.34602      1387.2607      15955.289     -311.41715     -15.526282      0.90796688     39026.846    
     24100   303.57373      14860.363     -1608.4426     -592.76126      1429.9703      15941.508     -296.61413     -13.297201      0.91038566     38923.157    
     24200   304.33372      14956.951     -1609.7451     -548.55038      1388.5455      16004.261     -265.11883     -12.44136       0.91426766     38757.888    
     24300   305.62787      15034.44      -1617.1107     -483.59084      1405.0108      16006.073     -259.94157     -16.001268      0.91734412     38627.908    
     24400   302.39562      14965.076     -1632.0898     -469.95511      1369.4534      15942.992     -219.38771     -25.936145      0.9189323      38561.147    
     24500   297.38146      14932.934     -1610.6997     -492.13799      1366.4677      15924.204     -242.27023     -12.628954      0.92107366     38471.498    
     24600   296.41796      14858.995     -1623.8288     -569.41618      1330.2677      15934.954     -194.33023     -18.65178       0.92241322     38415.629    
     24700   299.83891      14947.726     -1630.0789     -506.97026      1365.7291      15940.736     -216.27524     -5.4145603      0.92351021     38369.997    
     24800   306.63883      14988.884     -1618.8802     -478.43003      1377.1118      15964.638     -238.21445     -17.340326      0.92235996     38417.847    
     24900   308.06598      14900.936     -1618.3922     -546.28476      1444.4138      15944.416     -305.42141     -17.795555      0.92087127     38479.954    
     25000   292.50479      14973.063     -1616.3839     -487.48763      1360.6034      15942.576     -217.87872     -8.3660329      0.92080702     38482.639    
     25100   297.05757      14885.401     -1621.4632     -539.23763      1392.3416      15969.105     -301.80531     -13.539888      0.92235077     38418.23     
     25200   296.33681      14871.121     -1591.4846     -619.83944      1371.8098      15996.203     -272.88165     -12.686727      0.92516246     38301.472    
     25300   305.36346      14877.434     -1641.485      -581.32036      1380.5629      15957.613     -233.99631     -3.9401638      0.9274423      38207.319    
     25400   295.98848      14898.93      -1636.5059     -580.1602       1343.0193      15993.49      -195.08215     -25.830875      0.93090872     38065.047    
     25500   296.68362      14844.479     -1643.3239     -574.79715      1388.7763      15962.83      -276.20548     -12.801231      0.93319238     37971.896    
     25600   296.69955      14654.43      -1627.6044     -780.58795      1405.8056      15922.417     -247.52668     -18.073908      0.93381518     37946.571    
     25700   298.12326      14773.04      -1620.9472     -665.56077      1413.1011      15957.223     -294.67898     -16.096656      0.93455049     37916.714    
     25800   300.70982      14811.973     -1635.875      -650.83306      1369.0236      16058.022     -309.84645     -18.517842      0.93482247     37905.683    
     25900   308.02474      14984.243     -1647.2298     -443.19097      1383.5902      15973.036     -262.99273     -18.969873      0.93467323     37911.735    
     26000   301.66185      14836.383     -1619.7739     -576.33006      1372.9549      15995.345     -314.17639     -21.636707      0.93415019     37932.962    
     26100   295.85598      14711.087     -1631.1749     -686.01792      1404.7352      15934.062     -286.16992     -24.347643      0.93328186     37968.255    
     26200   296.50647      14641.897     -1640.5633     -733.97363      1381.8768      15942.662     -292.18587     -15.918355      0.93551823     37877.492    
     26300   296.30488      14730.118     -1649.843      -672.54616      1368.5607      15975.143     -285.87877     -5.3174428      0.94060331     37672.719    
     26400   310.61643      14697.798     -1657.0772     -684.70469      1403.2617      15914.541     -265.9368      -12.286574      0.94625345     37447.773    
     26500   302.166        14866.863     -1628.0587     -585.36435      1426.8766      15896.925     -216.26809     -27.24698       0.95112301     37256.047    
     26600   299.67903      14738.321     -1646.0936     -669.2561       1418.4806      15907.628     -261.75358     -10.684658      0.95232765     37208.921    
     26700   298.33169      14748.886     -1660.2778     -645.78523      1418.713       15927.651     -273.86724     -17.547539      0.94939338     37323.922    
     26800   297.41421      14698.387     -1655.828      -693.93968      1378.1592      15964.652     -271.47556     -23.181968      0.94561559     37473.033    
     26900   295.4523       14690.832     -1672.556      -758.96889      1437.0886      15975.256     -279.83327     -10.155185      0.94291766     37580.253    
     27000   308.08851      14800.522     -1647.9868     -640.42705      1427.5354      15953.995     -276.91391     -15.680631      0.94293838     37579.427    
     27100   310.08321      14967.455     -1654.578      -440.64406      1383.6175      15940.464     -252.06602     -9.3390141      0.94186502     37622.253    
     27200   295.49797      15110.681     -1648.5072     -364.35684      1411.3483      15999.733     -276.73543     -10.800495      0.94048577     37677.427    
     27300   296.68009      14902.094     -1643.4667     -524.78356      1371.8445      15973.421     -264.49623     -10.425053      0.93936169     37722.513    
     27400   296.14864      14800.554     -1670.9056     -642.37692      1395.4222      15974.328     -240.87725     -15.037008      0.93936386     37722.426    
     27500   301.48385      14677.164     -1664.52       -750.00224      1389.7636      15984.277     -264.65323     -17.700963      0.94083984     37663.248    
     27600   297.72233      14832.775     -1659.2785     -636.86807      1407.6321      15982.908     -249.1005      -12.518115      0.94444156     37519.615    
     27700   301.44054      14733.82      -1676.9575     -641.84147      1392.0923      15941.458     -259.75498     -21.176329      0.94799879     37378.828    
     27800   300.96671      14795.867     -1660.4423     -516.18038      1379.1556      15894.064     -290.23617     -10.49309       0.95160345     37237.238    
     27900   287.46329      14930.671     -1683.5262     -485.88655      1379.6045      15976.945     -243.97788     -12.488018      0.95493366     37107.378    
     28000   303.27647      14874.217     -1676.7234     -496.39254      1412.1267      15974.157     -323.52344     -15.427126      0.95701849     37026.541    
     28100   304.36796      14867.141     -1713.6336     -515.19446      1355.5768      15994.842     -243.24157     -11.208415      0.95691577     37030.515    
     28200   300.37835      14724.399     -1698.6683     -666.41739      1411.6107      15958.886     -265.40537     -15.60655       0.95920438     36942.162    
     28300   297.81111      14759.251     -1722.8559     -600.46934      1355.8479      15959.782     -217.9628      -15.091348      0.96223756     36825.713    
     28400   296.01659      14749.905     -1728.6204     -580.88874      1374.5766      15968.525     -259.49842     -24.18869       0.96602113     36681.479    
     28500   293.43482      14643.902     -1707.3886     -628.65082      1386.2625      15918.09      -309.59248     -14.818468      0.96848452     36588.178    
     28600   286.46814      14673.841     -1721.3458     -651.29712      1363.7617      15924.513     -234.6745      -7.1163314      0.97010555     36527.04     
     28700   296.01983      14654.284     -1710.937      -702.94753      1466.3884      15932.574     -313.23609     -17.5576        0.97190437     36459.435    
     28800   302.36231      14691.21      -1688.5111     -654.98305      1360.1156      15937.964     -250.96252     -12.413704      0.97093059     36496.001    
     28900   301.99664      14718.82      -1724.5595     -663.73113      1427.0316      15961.92      -279.13374     -2.7076295      0.96941993     36552.874    
     29000   302.1851       14647.233     -1718.4424     -690.10962      1363.9177      15913.836     -209.05891     -12.909315      0.97110193     36489.562    
     29100   299.22418      14532.749     -1713.0862     -765.79174      1351.8443      15886.321     -212.95324     -13.585321      0.97360727     36395.665    
     29200   290.65444      14597.821     -1728.663      -780.458        1398.9018      15930.594     -210.13698     -12.416053      0.97663235     36282.931    
     29300   305.91971      14695.516     -1750.7602     -667.89451      1485.0482      15890.826     -253.81148     -7.8927529      0.98010336     36154.436    
     29400   305.85228      14781.013     -1720.3865     -614.22957      1444.694       15946.187     -260.59721     -14.654445      0.98295495     36049.55     
     29500   303.2538       14732.897     -1745.7062     -625.59575      1415.7101      15935.091     -243.0514      -3.5512301      0.98239127     36070.235    
     29600   297.1113       14612.633     -1708.8119     -730.28685      1382.4502      15882.267     -195.30774     -17.677564      0.98127305     36111.339    
     29700   295.61984      14585.539     -1741.4542     -752.85955      1391.0671      15982.874     -277.76913     -16.319592      0.97798158     36232.875    
     29800   299.17753      14698.669     -1727.9715     -661.91023      1414.1297      15921.595     -231.36455     -15.809508      0.97312285     36413.783    
     29900   306.02129      14762.729     -1716.8366     -579.8954       1411.2133      15955.656     -294.64665     -12.761082      0.97031398     36519.193    
     30000   303.49038      14831.48      -1712.3355     -519.02788      1398.6775      15961.586     -287.41221     -10.007682      0.9685089      36587.257    
     30029   300.1182       14878.233     -1691.8955     -507.4251       1447.5812      15930.657     -292.24853     -8.4360108      0.96812854     36601.632    
Loop time of 438.461 on 6 procs for 20000 steps with 2996 atoms

Performance: 3.941 ns/day, 6.090 hours/ns, 45.614 timesteps/s, 136.660 katom-step/s
99.6% CPU use with 6 MPI tasks x no OpenMP threads

MPI task timing breakdown:
Section |  min time  |  avg time  |  max time  |%varavg| %total
---------------------------------------------------------------
Pair    | 20.902     | 35.057     | 48.901     | 169.2 |  8.00
Bond    | 16.947     | 27.373     | 39.155     | 139.0 |  6.24
Neigh   | 7.3182     | 7.884      | 8.5603     |  15.7 |  1.80
Comm    | 142.75     | 158.3      | 172.95     |  90.6 | 36.10
Output  | 2.3818     | 2.5959     | 2.702      |   7.0 |  0.59
Modify  | 145.9      | 177.55     | 193.46     | 137.8 | 40.49
Other   |            | 29.7       |            |       |  6.77

Nlocal:        499.333 ave         519 max         471 min
Histogram: 1 0 1 0 0 1 0 1 0 2
Nghost:        6137.33 ave        6182 max        6090 min
Histogram: 1 0 1 1 0 0 1 0 1 1
Neighs:         145571 ave      161911 max      140287 min
Histogram: 3 2 0 0 0 0 0 0 0 1

Total # of neighbors = 873428
Ave neighs/atom = 291.53138
Ave special neighs/atom = 9.2216288
Neighbor list builds = 548
Dangerous builds = 0
unfix relax

molecule 	pre1 cleaned_pre-mol
Read molecule template pre1:
  1 molecules
  0 fragments
  24 atoms with max type 8
  23 bonds with max type 14
  40 angles with max type 28
  48 dihedrals with max type 39
  24 impropers with max type 20
molecule	post1 cleaned_post-mol
Read molecule template post1:
  1 molecules
  0 fragments
  24 atoms with max type 8
  23 bonds with max type 14
  40 angles with max type 27
  51 dihedrals with max type 40
  24 impropers with max type 17

fix		fxrct all bond/react stabilization yes statted_grp .03 		 react rxn1 all 100 0.0 4.0 pre1 post1 semi.map stabilize_steps 100 molecule inter
dynamic group bond_react_MASTER_group defined
dynamic group statted_grp_REACT defined
fix 		npt statted_grp_REACT npt temp 500.0 500.0 100 iso 1.0 1.0 1000
fix 		reacted bond_react_MASTER_group temp/rescale 1 300.0 300.0 1 1


thermo_style custom step temp pe evdwl ecoul ebond eangle edihed eimp density vol f_fxrct[*]
thermo     100


compute 1 all property/local btype batom1 batom2

dump DumpPos all custom 100 dump.pos id type x y z mol
dump DumpBond all local 100 bonds.dump index c_1[*]

run 200000

CITE-CITE-CITE-CITE-CITE-CITE-CITE-CITE-CITE-CITE-CITE-CITE-CITE

Your simulation uses code contributions which should be cited:

- fix bond/react: reacter.org doi:10.1016/j.polymer.2017.09.038, doi:10.1021/acs.macromol.0c02012

@Article{Gissinger17,
 author = {J. R. Gissinger and B. D. Jensen and K. E. Wise},
 title = {Modeling Chemical Reactions in Classical Molecular Dynamics Simulations},
 journal = {Polymer},
 year =    2017,
 volume =  128,
 pages =   {211--217}
}

@Article{Gissinger20,
 author = {J. R. Gissinger, B. D. Jensen, K. E. Wise},
 title = {{REACTER}: A Heuristic Method for Reactive Molecular Dynamics},
 journal = {Macromolecules},
 year =    2020,
 volume =  53,
 number =  22,
 pages =   {9953--9961}
}

CITE-CITE-CITE-CITE-CITE-CITE-CITE-CITE-CITE-CITE-CITE-CITE-CITE

Generated 36 of 36 mixed pair_coeff terms from sixthpower/geometric mixing rule
Neighbor list info ...
  update: every = 1 steps, delay = 0 steps, check = yes
  max neighbors/atom: 2000, page size: 100000
  master list distance cutoff = 12
  ghost atom cutoff = 12
  binsize = 6, bins = 6 6 6
  2 neighbor lists, perpetual/occasional/extra = 1 1 0
  (1) pair lj/class2/coul/cut, perpetual
      attributes: half, newton on
      pair build: half/bin/newton
      stencil: half/bin/3d
      bin: standard
  (2) fix bond/react, occasional, copy from (1)
      attributes: half, newton on
      pair build: copy
      stencil: none
      bin: none
Per MPI rank memory allocation (min/avg/max) = 28.71 | 28.84 | 29.37 Mbytes
   Step          Temp          PotEng         E_vdwl         E_coul         E_bond        E_angle        E_dihed        E_impro        Density         Volume       f_fxrct[1]  
     30029   300.1182       14878.233     -1691.8955     -507.4251       1447.5812      15930.657     -292.24853     -8.4360108      0.96812854     36601.632      0            
     30100   315.92748      319622.3       2142.0238     -597.94464      302238.28      16079.297     -245.45171      6.0983637      0.96809561     36602.876      2            
     30200   376.98271      15409.312     -1740.4661     -220.55156      1553.3123      16204.403     -409.95169      22.565684      1.074291       32984.625      2            
     30300   415.49055      543093.26      2344.4295     -506.82179      525403.37      16082.333     -230.44969      0.40045925     1.0682908      33169.887      4            
     30400   495.8441       16181.657     -1452.6094     -301.84542      1861.1756      16478.797     -443.13025      39.27021       1.1926417      29711.426      4            
     30500   509.91433      39917.954      2286.853      -384.97603      21858.488      16054.542      78.876452      24.170426      1.1709287      30262.377      5            
     30600   502.8205       241419.49      176.66558     -673.08067      225754.26      16201.754     -69.964746      29.847852      1.1568759      30629.979      6            
     30700   515.60008      16373.76      -1314.336      -301.56922      1750.6836      16096.401      107.8019       34.779047      1.229445       28822.016      6            
     30800   495.3344       15790.18      -1442.6175     -478.09418      1726.079       15923.191      51.655004      9.9669834      1.2044852      29419.278      6            
     30900   481.2255       15753.325     -1545.3549     -333.37161      1837.6422      15769.751      13.523491      11.135087      1.1765283      30118.343      6            
     31000   476.72251      15874.417     -1571.6287     -318.90084      1807.4249      15935.335     -20.306657      42.49274       1.1518729      30763.017      6            
     31100   505.23097      81367.042      481.91648     -509.72041      65367.105      15900.836      91.106009      35.798687      1.1289386      31387.964      7            
     31200   517.04396      15870.318     -1557.1352     -396.78559      1878.474       15946.415     -51.528036      50.877524      1.1508022      30791.637      7            
     31300   511.42216      85185.518      72.552761     -321.76908      69549.98       15985.569     -144.07348      43.259391      1.1320128      31302.723      8            
     31400   493.26471      15781.763     -1582.3453     -339.97137      1782.1417      15879.205     -4.8104871      47.543256      1.1563705      30643.365      8            
     31500   497.42276      15397.224     -1620.3541     -487.38661      1812.735       15742.463     -72.095647      21.86186       1.1385975      31121.695      8            
     31600   478.98126      51492.046      229.13014     -268.52286      35712.39       15796.078     -2.7623987      25.732714      1.1178537      31699.215      9            
     31700   498.045        15523.197     -1688.1432     -407.12445      1854.9128      15623.661      100.81276      39.078214      1.121703       31590.435      9            
     31800   500.11973      15451.344     -1599.8853     -587.28641      1863.0484      15623.006      121.43661      31.024824      1.1044293      32084.521      9            
     31900   485.5625       84607.398      1052.3643     -733.06661      68454.6        15777.948      3.9485058      51.604455      1.0847394      32666.908      10           
     32000   514.44243      15537.637     -1654.9412     -445.84168      1917.5491      15605.415      72.521014      42.934494      1.1157716      31758.368      10           
     32100   503.88759      15347.909     -1672.1984     -532.00122      1847.7623      15572.888      100.71166      30.746459      1.1031489      32121.76       10           
     32200   500.09173      74055.718      1591.4394     -479.15994      57545.821      15444.228     -82.591363      35.980743      1.0877244      32577.262      11           
     32300   500.70229      15139.29      -1664.5131     -464.15857      1909.8961      15403.81      -90.706465      44.962099      1.1102948      31915.024      11           
     32400   494.00411      15278.8       -1643.1028     -448.06511      1877.8881      15479.7       -22.994939      35.375141      1.0974774      32287.757      11           
     32500   504.41342      15173.941     -1650.5486     -527.74778      1953.2361      15331.146      27.353871      40.501903      1.0823887      32737.854      11           
     32600   509.83028      15170.142     -1637.3819     -546.24051      1905.1552      15344.459      65.615102      38.534822      1.0669291      33212.219      11           
     32700   497.27246      161314.91     -47.172917     -677.17228      146408.53      15475.559      112.76949      42.38781       1.0529517      33653.096      12           
     32800   505.92664      15159.473     -1622.4138     -609.06772      1974.3659      15417.793     -37.382925      36.177987      1.1094277      31939.967      12           
     32900   503.53028      15088.924     -1646.2354     -538.38936      1915.1311      15331.649     -0.32818656     27.097187      1.0994143      32230.873      12           
     33000   500.42746      14847.187     -1680.924      -637.09702      1881.4382      15256.113     -10.524494      38.181294      1.0866677      32608.941      12           
     33100   484.958        14846.595     -1654.2323     -729.30122      1860.9719      15237.452      103.66488      28.040076      1.0741279      32989.633      12           
     33200   501.56761      14939.302     -1649.7248     -623.89229      1856.6242      15295.622      34.514675      26.157668      1.061186       33391.964      12           
     33300   504.79729      15145.799     -1658.0991     -602.30612      1932.0679      15259.099      181.4261       33.611246      1.048301       33802.393      12           
     33400   503.68251      15129.71      -1638.0367     -627.7228       1964.0922      15302.106      92.044298      37.227312      1.036644       34182.5        12           
     33500   488.44896      15110.564     -1642.967      -658.20332      1973.7536      15369.879      27.387774      40.713318      1.0258777      34541.236      12           
     33600   479.25856      15068.87      -1597.508      -695.78022      1960.1652      15245.393      129.03648      27.564091      1.0167382      34851.73       12           
     33700   492.46352      15055.224     -1633.1706     -665.34343      1979.9438      15379.429     -38.923672      33.288455      1.0082966      35143.512      12           
     33800   494.0288       15222.326     -1630.3051     -595.01116      1933.559       15384.829      69.542489      59.712064      1.0001309      35430.445      12           
     33900   498.37205      15121.851     -1598.9689     -682.72753      1968.5888      15306.539      89.077212      39.342091      0.99227705     35710.877      12           
     34000   497.13632      274229.9       1237.1394     -606.18593      258142.23      15419.189     -0.37641286     37.907063      0.98472665     35984.691      13           
     34100   517.11115      15301.998     -1649.6197     -405.01833      2085.1425      15399.993     -183.0069       54.507642      1.0631876      33329.099      13           
     34200   501.9814       15137.313     -1626.0523     -526.25735      2047.6138      15175.155      24.168344      42.685609      1.0564861      33540.511      13           
     34300   487.57392      123580.33      410.85808     -380.35219      108295.16      15240.238     -20.961745      35.385636      1.0478089      33818.27       14           
     34400   489.22996      15018.071     -1621.4567     -528.93618      1978.2117      15114.326      37.92518       38.000869      1.0920028      32449.626      14           
     34500   482.24993      14939.946     -1594.0101     -589.36175      1915.0527      15051.084      115.73784      41.443358      1.0832824      32710.847      14           
     34600   492.29842      15043.923     -1658.9251     -435.24605      1962.0906      15043.363      96.361661      36.279176      1.0714477      33072.156      14           
     34700   504.41932      50359.427      682.50606     -514.83675      34957.532      15062.8        126.81269      44.612831      1.0594903      33445.406      15           
     34800   493.87092      14868.318     -1663.4826     -577.35989      1934.974       15110.677      26.509611      37.000128      1.0709326      33088.063      15           
     34900   501.83493      54627.292      1391.5331     -492.09837      38733.275      14999.52      -33.210951      28.27277       1.0605023      33413.491      16           
     35000   491.46107      14710.954     -1655.3916     -543.02437      1945.5552      14961.742     -34.950681      37.023508      1.0741347      32989.422      16           
     35100   490.60425      132524.72      832.68525     -648.80111      117441.83      14879.806     -10.373145      29.576661      1.0636762      33313.788      17           
     35200   499.70008      14620         -1656.6013     -413.16881      1918.1959      14727.833      3.2654897      40.476093      1.1135981      31820.351      17           
     35300   501.40907      14431.223     -1647.6612     -497.09338      1833.0745      14598.967      99.35923       44.576171      1.1034418      32113.233      17           
     35400   491.74806      14542.888     -1666.8707     -534.27318      1866.107       14748.724      83.618129      45.583183      1.0909012      32482.396      17           
     35500   514.19615      14536.536     -1640.0325     -499.28085      1952.3573      14696.984     -12.479413      38.986972      1.0780422      32869.849      17           
     35600   501.64172      74958.882      217.77672     -575.73806      60304.976      14887.006      78.155301      46.705537      1.0654528      33258.238      18           
     35700   486.03028      190015.42     -429.08889     -527.95205      176060.16      14821.374      40.671993      50.262465      1.0921392      32445.576      19           
     35800   513.64279      50412.135      257.40422     -489.61136      35954.124      14736.892     -90.580649      43.906878      1.1546584      30688.803      20           
     35900   499.20086      14658.851     -1515.8851     -223.99103      1957.793       14471.09      -65.986144      35.830495      1.1568322      30631.135      20           
     36000   495.99186      65506.58       145.58295     -400.42148      51301.735      14532.676     -113.82766      40.834633      1.1387584      31117.299      21           
     36100   494.77133      14116.96      -1632.7903     -466.74828      1848.9492      14357.222     -14.813751      25.141528      1.1534021      30722.231      21           
     36200   494.52245      290206.25      1828.9198     -416.67684      274460.86      14311.765     -10.659529      32.04082       1.135326       31211.375      22           
     36300   516.71575      14442.004     -1478.2853     -406.03861      1798.6823      14518.233     -34.719674      44.132135      1.2175229      29104.245      22           
     36400   506.92625      50443.747      1014.9801     -476.85369      35655.516      14222.674     -11.127153      38.557179      1.1983822      29569.102      23           
     36500   502.29192      13892.649     -1550.0326     -505.65338      1889.3387      14208.62      -203.78726      54.162623      1.1943356      29669.285      23           
     36600   494.277        13668.033     -1619.6549     -619.62508      1854.3732      14040.182     -26.947454      39.704954      1.1710817      30258.423      23           
     36700   489.52943      13803.92      -1672.2961     -506.68477      1851.0997      14121.379     -39.071661      49.493284      1.1486728      30848.72       23           
     36800   494.44311      68857.506      788.96384     -362.63821      54261.101      14060.046      57.164721      52.868888      1.1298781      31361.864      24           
     36900   506.38666      56711.39       55.581821     -389.89358      42885.532      14093.7        12.539449      53.930271      1.1458588      30924.476      25           
     37000   500.67007      13918.46      -1636.2444     -341.03391      1843.8771      14015.615     -26.371499      62.6184        1.1571916      30621.621      25           
     37100   510.9793       13746.644     -1685.8151     -460.72017      1865.1722      14004.027     -23.057965      47.037867      1.139485       31097.455      25           
     37200   504.83192      13636.124     -1710.3729     -481.49997      1967.1931      13821.536     -6.0784776      45.346478      1.1202783      31630.608      25           
     37300   501.4239       13455.091     -1675.4954     -628.48378      1812.0395      13869.615      34.700158      42.715433      1.1038906      32100.176      25           
     37400   495.06283      86967.465     -184.5062      -616.17758      73786.048      13926.774      11.015804      44.310536      1.0892956      32530.273      26           
     37500   505.18393      13735.747     -1695.3863     -405.75567      1933.6615      13873.891     -17.012727      46.348827      1.1242589      31518.616      26           
     37600   506.08948      13545.828     -1703.3054     -483.59382      1901.297       13861.872     -74.430139      43.988224      1.1136482      31818.92       26           
     37700   490.39302      13418.842     -1698.3794     -558.99804      1929.7602      13565.739      130.82661      49.894084      1.100253       32206.306      26           
     37800   479.28925      13516.603     -1657.276      -536.04393      1961.3196      13780.86      -86.231582      53.974322      1.0875302      32583.082      26           
     37900   502.94679      13372.533     -1711.4565     -545.71705      1872.9361      13664.375      42.508829      49.886377      1.0749486      32964.445      26           
     38000   503.01962      13406.925     -1653.1078     -626.71859      1898.6166      13629.157      106.05787      52.919609      1.0633913      33322.714      26           
     38100   500.0146       13443.877     -1682.6939     -691.36105      1896.0448      13801.138      58.783848      61.964991      1.0527193      33660.526      26           
     38200   503.37109      13574.487     -1702.2619     -540.1907       1999.3285      13743.65       10.502741      63.458796      1.0435293      33956.96       26           
     38300   499.59405      13423.734     -1666.2566     -600.86001      1885.6415      13786.184     -16.504264      35.529546      1.0352583      34228.255      26           
     38400   486.19752      13531.263     -1617.4008     -506.18203      1925.7276      13637.327      45.6971        46.093579      1.0268145      34509.724      26           
     38500   484.80389      13774.299     -1643.4577     -394.21001      1877.6246      13812.963      71.208537      50.169978      1.0182125      34801.266      26           
     38600   495.40166      13618.323     -1627.7947     -548.35381      1979.8089      13796.665     -37.852089      55.850171      1.0099934      35084.47       26           
     38700   495.08327      13652.235     -1615.1663     -542.87173      2001.9456      13797.194     -28.671107      39.804739      1.0031833      35322.64       26           
     38800   505.60369      13556.98      -1613.7202     -555.94976      1995.8297      13690.309     -16.002966      56.515002      0.99645872     35561.016      26           
     38900   504.36581      13613.53      -1586.6459     -553.37379      2008.155       13732.626     -38.20968       50.978598      0.98960866     35807.169      26           
     39000   498.83483      13534.624     -1621.1514     -639.75207      1994.4668      13734.497      14.149555      52.413411      0.98370322     36022.129      26           
     39100   504.16251      73750.755      1614.4519     -646.76748      59077.492      13614.914      44.944777      45.720145      0.97891069     36198.485      27           
     39200   497.58631      13663.526     -1626.8816     -326.26174      1902.3413      13688.167     -26.827692      52.988514      1.0123797      35001.772      27           
     39300   495.36035      13596.067     -1603.8751     -401.66725      1926.0483      13581.638      49.013183      44.909836      1.0098204      35090.483      27           
     39400   498.58422      13616.741     -1641.2401     -486.19082      1939.7673      13688.409      48.984332      67.011641      1.0044222      35279.072      27           
     39500   504.96894      13551.97      -1602.1156     -573.7191       1977.9433      13569.783      127.98366      52.094903      0.99855596     35486.328      27           
     39600   503.04113      13437.916     -1554.8612     -622.87713      1961.5433      13586.801      13.053784      54.256363      0.99220763     35713.376      27           
     39700   490.676        13477.008     -1614.8639     -618.90287      1943.5374      13710.479     -8.2020364      64.960683      0.98527709     35964.587      27           
     39800   488.69695      61571.868      1507.1896     -684.73211      47064.982      13571.144      62.40382       50.88052       0.98005158     36156.346      28           
     39900   494.70165      13234.832     -1599.812      -496.5665       1898.8369      13337.023      33.33444       62.016852      1.0067514      35197.452      28           
     40000   498.66403      13193.324     -1605.1719     -609.87107      1936.6292      13465.324     -40.052555      46.46612       1.0047376      35268          28           
     40100   495.11978      13275.472     -1577.2313     -645.27713      1988.1744      13456.812     -8.3497259      61.34316       0.99903531     35469.301      28           
     40200   499.86184      13223.547     -1585.0872     -725.17669      2002.2868      13500.502     -24.060536      55.083102      0.99248673     35703.333      28           
     40300   498.89514      13229.092     -1540.418      -714.83613      1992.5339      13470.428     -45.935306      67.319591      0.9862341      35929.689      28           
     40400   496.13824      13406.054     -1575.2672     -656.26656      1925.9282      13625.558      21.507859      64.593931      0.98041157     36143.07       28           
     40500   510.23622      13550.183     -1596.492      -473.52951      1938.3514      13584.151      30.680556      67.021326      0.97450082     36362.293      28           
     40600   505.45508      13511.277     -1571.1732     -511.98965      1966.1429      13563.771      6.4224595      58.103046      0.9703394      36518.237      28           
     40700   492.09565      13431.163     -1547.7462     -543.39272      1968.827       13539.323     -45.28356       59.435594      0.96572318     36692.796      28           
     40800   493.98111      13434.512     -1551.5001     -553.11257      1980.7341      13505.207      0.35779497     52.826132      0.96124098     36863.892      28           
     40900   505.85356      13412.503     -1593.1134     -572.70488      1953.6095      13584.708     -13.662536      53.666294      0.95743299     37010.511      28           
     41000   499.82709      13358.314     -1561.8593     -698.8632       2003.084       13589.839     -27.499353      53.611988      0.95367892     37156.199      28           
     41100   504.29347      13273.678     -1498.2768     -717.67028      1894.2496      13554.068     -11.689358      52.997596      0.94964146     37314.171      28           
     41200   493.16784      13405.344     -1570.5004     -520.3677       1999.3416      13481.892     -45.578284      60.556278      0.94605266     37455.72       28           
     41300   491.98477      13397.952     -1572.4625     -507.2347       1959.2705      13467.171      4.7253887      46.482142      0.94286643     37582.295      28           
     41400   501.23765      13417.933     -1525.583      -516.96749      1944.0621      13445.471      8.634483       62.315923      0.93979189     37705.246      28           
     41500   497.00792      13467.761     -1506.4881     -594.44921      1993.9981      13454.833      65.050388      54.817236      0.93569246     37870.439      28           
     41600   500.46108      13484.647     -1518.0693     -581.57804      2034.9601      13503.283     -7.8164391      53.867596      0.93088889     38065.858      28           
     41700   499.26709      13577.13      -1548.4146     -507.8923       2021.8827      13547.82       0.86994908     62.864385      0.92633967     38252.798      28           
     41800   507.97775      13653.643     -1547.7865     -480.8412       2001.7377      13552.443      74.004528      54.085602      0.92320527     38382.671      28           
     41900   503.03764      13789.22      -1479.693      -475.22813      2067.0807      13560.693      64.157112      52.210485      0.92132964     38460.81       28           
     42000   500.68905      13576.392     -1504.1601     -562.12154      2022.3015      13556.846      15.840702      47.685122      0.91868593     38571.489      28           
     42100   496.5186       13599.891     -1508.5415     -508.61082      2022.2529      13444.373      75.704191      74.7128        0.91631087     38671.465      28           
     42200   500.79058      13384.925     -1483.3163     -689.68108      1990.9535      13462.936      54.083531      49.949595      0.91436747     38753.658      28           
     42300   504.35224      13260.002     -1514.2136     -766.48303      1991.1329      13464.179      32.787836      52.59937       0.91217294     38846.892      28           
     42400   496.45141      13445.931     -1457.9641     -668.4907       2030.5592      13483.991     -2.9366304      60.772154      0.91046323     38919.841      28           
     42500   502.03281      13527.417     -1501.427      -660.81325      2016.446       13546.017      63.583196      63.611234      0.90827242     39013.718      28           
     42600   503.40156      59537.71       363.98229     -651.01655      46238.105      13496.555      28.142794      61.942059      0.90727489     39056.613      29           
     42700   509.82533      13369.097     -1499.8988     -564.24462      2066.5278      13437.378     -124.50878      53.843082      0.93917862     37729.866      29           
     42800   495.83235      13441.763     -1518.2503     -517.05163      2026.7597      13337.741      43.100182      69.463524      0.94072202     37667.965      29           
     42900   500.4944       13232.886     -1527.6216     -638.33941      1913.005       13438.547      1.5361782      45.758657      0.93922454     37728.022      29           
     43000   504.92857      13331.211     -1523.5566     -478.84827      1935.1172      13386.387     -44.485031      56.597597      0.93700038     37817.577      29           
     43100   514.61325      13085.838     -1503.3676     -650.12949      1875.373       13226.397      73.096159      64.468934      0.93472172     37909.769      29           
     43200   487.30015      13592.637     -1495.7561     -538.79099      2099.1454      13399.184      66.779955      62.073895      0.93233979     38006.62       29           
     43300   500.59878      157590.04      1887.258      -393.70553      142468.25      13606.239     -45.475753      67.465151      0.92989841     38106.404      31           
     43400   507.0295       13458.006     -1555.9153     -310.93688      2067.8994      13177.4        25.406512      54.152689      0.98217411     36078.21       31           
     43500   513.92451      13023.905     -1570.5479     -556.22033      1916.4651      13242.12      -78.200405      70.28907       0.97982425     36164.735      31           
     43600   501.05029      12987.28      -1589.8911     -616.98782      2001.0178      13152.695     -15.30256       55.748694      0.9772065      36261.613      31           
     43700   492.8387       13023.942     -1558.3853     -569.53412      1909.0114      13189.562     -6.8573359      60.14636       0.9738788      36385.517      31           
     43800   508.62066      12842.406     -1574.2988     -629.69447      1908.8988      13040.086      40.684104      56.730186      0.97068082     36505.392      31           
     43900   499.80323      13047.098     -1554.097      -605.15461      1913.74        13144.423      93.930953      54.255727      0.9680973      36602.813      31           
     44000   500.18626      13434.26      -1557.2313     -336.14828      1946.5753      13203.596      110.83958      66.62869       0.96473549     36730.362      31           
     44100   500.56868      67161.361      858.69877     -516.89637      53616.663      13043.973      99.407893      59.514142      0.96087784     36877.824      32           
     44200   507.29314      13005.906     -1612.6201     -440.11315      1977.028       13028.086      2.6905556      50.834282      0.98998281     35793.636      32           
     44300   496.9409       13006.014     -1608.5709     -490.98616      2015.4426      13083.038     -48.984702      56.075591      0.98890164     35832.769      32           
     44400   487.33708      12989.505     -1567.5387     -526.14793      2015.0136      13009.076     -8.5009021      67.602647      0.98441676     35996.019      32           
     44500   503.96009      12773.882     -1572.9605     -557.21142      1896.4752      12960.938     -17.442585      64.083147      0.97998923     36158.646      32           
     44600   510.27852      12831.784     -1599.5988     -550.03592      1910.9679      13008.878      11.589042      49.983604      0.97550164     36324.987      32           
     44700   509.94716      12828.099     -1535.714      -669.7801       1940.2028      13022.707      1.6606617      69.022542      0.97134103     36480.58       32           
     44800   500.10961      12988.798     -1586.8325     -594.23268      1982.6178      13058.367      63.905019      64.973773      0.96601592     36681.677      32           
     44900   500.63727      12822.493     -1567.1772     -664.59116      1953.9405      13006.246      38.230346      55.84478       0.96081118     36880.383      32           
     45000   485.07981      13025.358     -1528.8285     -535.94886      1994.4713      13007.05       7.1374623      81.476576      0.95599894     37066.029      32           
     45100   505.37122      12891.705     -1532.6905     -519.50084      1960.7598      12958.705     -30.208373      54.639278      0.95125708     37250.797      32           
     45200   488.5508       240585.93      1331.0473     -528.38819      226593.26      13233.065     -106.47528      63.42649       0.94677789     37427.029      33           
     45300   517.89507      13058.391     -1583.5087     -406.66066      1936.6722      13106.115     -51.459171      57.232197      1.0158207      34883.206      33           
     45400   512.0455       12795.793     -1533.5261     -506.39909      1960.6571      12894.794     -64.320907      44.588035      1.0114454      35034.106      33           
     45500   504.22378      12651.275     -1611.9073     -613.78893      1992.3941      12975.123     -134.46941      43.922621      1.0059234      35226.425      33           
     45600   496.74326      12617.636     -1597.6471     -625.27068      1929.652       12964.741     -100.55129      46.712741      1.0012057      35392.411      33           
     45700   498.76498      64779.343      918.31497     -612.72324      51538.21       12931.075     -44.226885      48.692749      0.99589175     35581.261      34           
     45800   501.08614      12824.922     -1584.8776     -380.6877       1934.3292      12807.958     -11.013897      59.214036      1.0206337      34718.707      34           
     45900   507.58155      12757.598     -1598.0408     -470.4118       1905.9977      12749.019      115.9876       55.046169      1.0162839      34867.31       34           
     46000   501.53937      12786.102     -1559.6886     -495.76635      1981.495       12868.519     -56.553787      48.09606       1.0085321      35135.305      34           
     46100   495.5996       12318.045     -1586.5251     -836.00984      1980.4716      12812.104     -98.327916      46.332125      1.0008484      35405.046      34           
     46200   484.18306      12350.9       -1590.1937     -831.39253      1923.9282      12806.385     -18.128624      60.302088      0.99466817     35625.031      34           
     46300   485.55043      12730.612     -1570.5212     -551.37551      1966.4267      12787.77       35.024629      63.287566      0.98915834     35823.47       34           
     46400   500.95112      12709.89      -1563.8469     -543.6297       1916.0382      12795.059      48.619734      57.649895      0.98266381     36060.231      34           
     46500   497.38456      265790.96      1113.0515     -577.95029      252128.38      13023.617      31.922827      71.938541      0.97676452     36278.021      35           
     46600   508.39499      12788.601     -1591.0941     -486.5673       1933.4255      12924.815     -77.463801      85.485104      1.0494775      33764.502      35           
     46700   508.62687      12700.997     -1591.423      -471.57436      2024.2783      12723.842     -43.703347      59.577172      1.0443234      33931.139      35           
     46800   499.38754      12443.044     -1615.6514     -635.57529      1956.2001      12862.899     -206.47579      81.647103      1.0379238      34140.352      35           
     46900   493.25337      74960.564      579.19816     -606.00426      62218.841      12698.113      13.226265      57.190269      1.0306816      34380.244      36           
     47000   496.61796      12549.169     -1571.3771     -326.12765      1848.0354      12631.906     -85.747081      52.479366      1.0586108      33473.192      36           
     47100   496.02263      12499.711     -1581.973      -363.58447      1843.3284      12517.148      21.61555       63.176054      1.0508399      33720.725      36           
     47200   504.699        12514.588     -1612.5085     -399.8992       1927.7982      12511.081      19.11988       68.99651       1.0418263      34012.469      36           
     47300   506.67268      12512.312     -1631.7369     -453.72883      1947.4117      12662.122     -73.272534      61.516415      1.0323612      34324.307      36           
     47400   506.43793      12319.554     -1628.6702     -581.42732      1911.6889      12488.513      60.926631      68.523167      1.024414       34590.588      36           
     47500   498.83716      114481.57     -33.598653     -666.70262      102528.14      12678.142     -87.414374      62.994866      1.0160395      34875.695      37           
     47600   508.53929      12281.904     -1607.3771     -511.08636      1860.635       12549.507     -78.080485      68.306097      1.0619243      33368.749      37           
     47700   495.39128      12306.167     -1648.1454     -455.80386      1919.9837      12425.294      6.8994087      57.938867      1.0564438      33541.853      37           
     47800   496.99717      58651.735      1510.0178     -444.44653      45121.387      12491.206     -81.717998      55.288794      1.0492227      33772.702      38           
     47900   486.09453      12097.908     -1634.217      -626.79156      1933.8423      12394.166     -28.01834       58.926472      1.0664612      33226.792      38           
     48000   502.18905      12083.81      -1675.8169     -590.77851      1971.2818      12341.581     -23.728851      61.271391      1.0596362      33440.802      38           
     48100   503.23554      12158.465     -1628.88       -572.35971      1885.0606      12523.208     -111.74401      63.179812      1.0503421      33736.707      38           
     48200   503.16527      12326.271     -1664.7904     -354.9673       1959.245       12335.501     -5.2380201      56.520235      1.042076       34004.319      38           
     48300   488.99667      12020.795     -1657.549      -587.01343      1852.5194      12376.326     -27.670986      64.182775      1.0334998      34286.494      38           
     48400   486.36799      12060.988     -1643.1805     -578.86853      1909.9515      12391.989     -79.629223      60.725298      1.0245874      34584.736      38           
     48500   493.44591      12127.968     -1640.1129     -555.74828      1933.4379      12388.937     -66.320397      67.774985      1.016808       34849.336      38           
     48600   490.61703      12313.446     -1623.7631     -500.29915      1904.265       12350.762      102.59519      79.886079      1.0085576      35134.416      38           
     48700   500.73555      12307.785     -1632.2828     -439.49356      1922.0461      12405.101      12.883079      39.531791      1.0020974      35360.916      38           
     48800   503.33067      12063.322     -1609.3314     -653.87088      1944.3889      12361.501     -44.376393      65.011065      0.99544276     35597.31       38           
     48900   502.5453       12245.704     -1605.2974     -525.72014      1942.062       12353.309      20.588242      60.762174      0.98924447     35820.351      38           
     49000   508.16963      12127.679     -1602.8053     -686.43652      1989.29        12384.842     -23.157762      65.945996      0.98247031     36067.333      38           
     49100   508.39149      128185.8       3182.5664     -614.75862      113145.71      12325.949      77.944272      68.387958      0.97617386     36299.972      40           
     49200   512.94366      11840.255     -1621.8799     -607.54018      1861.5072      12206.275     -67.305579      69.199066      1.0234294      34623.869      40           
     49300   501.35415      221762.99      2557.9342     -598.23672      207317.19      12510.565     -91.988238      67.524536      1.0207982      34713.112      42           
     49400   513.10301      11859.288     -1680.6276     -425.07575      2000.4008      12106.018     -221.14472      79.717192      1.0807668      32786.984      42           
     49500   516.82112      11559.814     -1597.8552     -632.93219      1881.8639      11877.04      -27.015149      58.712518      1.0753297      32952.762      42           
     49600   492.20808      11651.325     -1608.9553     -614.1473       1904.841       12049.306     -148.41446      68.694961      1.0662298      33234.003      42           
     49700   500.37582      11474.825     -1649.9322     -659.73056      1826.7406      11923.986     -18.527663      52.289536      1.057415       33511.048      42           
     49800   490.03667      11706.511     -1639.4749     -517.08642      1897.3392      11936.696     -32.376612      61.413692      1.0481596      33806.955      42           
     49900   503.83         11702.043     -1643.5983     -520.83524      1925.2527      11858.15       13.339911      69.733852      1.0398814      34076.082      42           
     50000   508.09016      40851.408      1029.4076     -561.39804      28433.728      11934.712     -48.568533      63.526788      1.031603       34349.537      43           
     50100   509.56884      11401.117     -1588.7488     -655.27098      1864.602       11770.847     -57.732459      67.420227      1.0402984      34062.424      43           
     50200   495.12089      11629.454     -1621.1723     -542.22282      1965.7172      11846.77      -80.213352      60.57594       1.0335753      34283.989      43           
     50300   494.63404      11400.777     -1658.2867     -702.06169      1947.621       11877.146     -128.91814      65.276769      1.0256694      34548.25       43           
     50400   477.05307      11317.002     -1612.2484     -722.1198       1906.4602      11657.086      18.799958      69.024706      1.0167147      34852.535      43           
     50500   483.38047      11377.867     -1643.717      -687.67348      1915.8396      11764.915     -45.761943      74.26526       1.0088238      35125.147      43           
     50600   495.28998      55493.885      1434.2993     -643.30926      42802.53       11747.579      86.494564      66.291854      1.0022337      35356.109      44           
     50700   505.08601      11457.523     -1635.2301     -600.0338       1868.1426      11660.12       92.303604      72.220355      1.0242974      34594.528      44           
     50800   504.44518      11447.954     -1564.1763     -638.12384      1865.2875      11670.551      47.163574      67.251219      1.019913       34743.241      44           
     50900   503.85293      11481.403     -1623.5013     -574.27357      1899.1979      11709.179     -8.6311604      79.432345      1.0116214      35028.01       44           
     51000   494.59871      11330.151     -1586.448      -663.97798      1955.9164      11624.296     -64.769797      65.134194      1.004085       35290.92       44           
     51100   483.819        11537.545     -1593.2448     -524.92608      1937.7513      11761.647     -99.620742      55.938611      0.99786355     35510.951      44           
     51200   499.77881      11320.813     -1615.7143     -716.06182      1931.9224      11661.025     -11.653632      71.295357      0.99026934     35783.279      44           
     51300   502.39715      11463.857     -1621.6022     -582.9949       1831.2455      11695.78       79.14815       62.280388      0.98389666     36015.047      44           
     51400   505.7793       11389.805     -1582.7466     -691.49446      1927.3955      11704.275     -33.72205       66.098311      0.97836805     36218.562      44           
     51500   505.44249      11632.363     -1543.3311     -530.69045      1904.9499      11788.977     -55.19776       67.655696      0.97397689     36381.853      44           
     51600   512.28536      11498.432     -1534.7219     -611.85531      1899.6903      11681.133     -3.6367948      67.822811      0.96872259     36579.186      44           
     51700   489.71197      11620.949     -1569.9622     -534.3346       1994.7786      11678.86      -22.288605      73.895686      0.96396757     36759.623      44           
     51800   486.31964      58030.903      437.18777     -567.55577      46423.132      11703.962     -26.811672      60.989571      0.96020726     36903.579      45           
     51900   498.29005      11382.971     -1596.6228     -588.80007      1885.2982      11648.176     -43.576887      78.496594      0.98866353     35841.399      45           
     52000   494.63096      107264.12      72.01908      -657.68659      96209.532      11612.767     -39.284892      66.770906      0.98825577     35856.187      46           
     52100   519.32414      11510.416     -1579.2322     -357.71239      1911.898       11514.949     -71.774762      92.288651      1.0303108      34392.616      46           
     52200   511.11729      11432.525     -1607.1015     -360.80091      1864.1064      11443.95       34.433997      57.937588      1.0269425      34505.421      46           
     52300   502.35616      11373.325     -1639.7955     -421.31926      1856.9065      11478.412      24.695899      74.424754      1.020991       34706.558      46           
     52400   489.66438      11427.184     -1612.7573     -392.68908      1836.6988      11564.379     -24.823896      56.376381      1.0158372      34882.642      46           
     52500   503.94814      11272.613     -1639.0406     -418.16154      1922.0582      11360.671     -14.725888      61.811265      1.0105267      35065.957      46           
     52600   510.17451      61653.644      348.88465     -589.68246      50448.006      11467.322     -78.407278      57.521106      1.0054602      35242.652      47           
     52700   502.56107      11317.987     -1586.4172     -489.41943      1945.7202      11363.26       1.1815663      83.661884      1.0307502      34377.955      47           
     52800   501.66656      90418.244     -326.4788      -516.52171      79841.716      11400.995     -62.471114      81.005886      1.0259837      34537.669      48           
     52900   500.77256      11180.485     -1586.2385     -440.90099      1858.6383      11354.885     -69.259194      63.359991      1.0619453      33368.088      48           
     53000   506.7579       10914.308     -1637.256      -593.96287      1949.4963      11214.509     -91.156307      72.678171      1.0563496      33544.846      48           
     53100   500.81478      10767.18      -1641.0964     -697.78145      1878.9901      11244.716     -93.525709      75.877732      1.0478478      33817.015      48           
     53200   493.97347      10990.574     -1639.0684     -470.12993      1812.1163      11143.934      73.619871      70.102903      1.0407154      34048.775      48           
     53300   500.86164      10872.507     -1635.4532     -575.57613      1830.1611      11238.283     -54.364923      69.456456      1.0343816      34257.265      48           
     53400   514.33056      140821.88      1311.7444     -618.53307      128868.53      11256.748     -59.071548      62.457723      1.026118       34533.146      49           
     53500   511.23721      10996.166     -1638.4346     -585.1118       1871.6917      11291.67      -30.84425       87.194154      1.0798882      32813.661      49           
     53600   510.86721      52288.092      1041.4587     -674.28595      40801.719      11078.114     -17.32261       58.408944      1.0741042      32990.36       50           
     53700   502.87167      10749.072     -1616.5495     -530.52816      1895.8806      11137.048     -188.77197      51.992848      1.085837       32633.888      50           
     53800   499.68607      10852.519     -1620.4479     -361.43241      1887.8966      11046.981     -161.73485      61.256451      1.0776182      32882.782      50           
     53900   496.34251      10645.982     -1640.2201     -509.59027      1819.979       11057.567     -141.85914      60.105058      1.066955       33211.414      50           
     54000   494.5675       10552.41      -1644.7024     -697.67914      1840.9681      11084.305     -95.288571      64.807422      1.0563752      33544.032      50           
     54100   503.26839      10542.546     -1590.8798     -724.95527      1778.6379      10984.902      30.543155      64.298025      1.0470718      33842.076      50           
     54200   508.08529      10705.691     -1595.2128     -540.67999      1875.0534      11022.559     -108.10667      52.078075      1.0373596      34158.92       50           
     54300   503.98491      10693.788     -1605.7816     -578.74252      1888.0257      11032.267     -104.78988      62.808342      1.0286879      34446.874      50           
     54400   495.71967      10711.537     -1638.1563     -618.70179      1883.8875      11067.258     -51.086904      68.337135      1.0207667      34714.185      50           
     54500   499.83111      10884.383     -1615.9603     -521.21248      1926.8614      10947.028      63.612486      84.054201      1.0128186      34986.604      50           
     54600   501.97724      11106.525     -1601.3974     -355.387        1965.785       11120.459     -99.621277      76.686257      1.006592       35203.027      50           
     54700   492.99503      10964.305     -1601.3949     -514.3474       1970.393       11071.294     -34.108817      72.469202      1.0000092      35434.759      50           
     54800   495.09129      115133.56      435.59876     -566.36393      104178.79      11052.208     -36.752659      70.0785        0.99351946     35666.22       51           
     54900   497.11542      10775.494     -1629.7017     -458.91112      1905.7119      11027.436     -137.99603      68.954863      1.0414479      34024.826      51           
     55000   491.7331       10655.812     -1611.9702     -470.73638      1922.6951      10835.827     -79.334359      59.331462      1.0375073      34154.057      51           
     55100   477.59528      10514.042     -1633.3416     -572.77446      1968.2445      10905.798     -216.90177      63.018128      1.0316597      34347.647      51           
     55200   486.24331      146845.53      680.50912     -414.16206      135789.57      10995.31      -263.82611      58.13441       1.0257654      34545.016      52           
     55300   511.21959      10608.139     -1629.5189     -439.18906      1903.5435      10876.608     -179.25129      75.946372      1.0775936      32883.532      52           
     55400   497.88052      10549.199     -1591.9242     -566.03477      1857.747       10867.152     -84.425099      66.683944      1.0715169      33070.02       52           
     55500   497.39829      10396.025     -1595.39       -593.02915      1853.5174      10818.467     -161.82483      74.284715      1.0632006      33328.692      52           
     55600   494.72618      10325.012     -1637.9026     -573.06943      1860.6469      10739.315     -127.34376      63.365079      1.0545536      33601.974      52           
     55700   497.36125      10405.85      -1614.3609     -518.67851      1882.7309      10730.763     -141.37605      66.770873      1.0462487      33868.702      52           
     55800   500.54156      10481.886     -1637.9185     -607.07805      1880.9558      10820.212     -47.575845      73.29019       1.0373772      34158.342      52           
     55900   501.28486      10543.189     -1613.9131     -568.2411       1821.0081      10769.851      66.396627      68.087335      1.0287332      34445.36       52           
     56000   496.16452      10415.894     -1610.9391     -742.47975      1883.6459      10874.678     -56.470772      67.459081      1.0212306      34698.417      52           
     56100   499.91394      298069.62      482.59323     -705.87913      287393.22      10873.531     -38.485003      64.641583      1.0145571      34926.653      53           
     56200   518.57349      10771.712     -1610.2763     -404.3071       2007.1877      10905.855     -207.65549      80.908822      1.0941242      32386.712      53           
     56300   514.28583      10369.391     -1599.5223     -638.43817      1963.0957      10657.537     -69.635008      56.353376      1.0876997      32578.002      53           
     56400   510.70103      10087.938     -1686.5959     -753.13939      1946.3923      10769.753     -253.48918      65.017741      1.0795209      32824.826      53           
     56500   503.92382      10136.092     -1628.3375     -601.32967      1793.1713      10581.611     -66.84594       57.822406      1.0704188      33103.943      53           
     56600   496.46146      372176.81      549.10452     -544.56415      361484.23      10760.159     -140.64926      68.527365      1.0614606      33383.325      54           
     56700   522.49272      10476.853     -1577.6097     -628.90777      1853.5977      10910.234     -157.34372      76.882426      1.1526079      30743.399      54           
     56800   524.04284      10154.359     -1567.7903     -637.92265      1955.2984      10523.42      -173.88352      55.237114      1.1425856      31013.067      54           
     56900   492.4616       10143.923     -1599.3998     -685.28714      1927.2361      10590.542     -170.10455      80.936318      1.1301398      31354.602      54           
     57000   485.87284      10140.749     -1643.6686     -604.5196       1882.5766      10468.669     -30.368416      68.059161      1.117048       31722.077      54           
     57100   496.24078      10160.333     -1649.8773     -518.85837      1739.9876      10609.752     -79.010117      58.338833      1.1052755      32059.955      54           
     57200   499.10661      10303.264     -1638.7669     -480.87727      1752.5792      10547.97       48.025071      74.333575      1.0940716      32388.266      54           
     57300   500.05541      10108.108     -1707.3583     -725.57995      1901.4737      10584.013     -23.764148      79.323041      1.0829367      32721.29       54           
     57400   508.75515      10123.643     -1661.399      -681.87492      1817.7871      10649.932     -70.382802      69.581375      1.0732812      33015.657      54           
     57500   489.86154      10252.015     -1658.3469     -633.03072      1964.4916      10687.139     -179.87839      71.640378      1.0627318      33343.394      54           
     57600   480.91157      10159.843     -1665.0405     -655.63794      1812.4246      10605.582     -14.431426      76.946445      1.0536185      33631.796      54           
     57700   489.66188      10095.444     -1686.9168     -686.09261      1867.3326      10586.271     -52.722345      67.571923      1.0455926      33889.952      54           
     57800   502.0527       10156.098     -1663.2706     -674.14821      1766.8921      10620.418      35.073675      71.132703      1.0371722      34165.091      54           
     57900   494.05698      10234.12      -1670.0001     -707.75534      1881.8823      10617.119      39.352675      73.521431      1.0309046      34372.805      54           
     58000   503.14092      10224.895     -1632.5933     -640.66157      1839.4144      10683.615     -100.74102      75.86149       1.024561       34585.625      54           
     58100   484.68116      10470.141     -1615.5695     -514.0926       1972.0883      10599.092     -32.946031      61.56925       1.0168945      34846.372      54           
     58200   501.06465      10120.081     -1679.5031     -707.44094      1834.6361      10582.678     -1.0469214      90.758236      1.0099893      35084.613      54           
     58300   502.93712      10297.086     -1635.5018     -643.70082      1990.397       10596.271     -94.57022       84.190918      1.0048668      35263.464      54           
     58400   513.38327      10395.128     -1594.4298     -501.9713       1901.1505      10522.992     -12.055143      79.442017      1.0003394      35423.061      54           
     58500   500.07314      10331.809     -1572.6283     -599.75668      1903.0662      10569.973     -48.995448      80.150702      0.99527206     35603.415      54           
     58600   492.1379       10198.843     -1559.1179     -664.26485      1902.245       10550.674     -101.38758      70.694655      0.99060278     35771.234      54           
     58700   502.08995      10233.753     -1596.5773     -575.27147      1874.2346      10594.244     -144.98137      82.105124      0.98455444     35990.985      54           
     58800   488.20656      10373.729     -1579.42       -604.1833       1907.1613      10625.263     -51.631588      76.539792      0.98049191     36140.109      54           
     58900   501.46246      50142.757      639.20932     -699.99244      39536.742      10638.732     -53.232902      81.299256      0.9767147      36279.872      55           
     59000   504.94502      10276.169     -1566.9224     -576.48085      1915.9951      10544.213     -120.1446       79.508666      1.0029742      35330.007      55           
     59100   494.15795      149525.32      73.829549     -464.97015      139301.24      10589.946     -44.161738      69.438961      1.0036509      35306.185      56           
     59200   498.25112      10258.736     -1684.3754     -453.48399      1909.1919      10636.89      -224.66011      75.173161      1.0577784      33499.534      56           
     59300   497.99384      10075.82      -1619.8462     -551.56575      1965.6478      10375.666     -153.58839      59.506284      1.053834       33624.921      56           
     59400   493.03864      10195.134     -1664.8174     -430.85041      1907.3561      10431.773     -137.04623      88.719551      1.0485481      33794.43       56           
     59500   496.21616      10096.766     -1657.2627     -417.75191      1808.4853      10338.909     -57.623815      82.00946       1.0428662      33978.553      56           
     59600   496.01821      10076.967     -1629.4404     -434.9017       1879.1402      10298.544     -107.00496      70.630094      1.0366951      34180.816      56           
     59700   507.31136      9996.5788     -1619.994      -606.7391       1903.0674      10329.882     -78.955272      69.31779       1.0305735      34383.849      56           
     59800   503.90699      10071.389     -1614.8751     -609.13053      1865.5733      10367.204     -6.0253584      68.643076      1.0250141      34570.339      56           
     59900   510.0719       10080.556     -1586.4858     -526.75154      1956.1304      10232.535     -71.272954      76.400955      1.0193226      34763.366      56           
     60000   496.35946      10009.723     -1603.3787     -595.71928      1916.3995      10289.986     -66.955069      69.39063       1.0129853      34980.849      56           
     60100   481.20603      42375.274      484.76663     -679.21982      32290.336      10294.484     -92.987465      77.894344      1.0067014      35199.199      57           
     60200   495.69964      112018.65      1896.1172     -600.95257      100443.42      10257.549     -65.296952      87.813559      1.0225912      34652.247      58           
     60300   521.08642      9841.2806     -1610.4745     -621.41452      1892.5818      10139.528     -44.066271      85.126203      1.0688814      33151.558      58           
     60400   507.86851      9937.7182     -1638.6854     -455.63862      1923.7543      10088.719     -69.396993      88.965878      1.0636594      33314.315      58           
     60500   502.18642      34081.119      1882.3927     -562.89134      22712.676      10082.128     -105.55637      72.370311      1.0579514      33494.057      59           
     60600   489.34501      54607.801      311.34628     -578.5254       44869.179      10070.282     -138.73421      74.253961      1.0615536      33380.4        60           
     60700   501.07553      9864.1986     -1648.4506     -421.92116      1893.9222      10158.484     -202.77664      84.941179      1.0815522      32763.175      60           
     60800   487.81168      9808.9144     -1670.8075     -468.42574      1925.8441      9983.7734     -29.952585      68.48271       1.0739705      32994.467      60           
     60900   483.50206      132868.57      983.73215     -436.5794       122281.94      10121.044     -168.86721      87.300798      1.0650199      33271.756      61           
     61000   495.51975      62154.381      618.87582     -446.62283      52092.768      9956.3329     -145.21864      78.245939      1.11436        31798.595      62           
     61100   513.97185      9325.6739     -1677.6832     -517.24182      1838.4092      9866.4768     -246.06013      61.77315       1.1292684      31378.796      62           
     61200   488.61918      9453.0238     -1648.8662     -421.23726      1827.3065      9729.9091     -125.95486      91.866546      1.1188193      31671.855      62           
     61300   489.48743      123658.77      1227.5054     -623.95867      113371.1       9696.2904     -86.631996      74.460628      1.1076183      31992.143      63           
     61400   505.68361      9174.1268     -1659.4687     -667.09629      1786.4404      9651.1992     -23.551282      86.603517      1.1523479      30750.335      63           
     61500   499.05706      9343.9545     -1626.3159     -410.2377       1828.542       9627.3774     -150.32328      74.911876      1.1416872      31037.471      63           
     61600   489.24765      9239.6214     -1652.1983     -496.46514      1838.038       9612.3562     -139.21841      77.109098      1.128901       31389.011      63           
     61700   491.06753      9113.3333     -1657.9726     -592.46488      1735.4925      9654.066      -100.27066      74.482833      1.1162002      31746.172      63           
     61800   491.04371      9269.3961     -1655.5211     -532.63034      1818.7351      9577.869      -7.9339295      68.877297      1.1037443      32104.432      63           
     61900   499.43728      9264.4781     -1681.6771     -488.50695      1841.0842      9599.5992     -83.615431      77.594111      1.0902919      32500.549      63           
     62000   502.65776      96836.765      1111.9076     -684.63575      86699.71       9803.2968     -173.78365      80.269487      1.0789614      32841.846      64           
     62100   489.67456      66954.753      574.18093     -425.27317      57273.056      9522.9803     -79.412377      89.221323      1.1172204      31717.183      65           
     62200   498.46687      8921.2566     -1644.5343     -574.59717      1801.4402      9348.9133     -87.36789       77.402391      1.1363027      31184.545      65           
     62300   498.13948      8967.6057     -1668.7991     -447.68192      1882.5694      9292.9863     -171.15786      79.688844      1.1253211      31488.866      65           
     62400   492.79063      8956.416      -1688.2724     -500.74145      1824.0805      9320.7531     -58.453686      59.049954      1.1132617      31829.967      65           
     62500   495.55563      8883.664      -1678.2091     -579.20151      1793.8207      9327.016      -49.24985       69.487698      1.1007391      32192.082      65           
     62600   501.42133      8701.4256     -1675.4094     -766.92858      1782.548       9342.9266     -54.142573      72.431629      1.0900661      32507.279      65           
     62700   493.17243      8953.9335     -1625.3587     -626.97956      1843.3102      9447.7093     -171.7537       87.006079      1.0798302      32815.424      65           
     62800   485.3871       271926.11      854.2862      -732.27194      262341.24      9390.8371      0.67050155     71.348235      1.0697326      33125.181      66           
     62900   517.33772      9339.8252     -1624.9834     -502.51488      1912.2864      9750.4596     -288.79324      93.370763      1.146811       30898.799      66           
     63000   515.51898      96938.238      206.65758     -681.52996      88163.513      9341.2161     -174.00507      82.386607      1.1384235      31126.453      67           
     63100   494.20644      8937.3109     -1595.9049     -618.58169      1952.7554      9301.02       -176.70947      74.731532      1.1684764      30325.888      67           
     63200   497.1971       69531.023      807.5782      -423.20524      60081.088      9091.6448     -92.534753      66.452325      1.1563771      30643.192      68           
     63300   484.08229      96928.139      1493.0819     -514.59362      87008.493      9113.711      -239.45468      66.901565      1.1742341      30177.188      69           
     63400   492.38101      8534.5777     -1538.0406     -551.49662      1668.9829      9034.0346     -141.57049      62.66792       1.205105       29404.147      69           
     63500   501.16782      8468.8996     -1582.8051     -577.15505      1791.808       8969.9028     -212.84821      79.997147      1.1891033      29799.837      69           
     63600   505.97094      8408.9805     -1578.5344     -627.70171      1840.2402      9001.9432     -292.69493      65.728125      1.1707917      30265.916      69           
     63700   507.76277      8368.1147     -1613.2763     -693.47027      1871.2339      9009.4732     -283.29632      77.450455      1.1534779      30720.211      69           
     63800   496.84797      8484.1186     -1655.3417     -617.09495      1838.2461      9050.4013     -204.89471      72.80248       1.137165       31160.899      69           
     63900   511.10061      8284.3708     -1667.1939     -712.98964      1856.2761      8894.4493     -162.56552      76.394394      1.1225211      31567.41       69           
     64000   505.37499      30808.08       1203.3788     -588.92009      21269.311      8915.0247     -62.392009      71.677828      1.1104821      31909.639      70           
     64100   500.62464      8526.9036     -1615.7063     -510.11594      1922.7744      8826.0377     -185.68117      89.594945      1.1108611      31898.752      70           
     64200   497.92198      8421.6794     -1652.0487     -573.10954      1853.7527      8849.3197     -136.00514      79.770324      1.0988819      32246.49       70           
     64300   492.92826      8337.836      -1714.9315     -562.63776      1958.2098      8798.8772     -218.09346      76.411756      1.0877049      32577.846      70           
     64400   483.65531      8369.4907     -1665.742      -568.7458       1843.4674      8819.4963     -136.6726       77.687339      1.0778971      32874.272      70           
     64500   500.66604      8344.6313     -1625.3677     -588.18134      1869.397       8755.9788     -153.1618       85.966293      1.0677453      33186.832      70           
     64600   500.62775      8347.0553     -1634.8724     -647.60059      1818.5505      8895.1758     -163.85355      79.655541      1.0595547      33443.374      70           
     64700   500.33599      8188.0985     -1606.7759     -821.81063      1881.1414      8896.2792     -237.38946      76.653936      1.0528909      33655.038      70           
     64800   500.76642      8487.06       -1681.5459     -544.3513       1981.3422      8811.2966     -152.29732      72.615672      1.0462666      33868.123      70           
     64900   503.65239      79040.779      774.72508     -597.27976      70070.515      8825.8532     -123.46234      90.427155      1.038373       34125.582      71           
     65000   509.27256      8682.7112     -1609.4807     -358.19227      1881.6377      8885.5321     -208.20132      91.415663      1.0757685      32939.32       71           
     65100   500.85457      8277.375      -1617.3592     -633.04605      1942.9003      8666.8117     -169.29847      87.366772      1.070052       33115.291      71           
     65200   501.40617      8154.1807     -1623.6526     -671.88637      1863.6742      8680.0673     -185.89314      91.871309      1.0632744      33326.377      71           
     65300   494.53502      8289.346      -1660.1399     -580.90643      1841.3236      8761.5837     -164.11654      91.601618      1.0571757      33518.632      71           
     65400   497.20737      8288.1648     -1639.2611     -553.94043      1827.493       8792.927      -218.47399      79.420417      1.0505265      33730.784      71           
     65500   499.77223      8316.7043     -1650.3132     -638.59128      1908.8878      8833.9554     -223.63977      86.40544       1.0441659      33936.258      71           
     65600   494.00152      8322.1967     -1547.8608     -778.22488      1932.5838      8783.1955     -146.89547      79.398587      1.0384214      34123.991      71           
     65700   502.62478      8379.0162     -1604.7103     -603.51586      1884.782       8834.4008     -211.41914      79.478641      1.0328208      34309.033      71           
     65800   502.13919      8061.6487     -1604.9265     -816.41651      1876.1678      8724.0787     -191.85323      74.598459      1.0261596      34531.747      71           
     65900   488.96024      8170.1062     -1622.9937     -770.83861      1862.1415      8803.2592     -185.09517      83.632874      1.0214714      34690.235      71           
     66000   480.63743      8248.2292     -1587.5308     -558.80264      1825.1717      8714.734      -215.18431      69.841211      1.0173014      34832.434      71           
     66100   472.67368      8248.0546     -1618.7504     -626.60879      1970.8562      8691.759      -245.34735      76.145864      1.0127206      34989.989      71           
     66200   502.3302       8039.3928     -1648.9407     -777.41817      1823.2159      8736.5466     -178.51882      84.507975      1.0090453      35117.436      71           
     66300   497.53445      8184.0239     -1574.5596     -814.51381      1987.982       8659.2206     -152.35334      78.248104      1.0051714      35252.779      71           
     66400   507.68406      8231.8373     -1580.8958     -754.99819      1911.2046      8680.4666     -115.96172      92.021757      1.0004742      35418.289      71           
     66500   503.21713      8297.5019     -1580.7076     -772.13212      1946.5749      8809.2521     -203.96844      98.482977      0.9969643      35542.982      71           
     66600   505.8966       8214.6852     -1567.2479     -772.92709      1947.2613      8679.1453     -153.5867       82.040294      0.9945181      35630.406      71           
     66700   492.1238       8432.4772     -1567.3539     -564.25571      1927.5302      8662.2666     -111.13862      85.428607      0.99136649     35743.677      71           
     66800   487.87151      8332.1789     -1595.613      -708.45839      1931.0862      8691.9746     -79.378439      92.56781       0.98756492     35881.271      71           
     66900   507.96605      8260.3291     -1562.4348     -777.23362      1950.0507      8689.3565     -133.25133      93.84162       0.9858388      35944.096      71           
     67000   507.98817      8418.7973     -1589.4669     -690.45651      1987.9413      8705.1178     -90.291527      95.95322       0.9835131      36029.092      71           
     67100   498.92499      171621.48      483.67129     -658.99441      163100.98      8743.3655     -137.99442      90.455797      0.97977725     36166.469      72           
     67200   506.51109      8535.2932     -1623.8826     -488.18405      1976.9884      8682.6063     -111.20488      98.970133      1.040199       34065.679      72           
     67300   510.0856       8238.9468     -1586.8418     -631.75668      1938.2667      8613.8044     -173.96298      79.437114      1.0380055      34137.665      72           
     67400   492.09855      141757.82      4480.847      -607.92939      129102.13      8817.3052     -124.88491      90.34394       1.0336279      34282.244      74           
     67500   500.35635      8171.3226     -1611.0873     -418.74224      1831.2672      8558.3238     -284.48231      96.043422      1.0788059      32846.581      74           
     67600   489.83807      8138.6355     -1633.0083     -461.18558      1887.6313      8439.0185     -186.13315      92.312694      1.0737474      33001.322      74           
     67700   498.76496      8084.3413     -1616.7495     -407.96524      1822.1893      8364.1114     -152.86553      75.620935      1.0674931      33194.672      74           
     67800   512.35702      7932.1461     -1660.7372     -610.43391      1834.8939      8412.3644     -123.28919      79.348063      1.0610487      33396.283      74           
     67900   506.49202      8042.2396     -1631.6542     -605.57029      1861.8973      8436.4263     -117.63849      98.778975      1.0548841      33591.448      74           
     68000   504.13013      7864.2112     -1603.2602     -706.91248      1852.3128      8381.385      -147.56931      88.255375      1.0480251      33811.293      74           
     68100   493.34746      7897.9427     -1623.8253     -704.58349      1888.0306      8407.3037     -167.68105      98.698256      1.0416096      34019.543      74           
     68200   507.95386      7739.6013     -1623.2266     -744.77676      1874.6397      8353.157      -205.53657      85.344431      1.0353512      34225.182      74           
     68300   514.59227      7744.2034     -1654.1611     -825.51867      1882.8338      8336.9388     -93.099473      97.210064      1.029358       34424.451      74           
     68400   513.29297      7960.769      -1608.1014     -705.04421      1927.6369      8408.3371     -150.86082      88.80136       1.0246037      34584.185      74           
     68500   506.76311      7865.819      -1618.4079     -752.7041       1856.654       8344.2756     -52.153157      88.15449       1.0193998      34760.731      74           
     68600   494.4667       7998.7798     -1614.4765     -663.26583      1908.2297      8446.0116     -168.62968      90.910592      1.0142742      34936.394      74           
     68700   498.8308       7820.1024     -1635.5785     -794.25332      1916.4927      8405.2819     -158.27465      86.434349      1.0101554      35078.843      74           
     68800   502.33496      7767.6717     -1638.5498     -863.68533      1907.6775      8449.9115     -180.70251      93.020447      1.0055735      35238.682      74           
     68900   507.15542      7868.4323     -1613.5317     -751.13368      1846.5501      8429.4853     -138.53774      95.59999       1.0031825      35322.669      74           
     69000   500.24772      8018.2807     -1622.2872     -715.06745      1985.199       8346.2902     -70.989333      95.135576      1.0003348      35423.224      74           
     69100   506.63129      7994.5722     -1586.8109     -648.41774      1945.3632      8339.9817     -140.53832      84.994273      0.99690888     35544.958      74           
     69200   495.95153      7956.3921     -1615.1738     -647.38976      1900.8948      8323.4395     -87.010828      81.632145      0.99327487     35675.003      74           
     69300   493.06469      7917.9562     -1587.7851     -665.84631      1877.1961      8330.0142     -125.26545      89.642706      0.99030135     35782.122      74           
     69400   503.17944      7907.6633     -1625.2429     -691.33634      1945.3506      8272.8542     -86.873297      92.911065      0.98745718     35885.185      74           
     69500   500.48715      8016.1321     -1611.9874     -748.67438      1932.6625      8426.0501     -78.793467      96.87481       0.98475417     35983.685      74           
     69600   508.61283      7901.8579     -1565.75       -790.87482      1964.4103      8342.3704     -144.484        96.186109      0.9827955      36055.399      74           
     69700   501.11018      8014.9395     -1565.905      -694.3464       1879.3728      8365.2183     -57.501607      88.101459      0.9799152      36161.378      74           
     69800   495.2562       7993.103      -1585.8444     -664.94682      1936.7001      8341.4702     -125.0186       90.742525      0.97719509     36262.036      74           
     69900   491.35083      7925.9347     -1583.3834     -689.81808      1940.5925      8290.7436     -114.7281       82.528248      0.97455237     36360.369      74           
     70000   497.27609      8108.4595     -1571.3684     -674.10809      1986.2952      8451.8868     -173.88853      89.64261       0.97275025     36427.731      74           
     70100   512.7088       7994.6034     -1577.0812     -702.54692      1986.9092      8313.6313     -107.27914      80.97014       0.97032801     36518.666      74           
     70200   505.31975      7910.1814     -1588.6469     -743.45421      1942.9214      8346.8662     -132.05959      84.554441      0.96864526     36582.107      74           
     70300   495.85212      7897.0948     -1587.4375     -751.79106      1869.2515      8389.6393     -114.9419       92.374383      0.96724064     36635.231      74           
     70400   494.03045      8113.632      -1538.4393     -588.44524      2034.8159      8237.2382     -114.24208      82.704437      0.96543232     36703.851      74           
     70500   503.61144      8029.3743     -1527.6005     -751.10716      1932.6204      8391.5299     -105.33756      89.269265      0.96413025     36753.42       74           
     70600   506.02419      8102.7635     -1503.8005     -681.14587      1943.7678      8377.3712     -117.68802      84.258897      0.96209654     36831.11       74           
     70700   501.11195      7947.2094     -1546.5958     -809.49808      1920.0684      8412.497      -124.13273      94.870593      0.95966199     36924.547      74           
     70800   505.90343      7934.4183     -1516.1789     -718.95577      1960.3819      8361.9061     -231.7158       78.980835      0.95991628     36914.765      74           
     70900   488.44376      8016.4194     -1572.1521     -729.91606      1999.3612      8382.5138     -159.9387       96.551189      0.95834949     36975.117      74           
     71000   494.18559      7778.5645     -1597.3701     -827.95502      1913.2996      8278.4483     -59.826393      71.968113      0.95813896     36983.241      74           
     71100   485.32838      7845.9637     -1598.874      -840.1994       1932.8109      8338.9397     -76.792953      90.079404      0.9578596      36994.027      74           
     71200   500.71884      7932.0439     -1529.8573     -796.32543      1954.9214      8374.4483     -162.25028      91.10721       0.95777692     36997.221      74           
     71300   498.332        8211.0622     -1507.2855     -590.4259       1995.8567      8395.3137     -175.68372      93.286812      0.95657593     37043.671      74           
     71400   508.52147      8223.2885     -1552.564      -471.38343      1934.4689      8316.0598     -97.12134       93.82856       0.9532448      37173.121      74           
     71500   511.38364      7958.4845     -1501.6383     -654.97796      1955.6384      8295.1808     -240.87769      105.15927      0.95106585     37258.287      74           
     71600   492.15769      8130.9447     -1544.5261     -527.16556      1973.6077      8340.1174     -205.99029      94.90142       0.94832227     37366.078      74           
     71700   487.26248      8053.7392     -1502.3111     -593.75497      1966.6865      8253.5431     -157.24992      86.825695      0.94632366     37444.994      74           
     71800   503.62293      7959.6849     -1549.0867     -727.3518       1965.8848      8252.4161     -77.878569      95.701086      0.94500373     37497.296      74           
     71900   496.97718      8109.1927     -1539.9091     -673.52144      1927.5197      8342.6107     -37.256355      89.749112      0.94506144     37495.006      74           
     72000   507.49985      7988.0945     -1509.1977     -700.81532      1961.9768      8295.4842     -139.18973      79.836215      0.94549041     37477.994      74           
     72100   489.20578      8169.0016     -1555.902      -687.46996      1987.7772      8443.7556     -126.57415      107.4149       0.94539675     37481.707      74           
     72200   512.70685      7993.8463     -1511.0277     -696.1718       1927.8518      8372.8982     -181.67909      81.974921      0.94595819     37459.461      74           
     72300   512.33963      8132.4857     -1531.265      -567.57695      1945.5589      8339.8822     -148.28362      94.170235      0.9454386      37480.048      74           
     72400   494.7021       8104.3578     -1513.6259     -622.31868      1987.3149      8274.2537     -105.9232       84.656963      0.94500733     37497.152      74           
     72500   506.69074      7971.7124     -1540.1773     -567.63097      1862.7918      8264.5551     -142.91309      95.086813      0.94475964     37506.983      74           
     72600   499.08189      8123.4307     -1518.6646     -584.23508      1912.4071      8235.545      -21.570065      99.948304      0.94445308     37519.158      74           
     72700   506.09484      8137.7163     -1526.2485     -597.01948      1987.8271      8297.4996     -113.08088      88.738405      0.94280354     37584.802      74           
     72800   509.70393      8123.0939     -1530.095      -570.27259      1979.3643      8266.046      -112.90218      90.953406      0.94304869     37575.031      74           
     72900   499.02317      8196.5256     -1494.1116     -554.85897      1984.4216      8254.9893     -93.611831      99.696999      0.94364403     37551.326      74           
     73000   491.6537       8203.0417     -1509.1848     -599.03005      2076.9802      8344.7188     -194.71563      84.273247      0.94223789     37607.365      74           
     73100   498.40125      8198.2198     -1530.7223     -545.59769      1962.6196      8338.2744     -115.09988      88.745671      0.94025902     37686.513      74           
     73200   509.10053      8022.7302     -1523.6179     -639.66153      1922.3021      8400.6666     -221.98749      85.028438      0.9389614      37738.595      74           
     73300   498.89474      8217.3669     -1456.7774     -533.0354       1954.8422      8280.2187     -115.83825      87.957015      0.93800489     37777.078      74           
     73400   495.20957      8090.2909     -1509.2801     -668.57899      1938.5895      8271.4693     -37.031228      95.122419      0.93575421     37867.94       74           
     73500   496.95919      8032.214      -1506.2961     -657.85603      1876.9938      8326.5526     -103.83498      96.654786      0.93392972     37941.917      74           
     73600   502.74573      7960.9456     -1550.4141     -709.96781      2025.6601      8293.6748     -192.31334      94.306022      0.93319076     37971.962      74           
     73700   507.66835      8187.0194     -1507.061      -558.94999      2054.5533      8279.3204     -174.30742      93.464185      0.93308273     37976.358      74           
     73800   516.62906      8069.5113     -1507.8899     -669.48863      1974.4288      8342.4679     -163.00589      92.99902       0.93234746     38006.307      74           
     73900   495.4863       8162.0712     -1511.5081     -662.9888       2000.2503      8385.5673     -135.23515      85.985627      0.93463106     37913.446      74           
     74000   493.58797      8138.937      -1523.9448     -611.24805      2002.0981      8291.3583     -116.3877       97.061277      0.93750519     37797.214      74           
     74100   498.63722      8125.0764     -1511.6528     -594.02259      1995.0546      8263.9635     -117.40159      89.135337      0.93738594     37802.022      74           
     74200   500.94774      8176.5219     -1483.1373     -575.28766      2070.2136      8286.3662     -216.46603      94.833108      0.93743922     37799.874      74           
     74300   503.32982      8233.1061     -1509.9742     -611.38793      1974.1479      8325.5231     -48.055499      102.85277      0.93691443     37821.046      74           
     74400   502.10746      8226.8392     -1506.0443     -675.5274       2015.267       8353.5592     -56.549096      96.133844      0.93591235     37861.541      74           
     74500   502.17533      8130.3984     -1487.3444     -624.46943      1948.9036      8352.5414     -140.0127       80.779935      0.93365721     37952.991      74           
     74600   498.60275      8047.6423     -1527.6718     -621.49471      1973.1909      8288.6144     -153.76951      88.772898      0.93130862     38048.702      74           
     74700   487.38667      8091.9201     -1484.103      -735.24588      1938.9197      8387.3866     -108.79166      93.7544        0.92898834     38143.734      74           
     74800   510.95352      8191.33       -1493.1444     -556.36467      1943.0391      8350.5785     -150.32795      97.54937       0.92781693     38191.892      74           
     74900   497.17785      8439.6975     -1502.6746     -471.98893      1996.0927      8456.4826     -124.65718      86.442906      0.9275698      38202.067      74           
     75000   513.25135      8059.7864     -1491.308      -670.74038      1951.4032      8377.3374     -199.05477      92.14892       0.92761475     38200.216      74           
     75100   492.17798      8232.7296     -1497.1596     -581.13145      1942.2316      8376.1738     -91.936735      84.551903      0.92820597     38175.885      74           
     75200   488.72111      8145.2705     -1472.8239     -520.77122      1844.5266      8356.1786     -154.04279      92.20325       0.93064167     38075.97       74           
     75300   484.05263      8185.6895     -1511.8855     -530.19664      1907.104       8380.7705     -138.37802      78.275126      0.93034875     38087.958      74           
     75400   503.99007      8041.8465     -1519.0794     -576.4896       1944.2498      8311.5703     -201.76556      83.36093       0.93178026     38029.443      74           
     75500   493.26648      8086.4506     -1501.4527     -707.61369      2006.6715      8348.0891     -158.11863      98.874963      0.93362603     37954.259      74           
     75600   502.48706      8164.4194     -1487.0004     -608.79967      2009.2637      8341.6389     -187.70149      97.018368      0.93401168     37938.588      74           
     75700   495.34345      8378.3736     -1507.1486     -506.96738      2058.7245      8352.7207     -110.68595      91.730423      0.93177673     38029.587      74           
     75800   509.16989      8201.7826     -1517.2117     -581.83818      1944.8678      8369.9574     -121.4576       107.46492      0.93017986     38094.874      74           
     75900   500.98436      8284.0608     -1471.6086     -501.92218      1984.2466      8333.4916     -145.78998      85.643364      0.92860907     38159.313      74           
     76000   492.36144      8169.0219     -1514.1147     -609.36105      1949.2761      8347.447      -110.41154      106.18601      0.92562742     38282.232      74           
     76100   488.4938       8238.5825     -1476.1893     -573.8595       1935.7525      8326.8521     -68.451401      94.478194      0.92244166     38414.445      74           
     76200   510.30897      8163.3237     -1485.3971     -599.21842      1997.7672      8365.9736     -201.22813      85.426692      0.92031715     38503.122      74           
     76300   509.97413      8180.4651     -1498.1296     -641.34244      1949.8059      8428.9155     -143.74955      84.965363      0.91875217     38568.708      74           
     76400   494.78874      8293.6115     -1495.0137     -591.33465      2114.2737      8312.5003     -134.82266      88.008561      0.91751308     38620.794      74           
     76500   503.77046      7964.7712     -1458.0821     -797.20166      1976.1302      8343.4228     -180.27028      80.772191      0.91630116     38671.875      74           
     76600   503.91687      7987.0397     -1458.4456     -747.65539      1945.1607      8332.4073     -163.65714      79.229773      0.9167959      38651.006      74           
     76700   488.1667       8119.233      -1524.3438     -773.87371      2035.4381      8463.6414     -176.88344      95.254524      0.91902973     38557.06       74           
     76800   508.01182      8023.0504     -1487.0537     -739.39903      1981.7544      8329.2301     -158.39738      96.916003      0.92080408     38482.762      74           
     76900   507.56162      64118.238      2315.7351     -549.38989      54062.235      8305.0748     -106.77075      91.354357      0.92135491     38459.755      75           
     77000   518.76166      8020.6116     -1541.5833     -641.54121      1941.8827      8276.0526     -98.74584       84.546696      0.96233354     36822.04       75           
     77100   501.119        7946.2962     -1558.7849     -734.78627      1958.1595      8272.9979     -84.251296      92.961229      0.96536283     36706.493      75           
     77200   497.61345      7850.0382     -1531.1816     -761.65902      2042.4962      8200.4229     -202.33417      102.2939       0.96508262     36717.151      75           
     77300   500.35131      7815.288      -1519.1825     -752.72194      1954.6291      8149.8627     -109.64829      92.348878      0.96269676     36808.147      75           
     77400   507.98613      7831.418      -1557.1878     -752.22794      2005.76        8147.7326     -97.562151      84.903281      0.96043952     36894.654      75           
     77500   503.86617      7923.2093     -1473.0395     -797.8011       1953.1647      8257.2087     -118.09191      101.7684       0.95763529     37002.692      75           
     77600   506.42281      7877.5362     -1513.3246     -760.23453      1932.4553      8238.9888     -109.03401      88.68527       0.95504575     37103.023      75           
     77700   491.95197      7963.7748     -1526.9935     -616.21038      2036.0156      8138.8859     -151.91694      83.994177      0.9542222      37135.045      75           
     77800   494.67716      7952.6893     -1491.3467     -597.9236       1933.6418      8240.6158     -220.89565      88.59756       0.95212186     37216.963      75           
     77900   499.32873      7810.7574     -1514.9851     -763.12537      1972.027       8107.7262     -74.641184      83.755842      0.95070922     37272.263      75           
     78000   502.67922      69837.273      195.6896      -664.68944      62102.039      8213.6561     -109.2278       99.805752      0.94972928     37310.721      76           
     78100   505.21422      46481.578      924.61426     -628.18926      38162.372      8095.9017     -159.7161       86.594714      0.98569594     35949.305      77           
     78200   498.64902      7609.005      -1577.9452     -675.0322       1916.1326      8051.7974     -206.39289      100.44529      1.0024827      35347.327      77           
     78300   504.08586      7594.7865     -1557.1079     -590.62378      1870.6442      8004.6176     -225.00846      92.264805      1.0000511      35433.274      77           
     78400   498.47339      56180.549      676.37385     -621.21019      48219.298      8009.1942     -192.69948      89.592711      0.99740808     35527.168      78           
     78500   497.97705      7715.034      -1588.8547     -496.65405      1911.4826      7949.5306     -157.1035       96.633084      1.0207626      34714.324      78           
     78600   500.03944      7445.5652     -1588.6079     -718.98827      1965.7646      7844.4063     -158.18056      101.17093      1.0183476      34796.65       78           
     78700   498.72589      7450.9348     -1558.6135     -663.77371      1922.681       7820.9515     -163.36386      93.053395      1.0135816      34960.269      78           
     78800   497.56264      7373.0487     -1618.4696     -684.36491      1930.9769      7838.3827     -179.30804      85.831573      1.0086627      35130.757      78           
     78900   500.9382       7495.2658     -1601.915      -518.46162      1853.593       7864.1394     -197.13045      95.040487      1.0042854      35283.88       78           
     79000   501.14683      7441.257      -1553.8307     -671.14312      1890.9609      7874.2444     -174.67751      75.703033      1.0013947      35385.732      78           
     79100   511.3966       7551.87       -1571.7261     -587.19143      1914.9423      7847.3381     -146.91574      95.422861      0.99821592     35498.416      78           
     79200   497.37592      7592.154      -1595.5713     -637.89179      1965.2113      7968.1262     -204.4577       96.737249      0.99463726     35626.138      78           
     79300   499.75862      7278.7614     -1553.6806     -827.33154      1863.1486      7852.6971     -154.70274      98.630574      0.99089565     35760.662      78           
     79400   485.58269      7394.095      -1571.0417     -687.51357      1881.0528      7861.498      -189.77148      99.870949      0.98863371     35842.48       78           
     79500   496.11929      7343.5507     -1546.7304     -671.94188      1867.7942      7845.4454     -254.6136       103.59699      0.9863708      35924.709      78           
     79600   496.53268      7315.3228     -1560.8073     -798.20768      1946.2731      7814.8511     -175.65341      88.866972      0.98368919     36022.643      78           
     79700   499.3317       7524.1022     -1616.9027     -643.89587      1932.7844      7900.7935     -149.1504       100.47324      0.98230637     36073.353      78           
     79800   496.34068      7577.6642     -1540.5502     -674.61177      1914.258       7895.2615     -114.98073      98.287334      0.9815703      36100.404      78           
     79900   502.75368      7516.831      -1548.5487     -715.86514      1945.1858      7875.8472     -131.82117      92.033086      0.98000976     36157.889      78           
     80000   502.9876       7591.1987     -1583.0224     -641.40409      1984.4329      7895.0926     -155.6437       91.743316      0.97765967     36244.805      78           
     80100   509.41545      7507.5659     -1563.5856     -695.01012      2043.5345      7791.4887     -153.35633      84.494869      0.97509391     36340.176      78           
     80200   503.08929      7456.3865     -1549.0286     -762.47971      1937.1482      7931.9951     -185.9464       84.697896      0.97220222     36448.265      78           
     80300   501.45504      7467.893      -1582.2668     -632.92289      1912.1434      7859.1366     -166.60005      78.402755      0.96874985     36578.157      78           
     80400   503.37531      7325.6647     -1567.958      -724.13177      1823.5141      7863.9278     -152.85755      83.1702        0.96622568     36673.714      78           
     80500   498.90198      7499.6158     -1589.2886     -735.25618      1954.0927      7865.9316     -94.155751      98.292117      0.96417262     36751.805      78           
     80600   493.08571      7673.0437     -1550.6125     -707.84927      2035.3573      7923.0981     -116.44309      89.493192      0.96316444     36790.274      78           
     80700   496.33989      7710.9769     -1528.1707     -620.64919      1954.8165      7907.0267     -109.00618      106.95975      0.96306938     36793.906      78           
     80800   497.94553      7564.0258     -1538.3808     -683.882        1944.0472      7974.7862     -228.51298      95.968078      0.96227422     36824.31       78           
     80900   486.81212      7611.9215     -1535.7287     -609.68405      2048.4054      7864.6567     -239.08458      83.35666       0.95983517     36917.885      78           
     81000   497.74199      82109.746      1238.616      -632.91395      73767.895      7823.2818     -176.46248      89.329625      0.95871831     36960.892      79           
     81100   514.14821      7498.4055     -1563.0764     -607.2316       1912.7488      7871.1607     -212.81109      97.615062      1.0033334      35317.356      79           
     81200   508.81604      7528.626      -1548.2567     -606.43551      1926.0442      7809.6564     -149.77297      97.390678      1.0021092      35360.5        79           
     81300   506.40512      7255.3201     -1587.8852     -764.52596      1836.4031      7846.625      -175.02566      99.728785      0.99857624     35485.607      79           
     81400   494.2059       7295.0264     -1567.7049     -769.38507      1946.9542      7930.6922     -333.7945       88.264401      0.99655865     35557.45       79           
     81500   499.62136      7253.8311     -1578.0325     -751.06336      1938.3976      7804.1769     -239.22477      79.57726       0.99431101     35637.827      79           
     81600   511.88769      169468.45      557.16205     -801.49143      162077.73      7761.1879     -227.50596      101.36189      0.99198241     35721.484      80           
     81700   522.74543      7380.4676     -1613.2295     -686.80527      1942.8092      7879.1276     -230.57311      89.1387        1.0496789      33758.023      80           
     81800   511.26378      7269.903      -1600.0409     -681.55471      1983.2555      7725.8155     -250.34865      92.776345      1.0461877      33870.674      80           
     81900   498.05891      7140.5903     -1633.451      -769.8313       1984.7846      7736.4945     -248.5815       71.175055      1.0413151      34029.165      80           
     82000   487.11533      7249.9091     -1582.8473     -639.7868       1892.3274      7712.8873     -218.85172      86.180191      1.0373503      34159.226      80           
     82100   492.94069      385118.31      535.6409      -685.79445      377652.75      7688.1565     -157.67899      85.231395      1.031975       34337.155      81           
     82200   527.26372      85126.059      1065.4126     -558.41988      76837.324      7848.8847     -169.86453      102.72206      1.1211508      31605.993      82           
     82300   532.69534      7265.7581     -1572.7383     -608.6149       1966.0442      7655.1647     -256.05864      81.960945      1.141757       31035.574      82           
     82400   504.61113      46889.651      677.58711     -555.39735      39314.133      7628.0509     -262.86093      88.137919      1.131914       31305.457      83           
     82500   498.94787      7030.9987     -1668.412      -450.36021      1875.6857      7456.1186     -266.83152      84.798067      1.1409531      31057.441      83           
     82600   490.55525      6857.6117     -1663.668      -506.14399      1814.2116      7388.546      -251.05053      75.716628      1.1303635      31348.398      83           
     82700   490.07427      6668.3719     -1657.3495     -627.13277      1715.2353      7277.1828     -130.47111      90.907182      1.1174671      31710.18       83           
     82800   491.78866      6822.0736     -1663.0417     -615.74314      1843.4106      7447.7731     -268.98464      78.659371      1.1057232      32046.976      83           
     82900   499.95557      6934.4081     -1653.4282     -542.54532      1861.2775      7360.2654     -179.19342      88.032111      1.0940324      32389.429      83           
     83000   511.19309      6939.094      -1671.6402     -505.23808      1876.2578      7274.6317     -118.75712      83.83979       1.0835792      32701.887      83           
     83100   504.48659      6916.909      -1652.1622     -546.41241      1877.4591      7352.5214     -201.26757      86.770713      1.0742502      32985.877      83           
     83200   501.89695      6748.1651     -1676.1753     -677.0088       1844.1949      7292.3451     -116.50161      81.310882      1.0645168      33287.484      83           
     83300   490.01757      6808.3834     -1624.3559     -696.05489      1859.7845      7320.8649     -157.04895      105.19366      1.0572007      33517.841      83           
     83400   502.13133      6766.7065     -1615.8536     -661.01804      1886.8727      7166.0823     -98.680443      89.303605      1.0510686      33713.388      83           
     83500   499.17282      6787.6412     -1598.2485     -798.82892      1872.5917      7345.7156     -139.33688      105.74825      1.0441087      33938.116      83           
     83600   507.87774      6824.4035     -1622.1851     -740.29628      1891.7054      7296.4817     -111.69643      110.39426      1.0386872      34115.262      83           
     83700   496.94589      7001.44       -1561.5854     -616.41104      1842.625       7428.0495     -188.53919      97.301217      1.0321923      34329.924      83           
     83800   501.32334      6737.5901     -1615.7439     -699.8785       1888.6314      7357.4269     -282.87635      90.030448      1.0260432      34535.664      83           
     83900   483.10851      6828.3314     -1577.2814     -636.99266      1867.6245      7310.1585     -228.35765      93.180147      1.0210652      34704.037      83           
     84000   488.62495      6938.0263     -1575.7411     -559.77548      1794.3408      7414.0729     -221.47366      86.60294       1.0151685      34905.618      83           
     84100   495.44037      213761.31      902.56152     -623.35856      206297.45      7342.971      -239.68656      81.374032      1.0105461      35065.282      84           
     84200   506.44639      7021.781      -1635.2971     -552.337        1873.9023      7475.8611     -237.11016      96.761859      1.0776265      32882.529      84           
     84300   503.96444      64357.454      438.94448     -699.92606      57535.509      7325.3687     -313.39885      70.956569      1.074028       32992.7        85           
     84400   501.82934      6632.7255     -1646.495      -608.91051      1923.7942      7273.2298     -401.74011      92.847119      1.0939164      32392.862      85           
     84500   498.25889      6532.603      -1676.275      -642.69883      1875.4811      7149.1193     -260.03676      87.013209      1.0893238      32529.433      85           
     84600   492.00617      6612.2838     -1644.7247     -609.31517      1842.6096      7185.2768     -262.59398      101.03121      1.0820407      32748.385      85           
     84700   502.46284      6583.9819     -1634.8726     -664.20674      1773.7121      7161.1618     -148.65861      96.845999      1.0739602      32994.784      85           
     84800   513.87201      25219.765      1638.113      -592.10916      17198.905      7114.7147     -239.41879      99.559866      1.0667801      33216.858      86           
     84900   497.2334       120087.19      798.58098     -663.27404      112984.95      7103.3362     -228.32548      91.927015      1.0699565      33118.247      87           
     85000   508.01445      6666.7767     -1637.3711     -384.31816      1889.4169      6964.4278     -268.66668      103.28788      1.1182814      31687.091      87           
     85100   501.65778      6378.4093     -1635.1179     -602.67898      1878.0626      6908.5897     -261.6619       91.215769      1.1119274      31868.163      87           
     85200   507.33556      6167.8469     -1668.9135     -692.40462      1825.7871      6863.2165     -255.34269      95.504123      1.1035191      32110.985      87           
     85300   495.08051      6378.7525     -1676.8638     -547.87622      1800.0767      6912.99       -207.1942       97.620135      1.0954718      32346.87       87           
     85400   499.11619      6212.0136     -1641.2551     -699.06842      1787.812       6939.5994     -266.98401      91.90985       1.0865865      32611.378      87           
     85500   498.19742      6295.3324     -1638.3513     -800.55728      1916.0506      6892.462      -157.07542      82.803826      1.0774639      32887.491      87           
     85600   508.70765      6202.5428     -1653.1087     -783.62168      1852.1851      6876.421      -183.32636      93.993508      1.0692301      33140.747      87           
     85700   503.47527      6219.0595     -1697.233      -723.63103      1886.7487      6862.2507     -206.53358      97.457667      1.0615275      33381.222      87           
     85800   499.61524      6129.1082     -1614.2341     -809.07714      1869.6247      6872.8237     -276.88791      86.858872      1.0556807      33566.101      87           
     85900   487.50008      6209.5963     -1612.94       -888.65643      1849.3803      7025.2342     -265.1565       101.73472      1.0490136      33779.434      87           
     86000   506.38904      6313.7931     -1612.2379     -774.14565      1782.8754      7018.8822     -205.60791      104.02695      1.0428323      33979.658      87           
     86100   509.8785       6301.9922     -1629.8836     -775.91214      1897.4554      6955.3052     -243.78747      98.814818      1.0360999      34200.453      87           
     86200   495.03606      6364.3562     -1602.1609     -754.63111      1855.3785      6925.7201     -158.76563      98.815243      1.0302393      34395.003      87           
     86300   486.27819      6355.0917     -1642.9891     -730.16976      1886.9792      6947.1056     -194.13485      88.300575      1.0249077      34573.928      87           
     86400   499.60374      6235.8325     -1591.7727     -698.09442      1863.3157      6768.2852     -204.46303      98.561878      1.0212241      34698.636      87           
     86500   509.11241      6341.2996     -1663.0876     -714.76653      1908.7353      6940.2559     -224.19676      94.359205      1.0170695      34840.378      87           
     86600   510.16067      6448.3423     -1622.8245     -659.83355      1893.5513      6909.0204     -158.54182      86.97044       1.0123058      35004.328      87           
     86700   510.08478      6344.5073     -1607.3294     -690.73824      1843.1809      6881.0912     -180.59271      98.895594      1.0085786      35133.686      87           
     86800   490.20668      63539.437     -29.357589     -816.70929      57493.008      6983.658      -192.03302      100.87163      1.004052       35292.081      88           
     86900   490.93902      6318.5261     -1625.8716     -665.89301      1807.9326      6855.4993     -158.24256      105.10124      1.0396563      34083.461      88           
     87000   492.78762      40119.779      389.50053     -794.07447      33718.382      6905.4759     -206.03046      106.52493      1.0383239      34127.197      89           
     87100   503.49929      6222.5309     -1618.1676     -734.21136      1928.3895      6783.4014     -243.29343      106.41237      1.052889       33655.099      89           
     87200   502.19157      6308.818      -1636.465      -708.20023      1892.3024      6856.9678     -192.32943      96.542497      1.0494117      33766.619      89           
     87300   501.82935      6130.3972     -1624.8473     -756.84078      1942.8081      6754.2076     -281.58206      96.651602      1.0439668      33942.732      89           
     87400   499.54941      55408.48       474.4188      -769.68109      49128.87       6763.4423     -284.6601       96.089921      1.0388074      34111.314      90           
     87500   506.68384      5974.5295     -1601.4047     -663.49163      1847.7313      6563.9767     -259.23755      86.955385      1.0636368      33315.021      90           
     87600   503.23017      5822.5024     -1613.5422     -791.46092      1797.1692      6645.6459     -301.67227      86.362586      1.060085       33426.644      90           
     87700   497.72586      5986.2701     -1646.1234     -530.2132       1770.3982      6583.4639     -295.75364      104.49821      1.053391       33639.062      90           
     87800   481.12364      5932.2058     -1616.6874     -685.54057      1893.9341      6500.0799     -247.42411      87.843849      1.0472091      33837.638      90           
     87900   498.85887      5967.845      -1608.644      -586.33295      1799.1835      6579.319      -305.59424      89.913679      1.0414186      34025.784      90           
     88000   499.49096      5979.4194     -1598.3071     -650.05178      1839.1421      6483.4701     -188.97476      94.140832      1.0352394      34228.88       90           
     88100   500.7657       5938.493      -1662.1214     -734.84456      1867.1331      6558.9434     -194.25611      103.63854      1.0302033      34396.204      90           
     88200   499.2686       51592.482      597.94594     -602.68891      45127.768      6602.1569     -243.34943      110.64895      1.025648       34548.973      91           
     88300   499.95555      6105.134      -1653.3498     -597.88088      1893.9116      6574.6377     -213.34999      101.16535      1.0518724      33687.627      91           
     88400   498.93853      6033.2252     -1553.0643     -587.60716      1857.8684      6516.6127     -292.35884      91.774331      1.04985        33752.521      91           
     88500   491.99553      58975.27       847.80198     -639.07962      52375.501      6541.8658     -257.22252      106.40255      1.0437776      33948.883      92           
     88600   497.2684       5744.9173     -1611.3377     -712.68954      1866.9013      6282.0194     -184.12631      104.15003      1.0725981      33036.684      92           
     88700   499.02746      41695.314      835.48051     -771.52216      35293.142      6585.8213     -353.39795      105.7905       1.0694844      33132.866      93           
     88800   501.92861      5522.7454     -1673.0237     -804.36205      1900.5771      6298.7043     -289.57049      90.420262      1.0829361      32721.308      93           
     88900   499.04494      5685.9871     -1633.5643     -675.74507      1803.2215      6308.228      -216.70499      100.55206      1.0777043      32880.156      93           
     89000   492.96955      5641.6629     -1624.7393     -775.49871      1790.1859      6380.6425     -239.5153       110.58775      1.0700749      33114.582      93           
     89100   499.34982      5493.8677     -1626.752      -834.1717       1842.9329      6260.0193     -248.90897      100.74823      1.062828       33340.376      93           
     89200   499.29744      5588.5733     -1678.516      -750.01533      1805.502       6310.0528     -211.29983      112.84971      1.0566881      33534.1        93           
     89300   494.44778      5605.7599     -1653.0988     -777.91786      1847.8107      6352.2938     -268.8237       105.49566      1.0507155      33724.719      93           
     89400   511.8203       5511.1981     -1661.4478     -718.68932      1832.1719      6194.8356     -236.3364       100.6642       1.0453064      33899.231      93           
     89500   495.54261      5673.7411     -1607.2898     -736.57993      1848.1313      6329.4886     -262.81533      102.80622      1.0391495      34100.084      93           
     89600   502.73328      5879.0135     -1619.8045     -587.82609      1889.2577      6369.3599     -275.86911      103.89562      1.0335324      34285.412      93           
     89700   511.47079      106679.45      1151.6039     -717.70173      100096.15      6328.2181     -277.04345      98.223627      1.0268373      34508.956      94           
     89800   497.70368      5868.8507     -1597.182      -598.07138      1923.8294      6378.1128     -356.53134      118.69321      1.0743632      32982.406      94           
     89900   497.36077      55916.978     -81.092808     -743.37557      50707.607      6223.2674     -280.3052       90.877825      1.0707953      33092.306      95           
     90000   499.40621      5385.9721     -1618.9943     -667.70127      1843.2111      6057.3357     -333.1412       105.26211      1.0900707      32507.143      95           
     90100   503.72465      5302.1037     -1618.2627     -644.5302       1843.5932      5876.7717     -252.49286      97.024597      1.084345       32678.79       95           
     90200   515.82269      5204.1469     -1675.3808     -609.94885      1773.5012      5958.5766     -341.73762      99.13636       1.0776284      32882.469      95           
     90300   499.601        5344.0592     -1645.84       -676.50396      1813.5754      6039.5873     -279.7682       93.008739      1.0707577      33093.466      95           
     90400   501.47725      5413.3473     -1613.1037     -745.20195      1940.4975      6042.9106     -310.1183       98.363144      1.063468       33320.309      95           
     90500   503.7874       5351.5927     -1593.1166     -807.56881      1920.1393      6022.1332     -285.93612      95.941728      1.0561177      33552.21       95           
     90600   503.7426       5429.2381     -1666.0957     -686.0266       1815.9405      6097.9462     -233.10255      100.57625      1.0492932      33770.433      95           
     90700   496.45444      5549.5847     -1640.9237     -582.89053      1841.0312      6087.3362     -252.20082      97.232415      1.0431418      33969.577      95           
     90800   495.20014      5390.7843     -1617.4592     -826.47688      1849.1772      6168.0004     -291.18294      108.7258       1.0384246      34123.888      95           
     90900   503.36883      5515.876      -1612.3        -742.71288      1994.0529      6131.3475     -358.11344      103.602        1.0337273      34278.948      95           
     91000   515.39887      5482.2973     -1579.0882     -685.35269      1888.2268      6007.1032     -248.84451      100.25266      1.0284057      34456.328      95           
     91100   497.99046      5414.2947     -1601.3307     -809.96209      1909.3078      6118.0551     -307.73816      105.96265      1.0233669      34625.982      95           
     91200   491.3473       5458.5767     -1602.2591     -725.12667      1846.7853      6042.7379     -205.14972      101.58911      1.0192254      34766.681      95           
     91300   497.17744      5447.337      -1641.2376     -702.54738      1913.1979      6083.8102     -303.83596      97.949856      1.0160803      34874.295      95           
     91400   506.35382      5398.2118     -1607.2548     -741.27037      1852.3939      6071.1164     -271.22521      94.451879      1.0144036      34931.937      95           
     91500   499.15433      5440.1195     -1650.6095     -810.31102      1841.4045      6190.278      -238.96391      108.32137      1.0113108      35038.766      95           
     91600   497.79171      5399.7764     -1633.2221     -845.84344      1889.2985      6153.6658     -268.22252      104.10017      1.0098279      35090.221      95           
     91700   494.89062      5438.098      -1582.2705     -736.38234      1936.0049      6041.651      -323.60594      102.70095      1.0102017      35077.237      95           
     91800   486.73536      5481.489      -1594.2916     -702.59112      1876.8271      6066.1249     -277.78391      113.2036       1.0093709      35106.107      95           
     91900   490.6314       5569.2586     -1591.4543     -630.53056      1913.7059      6035.6631     -261.3912       103.26571      1.0075001      35171.296      95           
     92000   499.72524      5641.5345     -1626.408      -630.70081      1920.7742      6122.1046     -250.68195      106.44641      1.0047236      35268.491      95           
     92100   506.38591      5555.6814     -1573.3545     -689.96357      1858.4433      6106.6487     -262.07379      115.9813       1.0022897      35354.134      95           
     92200   494.93944      5698.9873     -1547.7992     -601.50585      1960.5673      6075.1607     -279.57109      92.135428      0.99853919     35486.924      95           
     92300   508.13311      5593.8313     -1584.2539     -598.32836      1930.566       5992.1203     -249.17326      102.90056      0.9954248      35597.952      95           
     92400   507.95784      5318.0405     -1580.5333     -827.79297      1852.0806      5998.0927     -225.08785      101.2813       0.99388386     35653.144      95           
     92500   506.28374      5504.6897     -1590.1763     -651.82309      1970.1592      5954.2841     -277.07227      99.318053      0.99248541     35703.38       95           
     92600   495.70735      5506.3513     -1557.4554     -733.56017      1857.9156      6056.432      -227.7673       110.78651      0.9919873      35721.308      95           
     92700   496.61122      5531.7224     -1603.807      -675.84955      1909.2706      5979.8382     -185.01235      107.28246      0.99005074     35791.18       95           
     92800   494.84229      5531.8272     -1593.9022     -691.60249      1921.2055      6009.4681     -214.90378      101.56212      0.98796576     35866.713      95           
     92900   501.44621      5573.2896     -1563.9807     -681.86817      1961.019       6033.1491     -282.97677      107.94711      0.98600302     35938.109      95           
     93000   494.29326      5687.0681     -1533.3218     -669.03425      1965.8965      6046.8078     -229.55269      106.27255      0.9830596      36045.713      95           
     93100   499.74519      5394.4582     -1559.3557     -822.30577      1901.0296      6005.1306     -234.23125      104.19071      0.98015564     36152.507      95           
     93200   489.15365      5465.7951     -1550.1357     -741.80231      1889.5836      6059.6169     -292.98323      101.51588      0.9775008      36250.696      95           
     93300   489.92267      5553.6839     -1538.181      -660.3557       1882.1224      5990.4082     -222.46775      102.15771      0.97562681     36320.326      95           
     93400   505.82114      5521.1452     -1543.776      -745.32341      1930.8099      6039.321      -268.00965      108.12331      0.97360437     36395.773      95           
     93500   500.17502      5590.3289     -1546.5309     -758.84116      1899.5101      6082.7068     -200.68864      114.17281      0.97264452     36431.69       95           
     93600   506.11335      5652.8514     -1557.8432     -580.63787      1832.8382      6005.55       -157.34812      110.29233      0.97176296     36464.741      95           
     93700   495.30633      5800.3329     -1494.0467     -418.3056       1890.8612      5944.6406     -236.43224      113.61563      0.96914043     36563.415      95           
     93800   499.66116      5508.2901     -1572.3466     -664.01996      1991.7102      6013.5289     -370.3397       109.75725      0.96838696     36591.864      95           
     93900   488.70634      5666.4797     -1519.2484     -647.74714      1876.8941      6049.4028     -214.085        121.26329      0.96847639     36588.485      95           
     94000   495.23573      5536.8429     -1553.4756     -767.64867      1975.6861      6107.341      -338.40336      113.34346      0.96835213     36593.18       95           
     94100   501.87734      5495.8971     -1528.3195     -769.94084      1951.4914      5965.2502     -227.89321      105.30896      0.9684715      36588.67       95           
     94200   499.49188      5564.7665     -1546.845      -718.6997       1955.0082      6005.3075     -229.44164      99.437078      0.96732979     36631.854      95           
     94300   502.32901      5588.1981     -1523.3677     -654.11619      1996.5877      5990.6057     -320.22315      98.711699      0.96565015     36695.572      95           
     94400   498.86162      5686.9254     -1532.0657     -578.2946       1926.0106      6061.0067     -295.43133      105.69965      0.96513445     36715.179      95           
     94500   496.36664      5638.5314     -1513.8106     -633.82778      1936.7951      6126.6889     -379.55902      102.24485      0.96463597     36734.152      95           
     94600   492.15472      5650.839      -1528.2362     -662.7048       1935.2958      6070.4443     -271.00534      107.04524      0.96140394     36857.644      95           
     94700   494.2794       5664.6054     -1521.9202     -652.01096      1982.7042      5986.5649     -244.91415      114.18161      0.95958145     36927.646      95           
     94800   502.22694      5661.8492     -1535.5617     -569.14701      1916.4348      5986.8273     -243.8605       107.15629      0.95875193     36959.596      95           
     94900   497.91267      5549.4476     -1555.9892     -617.03828      1947.3102      5974.6105     -298.24163      98.796019      0.95916963     36943.501      95           
     95000   486.74513      5515.6168     -1578.2634     -709.09597      1920.5674      6076.1607     -289.88879      96.136818      0.95975971     36920.787      95           
     95100   492.82793      5608.8034     -1563.6782     -687.81377      1941.7218      6080.9542     -272.81223      110.4316       0.96094061     36875.415      95           
     95200   506.22653      5612.4786     -1527.3062     -681.9032       1981.3451      5962.6093     -226.92043      104.65399      0.96297508     36797.509      95           
     95300   511.36242      5494.9665     -1504.6179     -710.89981      1849.8914      6070.4601     -315.10839      105.24118      0.96429855     36747.005      95           
     95400   505.43418      5485.0914     -1522.9704     -682.95748      1913.4947      6010.8339     -340.45998      107.15063      0.96324822     36787.074      95           
     95500   500.81579      5531.6251     -1531.284      -643.65614      1938.6783      5908.3395     -244.9995       104.54689      0.96119177     36865.78       95           
     95600   501.76705      5591.7114     -1532.0384     -616.23916      1919.9082      6018.022      -304.66738      106.72605      0.95885662     36955.561      95           
     95700   504.09877      5600.5137     -1506.8865     -740.50527      2002.8298      5963.0805     -222.64992      104.64501      0.9554124      37088.784      95           
     95800   502.43208      5600.4513     -1511.6562     -742.70426      1995.1134      6070.6116     -314.15832      103.24515      0.95456534     37121.696      95           
     95900   493.72075      210808.96     -102.66237     -783.36948      205753.93      6141.4747     -310.62794      110.22201      0.95314286     37177.096      96           
     96000   503.33841      5572.6238     -1586.0412     -606.48319      1937.1178      6043.3242     -321.21647      105.92269      1.0203467      34728.475      96           
     96100   507.74564      5438.9552     -1595.8065     -591.498        1930.757       5865.9456     -271.88068      101.43778      1.0195023      34757.239      96           
     96200   496.6182       5386.7764     -1654.7349     -644.04155      1907.1076      6017.1184     -339.83362      101.16048      1.0165104      34859.54       96           
     96300   499.88603      5362.1741     -1576.9245     -639.91603      1886.0075      5823.1039     -221.45882      91.362105      1.0136438      34958.124      96           
     96400   503.07539      5444.6084     -1544.1338     -626.81701      1820.8963      5948.3969     -258.40876      104.67481      1.0113258      35038.248      96           
     96500   506.31892      5560.8815     -1543.5725     -623.81066      1922.8445      5891.6367     -199.5545       113.338        1.00807        35151.411      96           
     96600   499.65326      5451.2953     -1560.9759     -733.66535      1958.1572      5902.2232     -215.26078      100.81688      1.0053196      35247.581      96           
     96700   496.45619      5513.3021     -1594.3613     -591.78619      2064.5207      5892.362      -357.36961      99.936464      1.0026996      35339.683      96           
     96800   504.47469      5329.3222     -1535.0668     -639.68106      1848.3984      5774.4372     -213.40093      94.6354        0.99907979     35467.722      96           
     96900   494.01497      5521.5663     -1550.6267     -549.65284      1931.2937      5886.4225     -289.66647      93.796069      0.99453547     35629.784      96           
     97000   509.39896      5466.6315     -1534.9313     -628.19029      1885.8254      5821.6683     -182.15576      104.41515      0.99198008     35721.568      96           
     97100   516.75965      5390.7835     -1545.1018     -712.8745       1932.64        5883.7396     -273.87586      106.25603      0.98924344     35820.388      96           
     97200   492.80684      5499.1075     -1580.4799     -740.26263      1935.8517      5995.7588     -222.94039      111.18006      0.98670324     35912.605      96           
     97300   493.32564      264773.62      594.53978     -840.31503      259218.42      5932.0175     -240.38729      109.34825      0.98395316     36012.979      97           
     97400   509.69902      5538.8794     -1626.3296     -540.9647       1858.5043      6017.0157     -295.18589      125.83951      1.0565721      33537.781      97           
     97500   507.77653      5445.3249     -1620.3533     -618.64781      1974.7904      5835.4016     -235.80572      109.93978      1.0550599      33585.85       97           
     97600   509.09008      5145.9331     -1639.2927     -732.76194      2038.0792      5852.9092     -475.09635      102.09569      1.0516575      33694.511      97           
     97700   491.47659      5140.9277     -1601.662      -739.95021      1816.5801      5833.8063     -268.65684      100.81035      1.0477752      33819.356      97           
     97800   500.81976      5054.4169     -1646.8763     -724.73739      1819.0624      5786.5767     -276.60661      96.997997      1.0428625      33978.672      97           
     97900   503.29095      5151.3096     -1599.2344     -672.32485      1824.4142      5693.6759     -186.64546      91.4242        1.0388513      34109.87       97           
     98000   506.55507      5110.8469     -1596.5984     -777.97665      1862.0149      5771.0045     -261.61686      114.01937      1.0352827      34227.448      97           
     98100   499.76835      5168.2339     -1630.3189     -845.90074      1932.3321      5840.4773     -227.51332      99.157518      1.0295673      34417.451      97           
     98200   497.40043      5096.9282     -1583.7602     -904.44628      1994.6725      5770.2368     -291.4017       111.62717      1.0264757      34521.112      97           
     98300   487.12477      5270.4748     -1605.9158     -649.88224      1942.3393      5770.9723     -280.65697      93.618215      1.0230193      34637.746      97           
     98400   502.48129      5108.8602     -1623.8743     -678.40867      1865.297       5797.7377     -352.97739      101.08585      1.0197097      34750.167      97           
     98500   509.30263      5228.7916     -1612.7049     -613.06094      1886.2755      5801.4015     -326.09248      92.972879      1.0170872      34839.769      97           
     98600   492.26379      5302.7135     -1602.1843     -769.36642      1919.5905      5914.9636     -267.6595       107.36957      1.0134932      34963.317      97           
     98700   504.01665      5157.4716     -1605.3156     -825.20593      1890.3968      5803.5553     -215.78815      109.82918      1.0112165      35042.034      97           
     98800   505.12127      5228.5652     -1583.621      -723.59802      1927.9203      5743.9431     -244.62607      108.54689      1.0083464      35141.775      97           
     98900   502.91842      5240.6358     -1529.0951     -712.04845      1929.177       5748.6695     -294.09128      98.024106      1.0058289      35229.735      97           
     99000   500.10428      5296.8137     -1594.9621     -646.9356       1919.3528      5822.7266     -307.74216      104.3742       1.0023356      35352.515      97           
     99100   504.1991       5208.8975     -1574.6796     -699.54889      1923.0635      5742.9347     -278.63649      95.764175      1.0007431      35408.771      97           
     99200   505.6944       5291.1069     -1569.4227     -610.99539      1892.0892      5731.9717     -258.63653      106.10065      0.99911685     35466.406      97           
     99300   510.06343      5228.8664     -1588.8869     -687.33098      1846.7029      5827.3132     -275.01796      106.08617      0.9963973      35563.208      97           
     99400   511.26696      5077.6667     -1578.1338     -831.89991      1876.9549      5759.2842     -257.20477      108.66598      0.99570265     35588.018      97           
     99500   488.39086      5377.3531     -1523.6509     -661.99953      1953.2043      5755.4768     -245.21772      99.540144      0.99375802     35657.659      97           
     99600   492.58636      5221.8343     -1574.9787     -687.36268      1896.7744      5801.2909     -317.56044      103.67075      0.99087636     35761.358      97           
     99700   488.83283      5206.8715     -1571.0661     -727.25674      2054.4016      5648.4224     -289.80858      92.178907      0.98746756     35884.808      97           
     99800   502.18315      5235.8966     -1570.1861     -740.02301      1916.1225      5777.3493     -259.94569      112.57962      0.9861037      35934.44       97           
     99900   515.88726      5052.3431     -1564.9503     -884.14288      1945.7744      5695.3072     -243.84774      104.20236      0.98457639     35990.183      97           
    100000   502.42738      5240.4652     -1542.5973     -784.50699      1929.6615      5840.146      -296.32738      94.089472      0.98318225     36041.216      97           
    100100   499.51493      5074.4761     -1587.2212     -839.96095      1907.2516      5785.3524     -299.1073       108.16152      0.98144745     36104.923      97           
    100200   490.86028      5125.1989     -1586.0246     -774.41301      1956.5474      5688.1463     -255.41656      96.359371      0.98198611     36085.117      97           
    100300   493.6739       5233.1974     -1556.9525     -682.42595      1857.0486      5840.531      -339.05783      114.05403      0.9810436      36119.785      97           
    100400   500.22501      5251.4952     -1564.1795     -679.36025      1886.1526      5746.1221     -238.74667      101.50691      0.98009079     36154.9        97           
    100500   497.08638      5457.8565     -1547.9482     -591.45588      1958.4046      5897.5739     -354.01036      95.292456      0.97914695     36189.751      97           
    100600   494.51963      5461.0836     -1533.3204     -689.51618      2028.7175      5902.962      -353.72596      105.96664      0.97788018     36236.632      97           
    100700   503.24734      5343.9177     -1575.5879     -760.67707      1991.8743      5922.8959     -334.39102      99.803402      0.97772946     36242.218      97           
    100800   502.69871      5367.584      -1542.884      -689.45866      1957.6547      5856.1639     -324.05999      110.16806      0.97747603     36251.614      97           
    100900   490.95468      5250.7428     -1551.1028     -755.14323      1981.5014      5791.3083     -321.5258       105.70483      0.9768966      36273.117      97           
    101000   495.53468      5153.4653     -1564.3313     -792.01465      1927.6524      5731.0229     -254.2717       105.40769      0.97718239     36262.508      97           
    101100   501.2783       5277.915      -1581.3806     -698.97935      1886.2895      5847.7921     -276.32691      100.52032      0.97781368     36239.096      97           
    101200   510.86874      43030.719      112.10677     -778.8074       38127.791      5722.9254     -266.54845      113.25236      0.97775841     36241.145      98           
    101300   505.29944      5212.3824     -1580.807      -698.73852      1927.8021      5846.9281     -377.52958      94.727383      1.0061159      35219.685      98           
    101400   502.97643      287522.74      687.18076     -645.12961      282036.21      5687.9036     -345.23054      101.80387      1.0096829      35095.259      99           
    101500   511.32496      5435.4838     -1596.8807     -578.97783      1952.8139      5928.7543     -378.71334      108.4875       1.0866999      32607.976      99           
    101600   508.09977      5125.301      -1644.3478     -733.92253      2023.5081      5641.2675     -268.61108      107.40685      1.0834767      32704.979      99           
    101700   508.35776      5033.0914     -1659.1615     -624.98819      1963.5137      5653.215      -402.42983      102.94221      1.0777233      32879.576      99           
    101800   497.07204      4936.3458     -1655.8156     -675.71526      1931.4876      5538.4091     -299.21142      97.191421      1.0725041      33039.58       99           
    101900   488.50398      5005.2193     -1673.2196     -595.1318       1818.5376      5625.5079     -269.78485      99.310004      1.0669535      33211.46       99           
    102000   493.29149      5025.8101     -1602.2316     -587.90393      1814.0739      5503.8847     -213.39006      111.37709      1.0625094      33350.371      99           
    102100   500.75233      4875.1841     -1617.1961     -823.29211      1877.4329      5609.0694     -274.68919      103.85932      1.0561037      33552.657      99           
    102200   504.0031       5077.3079     -1631.4456     -647.40178      1972.8275      5552.7778     -279.60256      110.15263      1.0511313      33711.376      99           
    102300   505.14141      51488.999      1343.5056     -675.06539      45472.323      5494.1966     -261.8604       115.89964      1.0467182      33853.508      100          
    102400   493.53683      4799.7923     -1630.4167     -753.63872      1828.2045      5526.9776     -282.0636       110.72918      1.0686836      33157.694      100          
    102500   480.18318      4717.3037     -1613.9703     -830.8389       1909.9224      5412.9235     -277.54884      116.81579      1.0655399      33255.521      100          
    102600   488.90736      4739.5185     -1630.8068     -781.83862      1965.8688      5390.9078     -316.96405      112.35135      1.0594904      33445.404      100          
    102700   499.49449      5084.4934     -1594.3689     -535.35625      1949.8511      5392.2255     -248.74405      120.88601      1.0544299      33605.918      100          
    102800   502.0286       4807.1676     -1614.0452     -769.9419       1824.8632      5516.4041     -257.76947      107.65694      1.0486968      33789.636      100          
    102900   499.83487      4580.2938     -1649.9218     -921.81369      1844.8654      5465.3255     -262.42283      104.26127      1.0437995      33948.17       100          
    103000   492.9149       4665.2267     -1644.8177     -831.04131      1795.0068      5535.3278     -300.97936      111.73042      1.0400556      34070.374      100          
    103100   498.85894      4831.9297     -1657.293      -688.64703      1952.138       5377.1186     -246.86155      95.474651      1.03597        34204.739      100          
    103200   510.26823      4929.4727     -1643.5185     -633.1852       1928.6317      5521.282      -354.92254      111.18535      1.032634       34315.241      100          
    103300   496.07721      4733.1186     -1602.8183     -961.53258      1831.3038      5542.9759     -186.99715      110.18687      1.0282102      34462.878      100          
    103400   493.47047      4965.5178     -1615.61       -686.37609      1899.2622      5471.8542     -214.14781      110.53532      1.0251999      34564.073      100          
    103500   489.89438      4901.0016     -1639.1718     -685.4282       1898.512       5484.7106     -265.8473       108.22637      1.02171        34682.136      100          
    103600   477.33579      4694.1971     -1633.3009     -808.86916      1911.0482      5378.0981     -255.25277      102.47354      1.0182201      34801.005      100          
    103700   493.01413      4693.1154     -1632.8731     -711.08292      1857.3092      5404.3013     -331.42793      106.88887      1.0155575      34892.246      100          
    103800   500.90429      4609.1108     -1635.4356     -839.57858      1890.6586      5398.4091     -292.46444      87.521678      1.0129059      34983.589      100          
    103900   503.5569       4843.8464     -1607.5521     -699.96042      1930.6943      5325.5012     -212.13235      107.2958       1.0095527      35099.786      100          
    104000   491.99799      5023.5427     -1593.6651     -697.4664       1916.0081      5491.5666     -199.91314      107.01264      1.0064034      35209.624      100          
    104100   507.56336      4977.5406     -1597.8817     -642.90922      1927.9399      5372.9467     -187.16105      104.60594      1.0033611      35316.382      100          
    104200   508.0615       4970.333      -1562.1006     -613.90197      1875.0217      5420.3755     -271.2791       122.21748      0.99974402     35444.157      100          
    104300   499.49864      4655.3604     -1600.0676     -820.15836      1838.4974      5386.171      -263.56888      114.48679      0.99734996     35529.238      100          
    104400   497.66133      4575.1402     -1614.7941     -886.5825       1957.8681      5346.6781     -328.75948      100.73001      0.99512999     35608.498      100          
    104500   498.59192      4692.3819     -1592.0256     -885.74189      1859.81        5416.9735     -221.39711      114.76307      0.99291528     35687.923      100          
    104600   507.66429      4941.1272     -1570.0774     -639.61168      1860.5089      5459.9582     -277.74269      108.09177      0.99167546     35732.541      100          
    104700   498.08824      5066.3491     -1597.2131     -621.73888      1920.3059      5505.2569     -242.72716      102.46543      0.9897266      35802.902      100          
    104800   496.91211      5042.0017     -1551.9499     -658.15018      1960.2722      5433.9333     -254.32425      112.22056      0.98675962     35910.554      100          
    104900   496.99901      4982.0143     -1583.4542     -682.82463      1968.2907      5427.9561     -267.32265      119.36896      0.98513077     35969.929      100          
    105000   497.51794      4854.6025     -1574.0594     -707.11908      1861.9376      5460.6973     -285.86921      99.015312      0.98435198     35998.388      100          
    105100   497.27287      4786.2288     -1573.8661     -735.42164      1939.4377      5333.7276     -274.05129      96.402559      0.98272206     36058.094      100          
    105200   497.96341      4971.1994     -1550.7346     -614.43165      1904.2602      5411.8437     -287.69399      107.9558       0.98136142     36108.087      100          
    105300   510.44876      5006.9051     -1603.6818     -618.47505      1916.0365      5575.8758     -367.53071      104.68041      0.98027476     36148.114      100          
    105400   501.6992       5053.679      -1566.8099     -677.0705       2019.668       5453.6095     -272.09764      96.37953       0.97973215     36168.134      100          
    105500   503.10433      4875.6427     -1552.0043     -812.42099      1932.1254      5464.2881     -269.85933      113.51376      0.97942818     36179.359      100          
    105600   492.98674      4942.5885     -1537.0518     -685.72254      1947.3444      5455.305      -345.81376      108.52729      0.97969536     36169.493      100          
    105700   491.65108      4877.1697     -1543.6946     -727.0529       1925.9827      5462.8667     -348.79084      107.8587       0.97902113     36194.402      100          
    105800   492.46876      4980.1853     -1534.2283     -688.4125       1872.5127      5449.0727     -244.52875      125.7694       0.97784137     36238.07       100          
    105900   494.65229      5218.9677     -1538.2415     -476.40062      1920.8489      5470.4549     -265.23671      107.54266      0.97684855     36274.901      100          
    106000   504.0003       4922.846      -1580.8715     -701.50179      1916.2746      5533.8386     -338.94993      94.056078      0.97534713     36330.741      100          
    106100   503.50521      5046.7247     -1529.7315     -629.76672      1923.4724      5459.1393     -284.14972      107.76094      0.97652966     36286.746      100          
    106200   507.06684      5185.4239     -1519.7179     -564.67816      1999.9456      5443.2987     -283.7444       110.32017      0.97732708     36257.139      100          
    106300   513.13934      5178.8671     -1495.7944     -560.83751      1965.6512      5388.4781     -224.83777      106.20743      0.97585162     36311.959      100          
    106400   501.83191      5090.2729     -1527.9044     -591.04098      1895.876       5444.0109     -237.65584      106.98723      0.97309454     36414.842      100          
    106500   496.37636      5116.6313     -1562.1534     -511.43337      1888.0264      5407.6085     -213.57277      108.1559       0.97136326     36479.745      100          
    106600   495.89211      5027.2816     -1517.3934     -606.29302      1966.539       5375.2055     -293.48916      102.7126       0.97240797     36440.553      100          
    106700   505.06708      4960.3408     -1510.4104     -684.24199      1932.3512      5397.4246     -270.2355       95.452935      0.97053496     36510.879      100          
    106800   501.93945      5204.5608     -1513.7009     -578.68728      1969.0843      5428.275      -211.77069      111.36033      0.96954651     36548.101      100          
    106900   505.41194      4971.4741     -1512.1081     -766.9385       1881.4092      5471.9059     -216.50111      113.70664      0.9679176      36609.608      100          
    107000   507.7861       4998.734      -1523.0985     -651.78577      1977.0796      5419.0826     -325.84133      103.29749      0.96733029     36631.835      100          
    107100   505.46243      4960.1785     -1497.1945     -668.57643      1879.1922      5382.566      -242.0441       106.23526      0.96699157     36644.667      100          
    107200   499.75597      5113.3196     -1536.0329     -594.5692       1953.5633      5427.5333     -244.20522      107.03027      0.9658712      36687.173      100          
    107300   506.28604      5078.8658     -1545.2021     -670.63937      1958.6751      5367.4492     -144.73973      113.32257      0.9662934      36671.144      100          
    107400   520.57         4987.556      -1494.2041     -745.32582      1922.0108      5394.954      -198.6103       108.73141      0.96651684     36662.666      100          
    107500   499.22217      5220.6454     -1506.7714     -610.57404      1978.2221      5518.1755     -268.16112      109.75431      0.96397623     36759.292      100          
    107600   501.93217      5075.5065     -1524.2044     -588.13055      1902.3044      5387.961      -213.36679      110.94287      0.96213617     36829.593      100          
    107700   496.77865      5028.0865     -1503.1414     -662.75967      1944.1114      5430.5218     -278.01982      97.374174      0.9606583      36886.252      100          
    107800   500.40012      5165.3798     -1508.3641     -496.68321      1920.215       5496.5134     -346.21798      99.916698      0.96215714     36828.791      100          
    107900   506.74908      5032.3097     -1544.0392     -602.0584       1836.2461      5531.6523     -293.55013      104.05901      0.964426       36742.149      100          
    108000   504.23766      5153.1748     -1510.6892     -576.58374      1997.2902      5403.7466     -269.80131      109.21223      0.96677601     36652.838      100          
    108100   506.30246      5088.2568     -1548.7078     -649.3211       1980.397       5441.9115     -247.24173      111.21907      0.9670992      36640.589      100          
    108200   507.73151      4985.838      -1483.2817     -663.88899      1901.0777      5449.0199     -326.57679      109.48788      0.9686315      36582.626      100          
    108300   488.59948      4951.2282     -1521.5783     -746.09363      1957.3317      5432.6372     -282.07583      111.00708      0.96844219     36589.777      100          
    108400   500.46777      4795.5755     -1537.4593     -783.95154      1831.3312      5392.566      -220.47989      113.56893      0.967766       36615.343      100          
    108500   502.41886      4825.4001     -1570.0123     -843.36508      1951.4447      5418.4221     -254.81685      123.72752      0.96677812     36652.758      100          
    108600   505.53774      5036.9735     -1466.5831     -792.20719      2000.702       5518.1843     -334.88948      111.76701      0.96783566     36612.707      100          
    108700   519.71062      4872.6317     -1511.7727     -849.80168      2019.5335      5450.3108     -342.85437      107.21622      0.96753959     36623.911      100          
    108800   506.98603      4859.9438     -1528.9261     -807.51573      1891.4482      5378.6614     -188.33751      114.61363      0.96716619     36638.051      100          
    108900   490.92051      5002.1672     -1504.3069     -696.97547      1945.0175      5464.1742     -317.41458      111.67242      0.96644966     36665.214      100          
    109000   495.54517      5001.0637     -1519.2101     -642.76952      1977.5094      5325.5387     -243.04203      103.03714      0.962451       36817.546      100          
    109100   508.4886       4791.2605     -1533.0212     -799.14584      1929.4417      5388.7574     -297.035        102.26346      0.95781134     36995.891      100          
    109200   503.7554       4943.5652     -1496.0249     -810.48175      2004.7638      5423.0646     -287.16994      109.41344      0.95572016     37076.841      100          
    109300   500.43227      5163.9209     -1485.3058     -649.52344      1937.4945      5474.1489     -218.21966      105.32651      0.95450691     37123.968      100          
    109400   503.53746      5053.5577     -1525.2382     -595.46887      1914.9381      5385.2862     -240.65056      114.69112      0.9527852      37191.052      100          
    109500   491.11805      4913.0758     -1463.466      -773.41441      1939.6527      5433.3999     -327.60706      104.51061      0.95114851     37255.049      100          
    109600   494.20625      4908.1062     -1492.6961     -754.85571      1986.882       5430.2376     -368.14623      106.68462      0.94992879     37302.884      100          
    109700   502.2137       4986.4631     -1503.0038     -744.33618      1904.121       5519.6345     -296.41115      106.45871      0.95068987     37273.021      100          
    109800   514.63298      4978.6037     -1474.4678     -720.66225      1927.878       5360.6695     -222.88113      108.06738      0.95156749     37238.645      100          
    109900   516.24137      4944.5052     -1512.611      -700.70668      1970.5143      5461.3264     -371.0912       97.073356      0.95050115     37280.422      100          
    110000   505.73848      4864.0724     -1508.8815     -790.28643      1989.5393      5411.5597     -333.25071      95.39199       0.95072101     37271.801      100          
    110100   491.40775      4991.269      -1520.0002     -720.30096      1898.0399      5479.1369     -251.77754      106.17088      0.95443717     37126.681      100          
    110200   506.42744      4815.9532     -1541.5759     -753.84529      1905.5485      5471.2356     -365.77228      100.36257      0.95756356     37005.464      100          
    110300   503.20476      4971.3594     -1509.3826     -627.3634       1942.4076      5395.1704     -328.97694      99.504299      0.9613856      36858.347      100          
    110400   508.89363      4972.4297     -1518.7881     -726.40954      1955.0126      5453.7298     -303.02106      111.90599      0.96285261     36802.189      100          
    110500   506.79543      5059.1581     -1488.6802     -681.14262      1997.6611      5493.7596     -371.482        109.04219      0.96314867     36790.877      100          
    110600   508.3134       4879.5437     -1571.7928     -725.75989      1884.7736      5409.4836     -215.84039      98.679487      0.96491806     36723.413      100          
    110700   501.5345       4912.2726     -1557.2725     -663.98588      1946.2903      5340.4078     -265.12437      111.9573       0.96596262     36683.701      100          
    110800   491.17946      4930.5092     -1526.8858     -746.90027      1959.5376      5446.9071     -310.13529      107.98582      0.96588217     36686.756      100          
    110900   505.60669      4692.0222     -1546.7164     -891.16139      1946.4796      5278.1058     -203.0376       108.35222      0.96569933     36693.702      100          
    111000   501.71363      4890.5998     -1558.9731     -803.19407      1947.509       5506.3973     -303.89389      102.75458      0.96586061     36687.575      100          
    111100   511.20345      5078.2512     -1549.2574     -696.64862      1987.9072      5490.0953     -257.1063       103.26098      0.96722842     36635.694      100          
    111200   514.98386      4949.6732     -1528.8942     -795.04326      1982.5959      5441.2277     -253.41284      103.19988      0.96760594     36621.4        100          
    111300   500.19792      5031.7944     -1561.3893     -675.85556      1913.6948      5504.1843     -258.50763      109.66785      0.96658046     36660.253      100          
    111400   492.3758       4978.8549     -1528.8339     -746.0745       1926.5165      5537.0927     -308.92953      99.083668      0.9659795      36683.06       100          
    111500   502.68971      4947.6613     -1543.5452     -665.37461      1904.6252      5430.2956     -278.20135      99.861657      0.96513397     36715.197      100          
    111600   494.10958      4809.603      -1561.4375     -871.94636      1973.9942      5473.8104     -305.85001      101.0322       0.96650836     36662.987      100          
    111700   501.05969      4874.5048     -1535.4013     -719.41345      1984.9755      5374.8578     -328.24798      97.734228      0.96749239     36625.698      100          
    111800   499.49629      4965.3231     -1528.4002     -717.86593      1939.833       5503.7157     -341.59732      109.63794      0.96919566     36561.332      100          
    111900   507.84622      72559.29       2409.4227     -726.72297      65579.846      5499.7421     -305.83891      102.84088      0.97039723     36516.061      101          
    112000   516.41298      4779.2097     -1566.3557     -697.57882      1924.4763      5355.0522     -346.81705      110.43286      1.0186893      34784.978      101          
    112100   500.47703      4695.7584     -1616.5937     -792.76724      1931.6947      5331.6499     -265.9381       107.7129       1.019826       34746.207      101          
    112200   500.14405      4679.6389     -1621.0024     -746.08222      1891.214       5291.9665     -249.73162      113.27466      1.0167284      34852.066      101          
    112300   498.71916      4652.1221     -1583.0105     -711.92407      1841.7781      5266.059      -252.17793      91.397502      1.0138019      34952.671      101          
    112400   502.02302      4684.4969     -1610.789      -651.1476       1875.0708      5258.5249     -289.13565      101.97351      1.0115823      35029.363      101          
    112500   505.24937      4741.0415     -1536.6843     -718.47877      1928.1261      5235.6478     -280.68945      113.12009      1.0093818      35105.727      101          
    112600   505.81917      4682.9124     -1625.1394     -861.3013       1980.8152      5328.3525     -253.58558      113.77095      1.0062769      35214.047      101          
    112700   503.57313      4637.8259     -1611.7621     -886.10214      1885.5637      5478.6549     -338.77284      110.24439      1.0048248      35264.939      101          
    112800   498.6281       4620.5951     -1606.4113     -765.09474      1848.7786      5271.6818     -240.99492      112.63567      1.0032692      35319.616      101          
    112900   484.46694      4783.1596     -1609.2227     -735.50658      1984.7463      5363.8534     -335.11057      114.39979      1.0038324      35299.8        101          
    113000   502.06119      4788.4062     -1605.2324     -676.6723       1934.2406      5405.079      -368.62778      99.619046      1.0020172      35363.747      101          
    113100   496.65301      4879.3394     -1575.2551     -729.82209      1954.6463      5307.3439     -189.38072      111.80714      0.99934714     35458.233      101          
    113200   504.47861      4903.7871     -1567.5475     -632.99932      1890.8417      5344.4594     -234.92567      103.95845      0.99842379     35491.025      101          
    113300   493.74254      4891.419      -1554.6098     -613.69799      1936.949       5255.0066     -235.94122      103.71239      0.99586797     35582.111      101          
    113400   484.43382      4781.3287     -1543.6894     -696.75294      1898.2505      5279.7248     -263.84996      107.64574      0.99333232     35672.94       101          
    113500   508.84681      4705.9858     -1603.7704     -611.81163      1912.0672      5214.7126     -311.74188      106.52997      0.99046077     35776.363      101          
    113600   503.99414      4598.4552     -1589.3889     -801.15183      1895.922       5254.4282     -263.03902      101.68481      0.98927793     35819.139      101          
    113700   493.49947      4935.5037     -1537.5906     -643.02811      1987.6778      5312.3558     -293.60881      109.69766      0.98958624     35807.98       101          
    113800   500.60914      4821.5644     -1542.4861     -783.1764       1918.9005      5395.3415     -286.07668      119.06158      0.98785772     35870.636      101          
    113900   502.43868      4934.3769     -1554.6951     -685.89948      1957.0456      5404.2996     -298.13402      111.76035      0.98573518     35947.874      101          
    114000   503.45744      4708.0505     -1578.4405     -701.41638      1954.4144      5277.1714     -355.5651       111.88663      0.98452098     35992.208      101          
    114100   489.0976       4749.1985     -1561.6645     -715.89613      1957.8917      5270.2807     -308.70642      107.29305      0.98284313     36053.652      101          
    114200   492.35364      4831.4653     -1590.2094     -707.76275      1975.7993      5316.1239     -275.94892      113.46318      0.98164783     36097.552      101          
    114300   495.51849      4999.7957     -1566.5219     -621.43475      1957.0135      5358.843      -227.90202      99.797861      0.98061803     36135.46       101          
    114400   512.48701      4770.3444     -1597.7048     -731.68956      1950.0981      5340.7263     -311.85813      120.77247      0.97839754     36217.471      101          
    114500   494.73315      4689.579      -1588.0866     -846.82482      1917.9496      5358.0983     -264.51504      112.95754      0.97717888     36262.638      101          
    114600   491.61601      4643.1768     -1572.1345     -804.11911      1903.1427      5229.7711     -218.07697      104.59352      0.9775147      36250.18       101          
    114700   493.04683      4717.169      -1563.3263     -744.83249      1931.6501      5269.9031     -285.52537      109.30007      0.97802195     36231.379      101          
    114800   494.21858      4640.0831     -1530.9638     -868.10717      1899.5491      5277.2641     -257.92965      120.27057      0.97789085     36236.236      101          
    114900   503.86878      61081.063      1379.9767     -889.54341      55451.089      5268.4433     -242.65189      113.74837      0.97955211     36174.782      102          
    115000   501.80494      4666.4239     -1585.7421     -761.25237      1927.5429      5226.1612     -251.46457      111.17887      1.0175476      34824.006      102          
    115100   489.92033      4590.3281     -1596.0697     -731.44509      1850.2232      5179.5626     -234.33081      122.38783      1.0186198      34787.349      102          
    115200   488.4316       4521.942      -1595.076      -774.00761      1889.2172      5199.5782     -320.49629      122.7265       1.0161638      34871.428      102          
    115300   501.77197      4707.3331     -1604.2722     -544.22082      1885.0745      5098.6707     -243.40035      115.48139      1.0133899      34966.881      102          
    115400   501.7134       4630.1921     -1615.4221     -728.51539      1939.3025      5290.3584     -368.23162      112.70027      1.0119574      35016.38       102          
    115500   499.41618      4600.0473     -1528.6949     -829.10673      1853.4043      5237.8159     -255.52628      122.15504      1.0099004      35087.701      102          
    115600   505.55511      4576.1129     -1658.8068     -777.54467      1882.6767      5265.0492     -254.86593      119.60434      1.0071735      35182.702      102          
    115700   487.42172      4373.3358     -1593.4061     -982.52974      1902.1685      5199.3947     -265.17471      112.88324      1.0055716      35238.748      102          
    115800   492.15937      4438.6486     -1568.1347     -832.62273      1788.0869      5191.572      -261.47216      121.21938      1.0033491      35316.806      102          
    115900   494.98826      4583.6465     -1601.0884     -782.77538      1957.4265      5235.5128     -340.06349      114.63436      1.0013772      35386.35       102          
    116000   507.71519      4586.2915     -1572.5786     -748.41978      1874.6554      5256.6873     -336.67543      112.62267      0.99880351     35477.533      102          
    116100   499.986        4661.6182     -1565.3507     -746.60084      1878.0071      5210.108      -230.7987       116.25341      0.99485554     35618.321      102          
    116200   497.14037      4701.0053     -1557.1985     -739.36263      1982.387       5175.9174     -275.11449      114.37649      0.991715       35731.116      102          
    116300   503.19835      4508.1679     -1589.2559     -832.36446      1960.5596      5188.2267     -321.93444      102.93651      0.98918452     35822.522      102          
    116400   492.02177      4464.7615     -1569.8896     -827.35073      1885.8044      5157.5737     -287.52202      106.14575      0.98782105     35871.967      102          
    116500   489.99031      4551.0846     -1566.8944     -759.88984      1897.756       5131.7706     -259.29615      107.63843      0.9860326      35937.031      102          
    116600   502.81801      4452.5335     -1570.8885     -917.10247      1918.1087      5197.7358     -277.42394      102.10399      0.98586453     35943.157      102          
    116700   498.29432      4621.4397     -1596.8664     -829.4336       1974.039       5206.7176     -234.1204       101.10351      0.9845572      35990.884      102          
    116800   497.70985      4707.9643     -1573.7429     -723.74948      1884.531       5260.9216     -243.67049      103.67446      0.98357346     36026.881      102          
    116900   496.93236      4701.552      -1532.6411     -688.26214      1891.9243      5262.2384     -331.54046      99.833032      0.98096826     36122.559      102          
    117000   491.23408      4493.5665     -1531.9424     -863.78524      1912.1744      5182.4601     -314.09214      108.75168      0.97830271     36220.981      102          
    117100   485.11459      4582.6041     -1519.3174     -814.23921      1966.2735      5198.3844     -360.74892      112.25167      0.97626926     36296.425      102          
    117200   500.81753      4645.4082     -1543.7676     -768.84671      1910.7046      5213.375      -266.79294      100.73577      0.97471268     36354.389      102          
    117300   505.28007      4670.4302     -1585.7577     -750.22597      1877.2098      5286.2478     -254.17332      97.129566      0.97383113     36387.299      102          
    117400   505.70867      4561.1221     -1550.5593     -821.0687       1980.6779      5181.6492     -342.29429      112.7173       0.97342725     36402.396      102          
    117500   489.37596      4648.8494     -1495.0884     -766.91012      1957.836       5142.0904     -292.53622      103.4577       0.97123959     36484.39       102          
    117600   485.10841      4497.3718     -1591.839      -801.3683       1901.2207      5209.7224     -320.0068       99.642783      0.9699863      36531.53       102          
    117700   488.16638      4447.0162     -1540.5259     -810.73138      1876.9439      5188.9289     -372.72431      105.12495      0.97043715     36514.559      102          
    117800   497.29923      4527.5911     -1541.508      -894.30023      1953.8962      5201.0404     -294.20129      102.66401      0.96863481     36582.501      102          
    117900   496.54541      4653.6064     -1526.9028     -845.44955      1925.905       5328.1843     -345.14697      117.0165       0.96939656     36553.755      102          
    118000   509.74688      4590.9325     -1546.85       -760.34942      1909.2549      5200.1341     -311.49877      100.24162      0.96999742     36531.112      102          
    118100   498.92973      4592.4978     -1512.1355     -734.91414      1884.6565      5200.4017     -337.11176      91.600971      0.9717454      36465.4        102          
    118200   498.19122      4603.7774     -1542.5583     -706.96031      1900.6111      5180.9919     -333.97796      105.67095      0.97149215     36474.905      102          
    118300   495.13721      4755.231      -1531.959      -706.70889      1973.8782      5164.9257     -248.3669       103.46189      0.97066838     36505.86       102          
    118400   507.9445       4818.4734     -1572.4329     -627.93237      2006.5185      5247.5837     -336.76905      101.50546      0.97011123     36526.826      102          
    118500   500.81062      4965.2543     -1568.3371     -502.80724      1960.358       5260.9555     -293.97802      109.06317      0.97032893     36518.631      102          
    118600   498.32055      4781.1184     -1522.0306     -636.68182      1887.3718      5229.8556     -286.03231      108.63566      0.97141675     36477.736      102          
    118700   495.33071      4917.5896     -1545.7379     -479.38823      1950.8955      5196.5467     -316.19268      111.46618      0.97152933     36473.509      102          
    118800   496.62336      4909.9814     -1578.2443     -536.73084      1944.5145      5250.7554     -282.37519      112.0618       0.96913829     36563.496      102          
    118900   505.28005      4890.3836     -1562.3492     -651.31966      1972.9106      5298.3196     -281.80968      114.63202      0.96918181     36561.854      102          
    119000   511.21231      4889.8839     -1539.7025     -593.31717      2017.45        5174.8696     -278.83043      109.41439      0.9689193      36571.76       102          
    119100   497.17468      4860.586      -1533.4753     -628.16539      1896.7251      5205.943      -199.11972      118.67828      0.96661288     36659.023      102          
    119200   504.775        4680.7577     -1569.807      -674.6419       1936.1646      5203.6913     -318.68895      104.03967      0.96394284     36760.566      102          
    119300   495.73086      4870.2425     -1530.5184     -576.43235      1958.2877      5163.4934     -259.23235      114.64449      0.96115267     36867.28       102          
    119400   499.16605      4888.3186     -1512.7682     -579.54053      1898.6902      5281.4322     -307.51774      108.02273      0.9612729      36862.668      102          
    119500   508.92383      5005.1904     -1513.809      -520.33754      1971.5264      5209.7164     -244.03905      102.13321      0.9603567      36897.836      102          
    119600   515.33564      4924.0427     -1498.9503     -642.35336      1936.9298      5341.1472     -317.79267      105.06204      0.96040996     36895.79       102          
    119700   510.58382      4812.2522     -1530.8557     -631.98211      1982.2747      5173.3747     -293.29909      112.7397       0.96041118     36895.743      102          
    119800   485.7087       4855.4463     -1499.7233     -705.83702      1943.5817      5274.334      -276.6034       119.69431      0.96155171     36851.98       102          
    119900   497.46439      4707.9411     -1508.2833     -720.42535      1886.1218      5257.7796     -320.88388      113.63232      0.96283025     36803.044      102          
    120000   497.21617      4786.1571     -1512.7864     -685.72779      2006.754       5212.5007     -349.89338      115.30988      0.96278949     36804.602      102          
    120100   506.57385      4739.3148     -1510.5273     -703.65955      1911.8598      5243.2395     -304.0514       102.45377      0.96269548     36808.196      102          
    120200   515.92484      4599.5241     -1547.4864     -789.92677      1874.0681      5353.8805     -397.88237      106.87107      0.96317763     36789.771      102          
    120300   510.08875      4496.2201     -1500.9105     -857.33972      1943.6491      5148.8602     -342.714        104.67494      0.96347185     36778.536      102          
    120400   500.70136      4617.3694     -1540.0796     -687.14606      1882.9587      5192.4471     -342.6066       111.79582      0.96348744     36777.941      102          
    120500   497.58364      4717.7681     -1503.0825     -621.49228      1903.209       5185.4945     -341.22902      94.868363      0.96362047     36772.864      102          
    120600   496.59327      4898.5417     -1535.4088     -564.19186      2002.8693      5174.2877     -291.86477      112.85012      0.96377275     36767.053      102          
    120700   497.57572      4900.9283     -1539.3923     -613.32814      1953.8576      5211.7187     -225.77556      113.84798      0.96455024     36737.417      102          
    120800   497.73282      4902.6382     -1547.6939     -592.25626      1908.5356      5256.8451     -240.86827      118.07591      0.96439325     36743.397      102          
    120900   505.78907      4781.2034     -1494.0894     -635.55877      1867.9596      5127.4684     -214.70446      130.12797      0.96305485     36794.461      102          
    121000   495.84827      4923.3742     -1514.4652     -557.38561      1956.4294      5106.1331     -187.73092      120.39339      0.9610671      36870.562      102          
    121100   502.54396      4759.2784     -1520.9363     -615.34512      1888.3209      5176.1095     -285.44888      116.57823      0.95866271     36963.036      102          
    121200   486.95484      4795.3534     -1494.4732     -653.88599      1892.9473      5129.5437     -207.43858      128.66015      0.95852046     36968.521      102          
    121300   488.0704       4697.1177     -1502.0304     -655.02601      1858.9781      5167.6822     -294.8022       122.31605      0.95824399     36979.187      102          
    121400   499.32501      4706.8632     -1505.7341     -641.92303      1880.8582      5124.624      -264.24538      113.28354      0.95661706     37042.078      102          
    121500   498.16764      4968.3311     -1508.1317     -519.17473      2005.3533      5265.2702     -384.62882      109.64283      0.95362247     37158.399      102          
    121600   511.01663      4959.7389     -1472.2763     -409.69578      1935.259       5128.5677     -337.84949      115.73371      0.95045079     37282.397      102          
    121700   509.50533      4863.2685     -1530.5964     -473.92888      1885.3487      5080.1702     -204.45161      106.72648      0.94619488     37450.091      102          
    121800   493.98036      4727.2007     -1513.5147     -633.83275      1934.4999      5120.2206     -283.96801      103.79571      0.94601529     37457.2        102          
    121900   488.34761      4635.4581     -1476.056      -659.00157      1884.9213      5064.2614     -278.26877      99.601728      0.9454871      37478.125      102          
    122000   490.54641      4780.3159     -1496.0234     -644.32106      1912.2917      5180.3742     -282.31776      110.31218      0.94406731     37534.489      102          
    122100   507.86697      4675.9863     -1504.4888     -699.39527      1941.52        5103.4458     -277.39199      112.29656      0.94252964     37595.724      102          
    122200   507.83806      4725.4861     -1488.1273     -701.87643      1858.1318      5250.1254     -304.2685       111.50121      0.94130458     37644.653      102          
    122300   500.14666      5023.1554     -1463.6061     -543.95605      2040.4352      5153.0161     -275.33386      112.60007      0.94216678     37610.203      102          
    122400   501.1066       4857.2035     -1498.1865     -599.02433      1886.2978      5258.2336     -289.02551      98.908431      0.94289988     37580.962      102          
    122500   499.66555      4609.1727     -1515.6887     -752.94521      1879.3882      5129.4609     -239.50977      108.46724      0.94240451     37600.716      102          
    122600   488.72846      4784.0514     -1485.6613     -646.62651      1922.4952      5163.7454     -269.38684      99.485385      0.94244894     37598.943      102          
    122700   502.9638       4902.6096     -1484.8947     -565.26058      1974.9745      5180.0486     -318.3529       116.09469      0.94407933     37534.011      102          
    122800   507.78843      4832.3072     -1528.7279     -648.89707      1961.0824      5261.1709     -317.07004      104.74901      0.94342468     37560.056      102          
    122900   496.22938      4869.0227     -1504.5696     -632.72104      1890.0119      5296.659      -298.12137      117.76368      0.94333683     37563.554      102          
    123000   491.85177      4858.1121     -1499.799      -556.95585      1949.1869      5178.3164     -320.03279      107.39652      0.94351682     37556.388      102          
    123100   496.53349      4703.0418     -1484.6404     -696.6054       1916.4274      5163.7879     -307.53857      111.61093      0.94286535     37582.338      102          
    123200   510.96339      4577.2729     -1535.9161     -834.43225      1944.0584      5231.8058     -342.62349      114.38055      0.94070661     37668.582      102          
    123300   502.79522      92303.818      1809.4043     -734.21429      86055.604      5326.9707     -271.37128      117.42517      0.94262003     37592.119      103          
    123400   516.10545      4775.5996     -1583.8857     -537.39377      1875.5315      5190.0031     -280.39772      111.74227      0.99330601     35673.885      103          
    123500   503.69223      4627.8544     -1581.0274     -680.05726      1966.8779      5139.6019     -327.76081      110.22011      0.99339806     35670.579      103          
    123600   500.74474      4406.8248     -1575.2998     -824.20202      1952.821       5067.6962     -328.39408      114.20358      0.99087549     35761.389      103          
    123700   499.512        4590.5199     -1548.7157     -634.15737      1914.3322      5020.8972     -265.64248      103.80607      0.9899734      35793.976      103          
    123800   506.63516      4493.3769     -1575.7511     -693.98158      1808.0551      5029.4724     -177.84738      103.42944      0.98810151     35861.785      103          
    123900   506.02384      4719.1328     -1546.0526     -642.91023      1955.1848      5123.0454     -268.58005      98.445513      0.98664642     35914.674      103          
    124000   504.38121      4666.6372     -1544.662      -746.54693      1960.2435      5127.0366     -243.68121      114.24736      0.98514081     35969.563      103          
    124100   508.77876      4467.718      -1561.011      -791.83402      1870.3448      5220.6658     -377.79299      107.3455       0.98436998     35997.729      103          
    124200   493.18064      4582.1418     -1557.8708     -770.93391      2008.7684      5103.7771     -308.2635       106.66445      0.98261819     36061.905      103          
    124300   506.22717      4712.2008     -1559.9746     -483.65151      1912.485       5069.8015     -337.10151      110.64188      0.98109629     36117.845      103          
    124400   496.39277      4605.82       -1559.3438     -593.04394      1964.953       5063.4085     -371.72251      101.56876      0.9802487      36149.075      103          
    124500   496.9509       4502.2183     -1505.1736     -634.10132      1901.9014      4962.913      -331.45537      108.13426      0.97944602     36178.7        103          
    124600   499.94786      4540.642      -1570.846      -662.33345      1875.548       5139.9391     -342.49595      100.83029      0.9777616      36241.026      103          
    124700   510.56077      4654.5095     -1555.1071     -617.6017       1900.0134      5012.2823     -195.74204      110.66463      0.97673043     36279.287      103          
    124800   510.21053      4530.2263     -1546.3026     -750.58979      1921.9888      5130.5048     -328.47098      103.09606      0.97696127     36270.715      103          
    124900   494.86128      4594.6072     -1564.3026     -716.11176      1962.9997      5107.3811     -310.59876      115.23941      0.97684602     36274.995      103          
    125000   492.90844      4485.5727     -1527.1101     -759.87389      1924.5131      5001.8522     -259.7825       105.9738       0.97713085     36264.421      103          
    125100   491.24046      4575.8969     -1537.6502     -735.71812      1922.7784      5050.2852     -237.45107      113.65271      0.97653759     36286.452      103          
    125200   506.2924       4624.1514     -1547.0624     -605.88808      1890.3072      5026.4712     -248.2942       108.61773      0.97548257     36325.697      103          
    125300   494.22658      4542.6743     -1581.6164     -789.76482      1930.0404      5092.7002     -219.79205      111.10706      0.97518584     36336.75       103          
    125400   499.12577      4628.9338     -1513.947      -698.94858      1926.685       5064.3483     -264.08899      114.88509      0.97513313     36338.714      103          
    125500   510.5475       4568.5956     -1553.0113     -708.60222      1880.5023      5048.2587     -196.91722      98.36529       0.9735946      36396.139      103          
    125600   507.03908      4545.6969     -1512.8649     -827.77963      1927.4416      5110.9745     -262.82067      110.7461       0.97081477     36500.355      103          
    125700   507.52467      4440.2457     -1543.2529     -863.32136      1896.2174      5188.9015     -347.94673      109.64777      0.96889912     36572.522      103          
    125800   486.67859      4642.6777     -1511.5543     -719.96287      2021.2143      5116.5744     -363.67365      100.0798       0.9694599      36551.367      103          
    125900   494.52925      4510.8423     -1551.5314     -741.38829      1893.8387      5156.7295     -350.87527      104.0691       0.9685754      36584.745      103          
    126000   497.25974      4480.2205     -1566.3162     -837.44406      1974.216       5121.5235     -316.65414      104.89545      0.96866354     36581.416      103          
    126100   507.42022      4555.3881     -1529.9052     -851.11369      1935.301       5186.2097     -290.67144      105.56767      0.96869113     36580.374      103          
    126200   510.09508      4561.8094     -1513.5402     -812.21798      1972.4938      5074.8638     -271.30085      111.51094      0.97011484     36526.69       103          
    126300   503.81509      4480.1591     -1533.1737     -852.70656      1902.4353      5074.1449     -212.48099      101.94012      0.97028469     36520.296      103          
    126400   493.19215      4732.4153     -1536.3685     -618.9685       1902.497       5163.8842     -291.57162      112.94265      0.969353       36555.397      103          
    126500   485.44438      4733.0605     -1555.2397     -616.96596      1995.7718      5078.4319     -274.63875      105.7011       0.96673349     36654.45       103          
    126600   493.50858      4599.3948     -1531.2426     -683.06443      1957.752       5078.6456     -321.4097       98.713915      0.96591629     36685.461      103          
    126700   509.85932      4611.2172     -1595.4191     -701.10808      1913.9618      5113.8616     -239.52135      119.44227      0.96648527     36663.864      103          
    126800   506.71013      4808.6426     -1502.1745     -566.97522      1888.0278      5140.0071     -269.94352      119.70094      0.96858094     36584.536      103          
    126900   492.7748       4831.303      -1467.3201     -555.56711      1925.5354      5057.4261     -246.5489       117.77758      0.9678136      36613.542      103          
    127000   494.58481      4716.3934     -1533.6279     -561.88632      1881.8742      5109.2168     -281.01965      101.83632      0.96586491     36687.412      103          
    127100   502.87134      4735.4472     -1543.2331     -478.88061      1915.2056      5053.2274     -307.54435      96.672346      0.96640277     36666.994      103          
    127200   484.87671      4763.5446     -1536.3782     -662.49971      1984.364       5120.2731     -269.06453      126.84996      0.96831629     36594.535      103          
    127300   504.10012      4628.2671     -1523.9497     -656.71827      1950.49        5026.5932     -281.08026      112.93213      0.96956907     36547.251      103          
    127400   494.58735      4717.6365     -1520.8369     -615.37073      1974.7252      5109.3516     -336.37289      106.1403       0.96944269     36552.015      103          
    127500   497.84134      4709.4042     -1517.9804     -614.37664      1947.2692      5082.3825     -284.77624      96.885764      0.96850267     36587.493      103          
    127600   497.44019      4643.0596     -1561.2551     -726.08185      1905.2522      5160.3089     -250.15917      114.99468      0.96647984     36664.069      103          
    127700   503.34651      4495.2444     -1538.7637     -871.37197      1969.0904      5111.6109     -280.57373      105.25249      0.96563369     36696.197      103          
    127800   502.35271      4762.8128     -1515.691      -691.00363      2013.4847      5074.6646     -219.10923      100.46733      0.96487257     36725.144      103          
    127900   507.66054      4844.2877     -1551.6987     -534.83206      1925.1709      5102.8066     -212.08087      114.92177      0.9652342      36711.385      103          
    128000   500.38512      4705.329      -1561.8317     -574.74188      1904.1218      5089.0937     -250.47282      99.159992      0.96682083     36651.139      103          
    128100   503.04652      4471.4734     -1561.3508     -701.37544      1913.5161      5074.9118     -353.66825      99.440049      0.96675741     36653.543      103          
    128200   490.36984      4510.8335     -1535.3857     -813.80405      1957.4722      5095.7126     -300.65209      107.49051      0.96549995     36701.28       103          
    128300   501.62491      4593.4726     -1502.3179     -756.91065      1933.3478      5146.4268     -343.84265      116.76912      0.96522612     36711.692      103          
    128400   498.10015      4786.6466     -1558.385      -644.76403      1983.2506      5170.8456     -265.52991      101.22937      0.96423125     36749.57       103          
    128500   506.93497      4663.9566     -1553.1998     -656.05439      1999.9252      5013.6036     -254.52408      114.206        0.96486928     36725.269      103          
    128600   494.57068      4688.068      -1533.7043     -676.83874      1937.5673      5169.0836     -305.43194      97.39206       0.96569156     36693.998      103          
    128700   496.68461      4563.501      -1527.1459     -683.83966      1905.1248      5085.9063     -323.90287      107.35845      0.96729893     36633.023      103          
    128800   486.09715      4452.255      -1517.9976     -769.45261      1845.5899      5045.9903     -258.12288      106.24788      0.96992906     36533.686      103          
    128900   495.34549      4447.689      -1574.6428     -662.33386      1856.2213      5067.2996     -338.29425      99.438887      0.97274606     36427.887      103          
    129000   496.09344      4595.6678     -1591.3009     -665.01477      1911.4039      5028.3335     -200.40906      112.65526      0.97558686     36321.813      103          
    129100   502.99643      4608.6001     -1552.7005     -723.51994      1942.6172      5104.8649     -257.62136      94.959901      0.97810515     36228.297      103          
    129200   507.82151      4606.5462     -1576.0914     -662.00882      1891.0336      5150.4277     -291.76965      94.954789      0.97832467     36220.168      103          
    129300   503.03674      4425.1374     -1541.8468     -781.11352      1868.4782      4970.8998     -198.4573       107.17706      0.97635951     36293.07       103          
    129400   491.10483      4616.3095     -1557.8897     -635.14636      1897.6472      5081.8472     -264.98674      94.837846      0.97661571     36283.549      103          
    129500   497.3317       4701.6608     -1593.4553     -540.61335      1957.8813      5023.8079     -249.44308      103.48328      0.97483703     36349.752      103          
    129600   501.82692      4742.2996     -1542.2177     -633.93113      1944.1689      5092.9989     -234.37528      115.65596      0.97365075     36394.04       103          
    129700   514.05362      4552.1717     -1568.5262     -731.0965       1948.9663      5061.4808     -255.33578      96.683044      0.97195221     36457.64       103          
    129800   503.89269      4558.3733     -1572.017      -708.96401      1936.5661      5117.3456     -309.49176      94.934323      0.9703429      36518.105      103          
    129900   496.57843      4699.3367     -1552.4999     -553.79696      1931.1013      5085.2083     -308.1371       97.46107       0.96920252     36561.073      103          
    130000   499.53462      4518.0433     -1533.4129     -688.00277      1865.4829      5040.6445     -263.34155      96.673103      0.96708983     36640.944      103          
    130100   500.55095      4694.7217     -1551.6686     -540.64243      1901.5779      5076.3068     -295.31932      104.46737      0.96560863     36697.149      103          
    130200   502.94617      4519.8491     -1550.9933     -719.22187      1868.8436      5085.1232     -269.21206      105.30936      0.96576798     36691.094      103          
    130300   500.37649      4579.6163     -1552.3345     -707.93885      1893.9257      5144.7402     -298.84488      100.0686       0.96500862     36719.966      103          
    130400   503.82947      4657.0547     -1558.313      -605.08041      1952.4403      4989.9226     -237.66829      115.75346      0.96455926     36737.073      103          
    130500   506.57715      4548.2453     -1518.994      -705.4547       1927.8442      5075.3166     -326.85007      96.383232      0.96339818     36781.349      103          
    130600   496.64806      4667.954      -1531.1027     -678.38796      1952.1843      5078.8967     -271.14284      117.50648      0.96182203     36841.622      103          
    130700   511.95605      4622.3844     -1524.0035     -612.51844      1838.5301      5096.2013     -282.55777      106.73276      0.95963418     36925.617      103          
    130800   500.45636      4797.8745     -1530.4607     -555.00097      1963.8383      5130.17       -323.14681      112.47473      0.95762091     37003.248      103          
    130900   493.55058      4777.2486     -1533.1897     -590.16555      1921.9915      5124.0637     -250.42044      104.96913      0.95708128     37024.112      103          
    131000   492.67153      4545.3648     -1542.148      -786.41021      1934.522       5138.4709     -307.47133      108.40143      0.95648678     37047.124      103          
    131100   505.59644      4430.0131     -1530.6708     -846.14267      1877.6667      5078.3363     -256.46435      107.28797      0.95645705     37048.275      103          
    131200   507.55689      4776.8396     -1526.9301     -642.13284      1974.924       5065.1984     -191.78605      97.566266      0.95720754     37019.228      103          
    131300   502.93305      4994.0617     -1506.763      -452.85649      1894.519       5188.9549     -235.30291      105.51019      0.95825644     36978.707      103          
    131400   499.50345      4780.4016     -1537.0161     -532.53624      1941.0215      5091.5622     -293.15271      110.52292      0.95736813     37013.018      103          
    131500   504.76721      4644.3411     -1525.0063     -570.39497      1879.5479      5011.3115     -254.05466      102.93775      0.9561649      37059.595      103          
    131600   493.34527      4744.9892     -1495.0024     -641.47823      1939.9603      5151.389      -315.59041      105.71097      0.95169035     37233.838      103          
    131700   508.708        4654.3278     -1494.8981     -681.88839      2000.314       5070.4119     -339.97389      100.36232      0.94902489     37338.414      103          
    131800   511.40683      4526.5991     -1513.0021     -825.28696      1943.601       5118.7869     -297.89928      100.39956      0.94965771     37313.533      103          
    131900   498.30904      4833.3052     -1495.9272     -574.47978      1988.5664      5061.0335     -252.63653      106.74883      0.9502634      37289.75       103          
    132000   492.67265      4656.6738     -1523.5375     -654.87824      1950.558       5063.2452     -297.6325       118.91874      0.94972855     37310.749      103          
    132100   493.00142      4548.7524     -1487.9736     -732.51509      1894.4358      5037.7871     -267.08492      104.10313      0.94969976     37311.881      103          
    132200   493.08657      4711.0842     -1523.3419     -646.41052      1933.0859      5087.5397     -248.88219      109.09327      0.94982996     37306.766      103          
    132300   508.62526      4816.3339     -1491.2342     -548.40872      1935.0454      4991.465      -186.82414      116.29051      0.95236036     37207.643      103          
    132400   507.8709       4655.7944     -1506.0821     -723.45094      2063.3535      5081.5315     -368.27216      108.71459      0.95121113     37252.596      103          
    132500   504.22118      4705.4145     -1511.1584     -605.96707      1952.4519      4999.241      -235.60654      106.4537       0.95051311     37279.953      103          
    132600   499.61639      4678.11       -1494.664      -621.41135      1943.1296      5052.4924     -308.03549      106.59885      0.95245971     37203.762      103          
    132700   494.70988      91450.692      658.39332     -722.30061      86651.95       5013.9089     -256.96397      105.70464      0.95299537     37182.85       104          
    132800   504.04369      4439.403      -1589.3848     -683.30169      1936.6242      5002.3291     -336.66451      109.80065      1.0041277      35289.419      104          
    132900   499.25798      4567.185      -1578.5467     -483.19699      1947.8321      4927.076      -343.78951      97.810192      1.0043753      35280.721      104          
    133000   491.94733      4582.2513     -1582.8877     -443.46599      1900.7374      4966.3802     -360.32236      101.80981      1.0030226      35328.302      104          
    133100   500.53339      4483.8874     -1579.8301     -512.11924      1907.3188      4864.898      -306.16316      109.7831       1.0015695      35379.555      104          
    133200   491.89377      4663.7405     -1547.9933     -546.68237      1981.1226      4933.4533     -272.88691      116.72715      0.99926386     35461.188      104          
    133300   512.9705       4491.8857     -1574.1303     -603.11284      1877.5988      4937.0405     -262.9086       117.39818      0.99688603     35545.773      104          
    133400   501.40889      4563.6782     -1612.4183     -592.89519      1913.3195      4968.5527     -219.93545      107.055        0.99449815     35631.121      104          
    133500   490.41933      4373.0316     -1588.6521     -737.05689      1885.9073      4929.1845     -226.01838      109.66715      0.99333498     35672.844      104          
    133600   489.91626      4369.9132     -1617.5321     -674.60008      1898.7325      4899.9543     -246.65371      110.01226      0.99302892     35683.839      104          
    133700   488.8444       4588.1059     -1573.2297     -518.47962      1858.7431      4933.0829     -227.94856      115.93782      0.99250292     35702.75       104          
    133800   494.91026      4605.906      -1564.805      -559.49632      1917.7394      4921.5626     -221.85126      112.75663      0.99126556     35747.317      104          
    133900   501.10235      4316.6256     -1572.0548     -855.92968      1893.0087      5006.2815     -265.82119      111.14111      0.9892055      35821.762      104          
    134000   500.4328       4598.7912     -1605.1251     -630.89615      1944.2845      5025.3549     -239.56905      104.74216      0.9889686      35830.343      104          
    134100   495.85641      4488.2502     -1599.3975     -717.34292      1969.5305      4948.4105     -229.7119       116.76138      0.98786055     35870.533      104          
    134200   500.16506      4329.2333     -1570.1136     -647.65813      1911.1323      4853.8394     -327.79625      109.82961      0.98671524     35912.169      104          
    134300   487.68977      4645.1516     -1576.6418     -493.80934      1928.9128      4948.5054     -266.626        104.8106       0.98467957     35986.411      104          
    134400   504.7405       4438.4102     -1592.3982     -646.85904      1863.3307      4916.9025     -216.98659      114.42089      0.98303787     36046.51       104          
    134500   494.19583      4556.2142     -1557.7926     -672.11821      1911.5981      4988.7309     -232.87481      118.67091      0.98250704     36065.985      104          
    134600   501.87359      4605.4722     -1566.4155     -591.72725      1873.9195      4925.3006     -163.80552      128.20043      0.98102329     36120.533      104          
    134700   505.53176      4559.2207     -1538.6748     -687.98889      1940.5503      4992.4533     -252.61224      105.49297      0.98028082     36147.891      104          
    134800   514.20015      4543.5655     -1551.5548     -713.02435      1953.9244      5014.2136     -266.28942      106.29596      0.98041767     36142.845      104          
    134900   502.37732      4623.8699     -1531.6381     -661.65481      2043.3548      4919.372      -258.36225      112.79824      0.97896624     36196.431      104          
    135000   502.23712      4338.3074     -1515.5738     -779.74769      1870.7204      5030.2285     -373.26051      105.94061      0.97735594     36256.069      104          
    135100   504.82252      4339.3077     -1565.0228     -744.28173      1900.0786      4893.9691     -260.15227      114.71687      0.97597016     36307.549      104          
    135200   495.24837      4587.1888     -1542.4684     -601.41023      1892.3661      5012.6681     -284.78822      110.82138      0.97550657     36324.803      104          
    135300   497.483        4623.3199     -1510.3379     -595.05406      1960.2546      4910.1208     -261.38998      119.72639      0.97505087     36341.78       104          
    135400   509.88424      4491.226      -1547.1553     -735.07041      1914.5629      5031.7849     -293.97124      121.07506      0.97486821     36348.589      104          
    135500   502.56219      4456.5657     -1546.469      -810.4484       1939.7877      5020.3678     -262.8498       116.17734      0.97556789     36322.52       104          
    135600   497.32502      4395.2346     -1619.7243     -754.13307      1880.6823      5051.1919     -273.33767      110.55547      0.97432581     36368.824      104          
    135700   504.28895      4376.9496     -1547.3798     -674.2235       1780.5381      4935.8537     -241.44759      123.60875      0.97399064     36381.339      104          
    135800   499.54086      4368.0824     -1533.2323     -759.49776      1894.6169      4973.1046     -317.464        110.55488      0.97318133     36411.594      104          
    135900   507.11705      4511.3992     -1578.132      -624.28579      1886.9185      4989.6022     -271.69814      108.99442      0.97231715     36443.956      104          
    136000   515.58899      4532.6922     -1506.4083     -708.21097      1873.6853      5057.9981     -306.64433      122.27236      0.9729482      36420.319      104          
    136100   508.70315      4499.6527     -1515.9627     -838.79586      1931.5464      5017.4026     -222.99355      128.45584      0.97222493     36447.414      104          
    136200   510.29818      4420.8703     -1546.0042     -746.33839      1811.2476      5044.5144     -259.38052      116.83146      0.97096716     36494.627      104          
    136300   501.36715      4274.3822     -1545.1462     -918.83517      1905.0984      4998.5798     -286.25834      120.94376      0.96802394     36605.586      104          
    136400   492.84177      4470.4782     -1545.0053     -765.21328      1903.0368      4956.8935     -201.98719      122.75365      0.96697807     36645.179      104          
    136500   494.12795      4536.7487     -1528.0418     -705.12518      1925.7449      4968.2067     -239.88632      115.85037      0.96803593     36605.133      104          
    136600   505.06069      4526.879      -1520.4491     -716.61097      1907.434       4938.6786     -205.06732      122.89388      0.96821823     36598.241      104          
    136700   505.7279       4639.7826     -1504.6673     -652.01735      1936.0698      5018.0454     -277.29027      119.64226      0.96739766     36629.284      104          
    136800   504.66296      4371.1707     -1559.9496     -883.00825      1942.3381      4971.249      -222.69146      123.23286      0.96643938     36665.604      104          
    136900   502.18508      4328.4193     -1566.2864     -757.15791      1886.8616      4952.2543     -296.36703      109.11472      0.96563942     36695.979      104          
    137000   496.97822      4289.9638     -1547.3856     -821.58861      1877.4719      4889.5845     -231.87464      123.75627      0.96445502     36741.044      104          
    137100   493.88533      4450.6801     -1535.5667     -760.7271       1923.7752      5018.3114     -304.52703      109.4143       0.96374999     36767.922      104          
    137200   513.79468      4246.1015     -1493.5694     -902.53792      1900.8924      4970.7072     -339.2031       109.81222      0.9635118      36777.011      104          
    137300   521.15235      4306.3886     -1511.9881     -878.5403       1805.4809      5042.9708     -263.29945      111.76474      0.96304537     36794.823      104          
    137400   517.80416      4421.956      -1507.9799     -812.79527      1928.2908      5039.9731     -332.20531      106.67253      0.96328362     36785.723      104          
    137500   498.47262      4558.4693     -1522.7716     -642.07822      1956.4562      4999.7806     -345.88674      112.96909      0.96540275     36704.975      104          
    137600   492.78649      4582.4838     -1505.5569     -607.67047      1952.8187      4986.1444     -351.5528       108.30086      0.96484952     36726.021      104          
    137700   493.89241      4585.0325     -1510.4749     -605.69571      1887.3169      5009.626      -304.85768      109.11794      0.96419501     36750.952      104          
    137800   498.40303      4614.0999     -1504.9917     -623.74228      1898.026       5045.9716     -307.00597      105.84224      0.96417708     36751.635      104          
    137900   513.98003      4524.9645     -1479.579      -686.99611      1888.1435      4998.8694     -316.99165      121.51833      0.96293181     36799.162      104          
    138000   506.33506      4586.9221     -1481.6118     -665.41038      1903.8486      5023.0272     -305.62943      112.69797      0.96142758     36856.738      104          
    138100   498.60764      4502.8084     -1518.6354     -646.26673      1942.1969      4989.5321     -370.86193      106.84359      0.95967154     36924.179      104          
    138200   495.08397      4576.0269     -1532.0042     -586.21116      1873.4084      5019.6612     -313.17534      114.34789      0.9583866      36973.685      104          
    138300   492.60087      4603.7355     -1516.5129     -617.02108      1935.8258      5023.5065     -326.48775      104.42494      0.95868406     36962.213      104          
    138400   506.89372      4615.2087     -1516.4514     -592.86142      1879.2684      4982.6443     -245.04094      107.64978      0.95978313     36919.886      104          
    138500   512.92638      4704.895      -1518.5491     -518.80137      1940.5186      4961.4852     -274.0407       114.2824       0.95919005     36942.714      104          
    138600   501.98336      4570.8953     -1515.3307     -623.6283       1950.6345      4929.1146     -279.02505      109.13026      0.95921122     36941.899      104          
    138700   497.0422       4552.2548     -1476.2271     -550.87573      1879.5695      4854.3295     -269.06039      114.51904      0.95880107     36957.702      104          
    138800   495.91645      4504.3489     -1500.7093     -621.36141      1854.5702      4908.2037     -247.38589      111.0316       0.9573297      37014.504      104          
    138900   504.52229      4540.6633     -1510.0337     -620.80067      1893.8607      4938.2297     -266.66492      106.07219      0.955535       37084.025      104          
    139000   509.39535      4563.8438     -1507.3383     -634.19816      1887.8259      4924.9849     -219.94349      112.51289      0.95354992     37161.226      104          
    139100   494.61928      4735.9352     -1494.5895     -598.70792      1950.0725      5011.9822     -250.80414      117.98208      0.95120196     37252.955      104          
    139200   501.05124      4474.5135     -1541.1196     -656.37865      1862.2464      5008.8263     -311.20761      112.14671      0.9482108      37370.471      104          
    139300   491.23535      4547.3678     -1435.5937     -560.98804      1923.0184      4921.3121     -398.90009      98.519062      0.94567646     37470.621      104          
    139400   494.93132      4606.859      -1436.7594     -563.7396       1870.9157      4994.4517     -367.98432      109.97487      0.94128145     37645.578      104          
    139500   495.49317      4716.0056     -1473.6965     -556.5431       1928.8673      5040.4349     -343.42489      120.3679       0.93579748     37866.189      104          
    139600   493.47299      4797.6353     -1489.0248     -537.59906      1989.825       5037.4817     -310.20612      107.15865      0.93519103     37890.744      104          
    139700   506.34737      4619.9976     -1495.4972     -622.63243      1894.3582      5052.3546     -311.11282      102.52717      0.93451379     37918.203      104          
    139800   499.65803      4473.8433     -1478.7681     -764.72404      1897.0972      5092.8934     -375.5587       102.9035       0.93426996     37928.1        104          
    139900   501.74436      4363.2341     -1439.8332     -755.26501      1845.9614      4959.0845     -354.48471      107.77108      0.93314051     37974.007      104          
    140000   497.8537       4494.1906     -1473.6368     -696.6945       1929.9607      5014.8542     -391.40911      111.11608      0.93209841     38016.462      104          
    140100   504.22172      4599.0748     -1441.8107     -657.07618      1914.4134      5004.8911     -332.31498      110.97214      0.93205862     38018.085      104          
    140200   512.89223      4600.3924     -1464.8617     -601.56416      1975.8491      4950.0447     -373.93591      114.86031      0.93171652     38032.044      104          
    140300   495.69988      4569.6321     -1434.442      -680.507        1915.6811      4979.9151     -324.51957      113.50456      0.92960272     38118.524      104          
    140400   478.30871      4546.6544     -1463.8513     -692.35974      1900.7316      5050.5124     -361.10224      112.72364      0.92760457     38200.636      104          
    140500   488.4931       4499.5046     -1467.1776     -664.76699      1835.9407      4982.1525     -296.21095      109.56683      0.9280793      38181.095      104          
    140600   495.44411      4534.0021     -1454.4167     -802.89174      1873.7151      5064.3439     -265.14032      118.39192      0.92793057     38187.215      104          
    140700   505.63401      4631.4621     -1441.946      -671.28374      1924.9545      4987.2701     -272.32489      104.79208      0.9299842      38102.888      104          
    140800   499.85175      4649.3646     -1477.8162     -679.40755      1971.8297      5032.0651     -313.05086      115.74447      0.93121818     38052.397      104          
    140900   492.42683      4524.4485     -1425.142      -720.88517      1884.0412      4947.3331     -279.41446      118.51589      0.93522306     37889.446      104          
    141000   497.95491      4543.8281     -1507.8888     -608.48731      1969.8168      4917.4841     -329.96451      102.86781      0.93616072     37851.496      104          
    141100   498.67518      4608.5055     -1447.9335     -603.76869      1896.1366      4989.4994     -335.38602      109.95767      0.93965027     37710.928      104          
    141200   513.57685      4570.9926     -1517.3415     -657.73496      1932.5466      5004.2467     -303.72755      113.00329      0.94214627     37611.022      104          
    141300   506.70042      4719.6946     -1501.4431     -584.15333      1964.3858      5127.26       -394.66687      108.31211      0.94312149     37572.131      104          
    141400   500.43152      4589.938      -1477.7555     -707.62773      1943.2752      5041.669      -315.29526      105.67231      0.94222111     37608.035      104          
    141500   504.34425      4664.1078     -1519.0947     -570.41232      1946.3404      4985.9988     -285.86742      107.14297      0.94013852     37691.344      104          
    141600   509.37023      4377.7089     -1514.8404     -747.71155      1920.1937      4880.3154     -258.70283      98.454501      0.93958917     37713.381      104          
    141700   498.52081      4464.0202     -1471.1297     -715.28353      1842.5626      5077.1065     -373.05065      103.81506      0.94002427     37695.925      104          
    141800   481.40493      4638.6035     -1495.0537     -621.69408      1938.3282      4953.059      -252.20247      116.16648      0.93917097     37730.174      104          
    141900   493.41442      4557.8322     -1499.9253     -610.65599      1931.0108      4965.736      -333.95663      105.62338      0.93856677     37754.463      104          
    142000   512.84736      4441.782      -1494.9627     -719.04831      1910.0958      5007.4939     -371.55668      109.75999      0.93869479     37749.314      104          
    142100   503.69014      4476.503      -1479.3206     -786.03773      1875.3994      5001.4664     -245.70995      110.70549      0.93792449     37780.317      104          
    142200   503.47482      4648.2784     -1482.3188     -570.79824      1877.4257      5008.8561     -297.57357      112.68731      0.93753053     37796.192      104          
    142300   489.91146      4574.2424     -1516.792      -602.1721       1847.1917      5013.3046     -272.23757      104.94774      0.93771356     37788.815      104          
    142400   493.8205       4531.336      -1472.5987     -604.13699      1894.7982      4901.1485     -293.17788      105.30299      0.93835302     37763.063      104          
    142500   492.40129      4692.4629     -1486.9979     -528.54314      1862.1654      5047.8072     -307.40213      105.43345      0.93919664     37729.143      104          
    142600   499.2247       4778.9378     -1498.8109     -433.74443      1947.7897      4903.4049     -242.14522      102.44372      0.94088527     37661.429      104          
    142700   500.52994      4719.0821     -1468.9887     -551.95586      1900.5103      4991.9208     -261.92975      109.52531      0.94168775     37629.335      104          
    142800   501.67886      4709.5586     -1503.2002     -617.26547      1968.5007      5056.9501     -309.6836       114.25712      0.94289091     37581.319      104          
    142900   503.21009      4795.9537     -1464.4108     -495.05639      2023.4967      4942.3776     -315.24818      104.79483      0.94258941     37593.34       104          
    143000   505.08428      4533.8041     -1510.4859     -575.31035      1904.4332      4938.684      -326.33661      102.81973      0.94208495     37613.47       104          
    143100   482.61278      4627.8558     -1470.7132     -612.90342      1895.2547      5068.1347     -362.27918      110.36219      0.9425828      37593.604      104          
    143200   491.09167      4776.0132     -1520.6515     -458.75391      1921.3757      5019.3894     -293.21699      107.8704       0.94262144     37592.062      104          
    143300   506.59508      4813.9911     -1520.3989     -406.90108      1939.6627      5065.136      -363.65035      100.14267      0.94316061     37570.573      104          
    143400   502.71851      4635.0833     -1521.3572     -621.99792      1898.3298      4944.0619     -174.38495      110.43167      0.94329124     37565.37       104          
    143500   485.18936      4933.8899     -1503.1146     -423.32229      1935.248       5025.4643     -201.89871      101.51329      0.94276629     37586.287      104          
    143600   507.58962      4609.1381     -1528.1948     -556.91724      1908.6672      4981.6367     -309.43666      113.38296      0.9433897      37561.449      104          
    143700   504.25045      4609.8333     -1501.0289     -713.7784       2007.4187      4997.0447     -285.21598      105.39327      0.94473766     37507.856      104          
    143800   506.75116      4651.0076     -1508.2325     -692.50085      1947.1627      5028.0735     -228.45274      104.95751      0.94623273     37448.593      104          
    143900   501.47956      4569.737      -1528.2867     -703.71748      1945.4556      5024.5588     -271.99898      103.72582      0.94563465     37472.278      104          
    144000   495.06126      4466.0466     -1509.5062     -764.53582      1911.7922      4990.6506     -267.79902      105.44485      0.94498239     37498.142      104          
    144100   499.17083      4355.0641     -1542.4922     -828.4614       1957.9812      4962.6872     -291.11721      96.466571      0.94539971     37481.59       104          
    144200   496.41573      4387.537      -1516.7782     -856.80394      2022.8695      4895.0731     -265.57125      108.74778      0.94787503     37383.709      104          
    144300   509.81029      4611.5476     -1532.5726     -676.50698      2007.9268      5045.6275     -341.94381      109.01656      0.95170134     37233.408      104          
    144400   510.9097       4659.5889     -1541.5288     -658.31529      1985.3868      4967.349      -208.84625      115.54353      0.95491011     37108.293      104          
    144500   500.39479      4516.3697     -1570.9075     -776.28976      1945.3863      5087.1644     -270.01925      101.03564      0.95786942     36993.648      104          
    144600   494.70858      4557.5256     -1496.6122     -749.61563      1955.1122      4978.5504     -240.3692       110.46009      0.95952153     36929.952      104          
    144700   496.34111      4520.5636     -1515.5235     -753.99938      1869.521       4933.3958     -123.84134      111.01096      0.95853838     36967.83       104          
    144800   506.8334       4429.2148     -1516.6106     -755.74735      1904.1901      4929.3723     -249.70944      117.71978      0.9562388      37056.731      104          
    144900   487.55396      4546.8441     -1464.8875     -740.4534       1943.5153      5018.8729     -307.72107      97.517802      0.95315637     37176.57       104          
    145000   499.30266      4261.2225     -1507.1813     -846.97001      1929.6117      4940.8726     -363.24211      108.13159      0.94933443     37326.239      104          
    145100   495.99587      4313.7561     -1509.8934     -785.90939      1862.4815      4965.4531     -316.79787      98.422133      0.94645434     37439.824      104          
    145200   500.74333      4589.5983     -1479.339      -622.4652       1917.8471      4974.9877     -317.03045      115.59803      0.94487787     37502.29       104          
    145300   512.72771      4439.4749     -1517.1347     -740.31303      1924.6439      4930.8504     -277.97488      119.40322      0.94265038     37590.909      104          
    145400   501.45309      4533.131      -1475.6747     -717.47355      1914.6361      4969.7147     -258.76396      100.69247      0.94174057     37627.225      104          
    145500   492.9095       4323.3539     -1537.2245     -896.42448      1948.0641      4903.4921     -202.5559       108.00257      0.94235655     37602.629      104          
    145600   494.06018      4259.3978     -1478.9775     -867.598        1905.8641      4865.2757     -274.16958      109.00322      0.94503777     37495.945      104          
    145700   512.94118      4299.3313     -1540.169      -820.26092      1933.653       4932.5667     -310.18915      103.73058      0.95021027     37291.834      104          
    145800   506.0121       4467.2036     -1484.9011     -826.31932      1953.7518      4977.6551     -254.23543      101.25249      0.95506138     37102.415      104          
    145900   509.44722      4381.7778     -1495.8392     -814.12653      1915.5449      5004.0433     -336.6896       108.84489      0.95745923     37009.496      104          
    146000   499.39838      4386.5168     -1508.7275     -769.39882      1904.561       5009.2895     -356.90022      107.69281      0.9598236      36918.33       104          
    146100   501.665        4421.9728     -1524.571      -674.39901      1837.4949      4928.3494     -255.19739      110.29588      0.96244828     36817.65       104          
    146200   506.9486       4587.1757     -1503.7737     -565.5335       1861.1347      4968.6621     -286.57752      113.26363      0.96411598     36753.964      104          
    146300   511.60958      4604.1909     -1467.7405     -616.53149      1946.8513      4973.1919     -336.69294      105.11267      0.96234188     36821.721      104          
    146400   503.14649      4655.797      -1531.9284     -584.8602       1901.6299      5071.8258     -316.25499      115.38487      0.95534105     37091.554      104          
    146500   503.90481      4502.9953     -1483.995      -661.06744      1864.9008      5024.6392     -351.4141       109.93183      0.95033736     37286.847      104          
    146600   495.17723      4594.1709     -1530.6831     -588.50408      1919.9436      4934.1916     -252.49799      111.72089      0.9446825      37510.046      104          
    146700   490.70307      4482.3166     -1485.8286     -686.90686      1906.1138      4934.9339     -294.47153      108.47598      0.94125978     37646.444      104          
    146800   495.95961      53173.974     -177.46442     -767.12786      49373.336      4955.4044     -310.92446      100.75035      0.93874183     37747.422      105          
    146900   504.02666      4626.3265     -1505.0512     -586.3983       2000.2235      4998.8751     -392.9268       111.60425      0.98052449     36138.908      105          
    147000   500.4726       4584.588      -1534.6164     -612.06979      1997.0457      4863.7641     -253.29987      123.76421      0.98346777     36030.753      105          
    147100   505.68378      4526.6685     -1514.9902     -460.08003      1888.123       4867.0784     -363.25641      109.79376      0.98273195     36057.731      105          
    147200   495.24372      4496.0829     -1521.1474     -525.436        1882.1357      4875.0103     -333.10832      118.62862      0.98065373     36134.145      105          
    147300   504.34602      4430.2826     -1507.0031     -519.66369      1831.5659      4775.4508     -259.15364      109.08633      0.97830189     36221.012      105          
    147400   501.00328      4443.6761     -1528.525      -659.15614      1943.2005      4872.4545     -291.5308       107.23307      0.97504137     36342.134      105          
    147500   496.70871      4573.1539     -1507.6982     -660.83259      1987.5377      4961.0118     -320.52091      113.65605      0.97243033     36439.715      105          
    147600   499.94341      4525.8043     -1507.0137     -596.77841      1954.3314      4828.9541     -274.43457      120.74553      0.97045118     36514.031      105          
    147700   497.83473      4402.3167     -1535.9036     -560.38791      1887.4052      4806.0714     -301.91994      107.05149      0.96871822     36579.351      105          
    147800   492.98609      4417.8695     -1550.7838     -618.19417      1934.1751      4914.3583     -369.03602      107.35006      0.96734594     36631.243      105          
    147900   502.02448      4403.3784     -1552.1018     -686.21877      1911.9186      4946.1729     -334.97404      118.58151      0.96626529     36672.21       105          
    148000   500.42229      4341.437      -1542.6329     -808.69863      2002.559       4908.1566     -330.6582       112.71104      0.96533785     36707.443      105          
    148100   510.85993      4273.8563     -1532.546      -750.62493      1882.2479      4840.7934     -267.51155      101.49758      0.9660149      36681.716      105          
    148200   493.90357      4283.3301     -1509.8322     -777.85342      1942.8773      4796.9739     -277.28777      108.45233      0.96566253     36695.101      105          
    148300   495.8442       4236.8121     -1506.3884     -781.14763      1847.3883      4827.5079     -254.3064       103.75845      0.96531677     36708.244      105          
    148400   501.80502      4307.4471     -1507.0395     -702.98943      1934.3734      4907.637      -429.28247      104.74804      0.96472107     36730.911      105          
    148500   506.83698      4363.8967     -1500.7883     -656.61015      1952.1248      4826.8168     -361.54648      103.90006      0.96369409     36770.054      105          
    148600   506.89716      4415.0832     -1512.1093     -693.8856       1901.5751      4884.0275     -281.32681      116.80234      0.96258479     36812.429      105          
    148700   492.32698      4417.4429     -1461.847      -808.81297      1939.4423      4919.8658     -285.24782      114.04252      0.96166871     36847.496      105          
    148800   485.97665      4576.3174     -1529.255      -572.70716      1941.8616      4842.6827     -224.4212       118.15644      0.95953117     36929.581      105          
    148900   490.54111      4364.9267     -1508.6696     -678.88409      1925.9764      4829.9955     -311.67847      108.18689      0.95777067     36997.462      105          
    149000   498.79419      4498.9721     -1525.4818     -603.10844      1963.2285      4826.6722     -270.10447      107.76597      0.95769935     37000.217      105          
    149100   508.40937      4460.3715     -1456.3514     -650.25461      1906.2027      4823.0405     -274.05151      111.78583      0.95921694     36941.679      105          
    149200   501.68718      4465.5919     -1507.4431     -692.18271      1959.0421      4865.4886     -265.33076      106.01775      0.95892624     36952.878      105          
    149300   502.4156       4450.4555     -1488.7741     -617.76688      1904.7828      4895.3357     -352.57861      109.45663      0.958479       36970.12       105          
    149400   495.48909      4354.7352     -1510.745      -674.15323      1888.5931      4898.9597     -347.50389      99.584466      0.9570576      37025.027      105          
    149500   486.4484       4351.7165     -1480.4368     -696.74234      1860.9053      4825.3569     -273.98065      116.61408      0.95584603     37071.958      105          
    149600   496.76103      4432.3494     -1490.7956     -687.70355      1985.6491      4860.5376     -341.46989      106.13181      0.95621435     37057.679      105          
    149700   514.56975      4216.7302     -1476.3244     -857.44776      1885.5157      4865.94       -313.66673      112.71343      0.95527585     37094.085      105          
    149800   501.4467       4473.8215     -1497.7763     -705.69579      1968.8393      4883.0986     -289.12148      114.47712      0.95451778     37123.545      105          
    149900   506.38482      4273.1903     -1488.4801     -724.25223      1793.8692      4804.3798     -231.50982      119.18344      0.95595854     37067.595      105          
    150000   495.59936      4163.2926     -1466.9446     -887.82396      1871.8813      4872.0145     -335.83918      110.00452      0.95565067     37079.537      105          
    150100   490.31595      4282.7605     -1530.2733     -842.83452      1987.8406      4871.5786     -313.15673      109.60575      0.95646847     37047.833      105          
    150200   494.95916      4398.4155     -1484.0189     -807.9839       1997.1933      4895.4539     -317.14297      114.91406      0.9559768      37066.887      105          
    150300   505.60502      4495.8615     -1472.647      -780.01765      2015.8039      4913.4431     -296.17971      115.45883      0.95344673     37165.248      105          
    150400   513.91028      4383.5216     -1506.3467     -745.32755      1922.9548      4873.6746     -278.74258      117.30898      0.9523536      37207.907      105          
    150500   493.1038       4408.5611     -1509.8673     -756.37212      1911.5644      4825.793      -180.95071      118.39369      0.95035189     37286.277      105          
    150600   510.5593       4346.4162     -1483.8007     -584.64411      1798.9325      4851.2362     -342.07876      106.77115      0.94964395     37314.074      105          
    150700   494.06856      4263.7269     -1526.5228     -851.84232      1973.8937      4824.2933     -274.92125      118.82625      0.94906991     37336.643      105          
    150800   511.38225      4226.0374     -1521.4929     -875.16118      1835.0413      4904.9344     -242.62161      125.33752      0.94915324     37333.365      105          
    150900   500.3703       4559.0587     -1508.7741     -686.38511      1985.6352      4909.7728     -248.97853      107.78841      0.95003869     37298.569      105          
    151000   493.86716      4592.6709     -1496.5065     -641.4583       1920.7823      4867.8024     -175.22574      117.27677      0.95012411     37295.216      105          
    151100   501.05484      4549.4362     -1493.6844     -602.9577       1947.2739      4833.8327     -250.98208      115.95379      0.95010323     37296.036      105          
    151200   492.41348      4414.0571     -1508.7673     -773.27748      1937.2298      4851.4439     -217.95942      125.38775      0.94851098     37358.644      105          
    151300   503.53885      4302.0462     -1483.2034     -746.71652      1838.6584      4827.0655     -247.78256      114.02488      0.94787932     37383.539      105          
    151400   495.9241       4228.2705     -1498.6823     -863.30714      1915.9839      4879.4888     -320.85365      115.64093      0.94843989     37361.444      105          
    151500   501.70675      4348.2218     -1502.5054     -719.6972       1833.8083      4919.0496     -294.66825      112.23481      0.94954225     37318.07       105          
    151600   494.71121      4535.0646     -1487.0514     -712.7165       2020.5975      4934.9738     -337.66171      116.92295      0.95098532     37261.442      105          
    151700   506.55575      4398.5826     -1481.8856     -764.89876      1984.5119      4889.2547     -343.57081      115.17113      0.95408297     37140.464      105          
    151800   501.46155      4364.8613     -1501.3993     -747.94071      1878.3619      4873.3753     -257.61039      120.07446      0.95670278     37038.759      105          
    151900   497.62464      4405.6541     -1482.6565     -623.40888      1964.655       4771.3011     -335.59846      111.36182      0.95799801     36988.682      105          
    152000   499.57198      4298.9239     -1522.1411     -725.72015      1913.4122      4834.0325     -312.63779      111.97827      0.95845076     36971.21       105          
    152100   507.53388      4384.0357     -1535.4362     -632.13261      1863.0445      4867.4119     -294.8938       116.04198      0.95834685     36975.218      105          
    152200   506.57171      4439.8425     -1527.7847     -607.28727      1893.5505      4872.4257     -297.29852      106.23679      0.95907166     36947.275      105          
    152300   496.337        4483.0702     -1508.71       -661.60266      1937.3824      4897.4832     -301.24239      119.7597       0.9614642      36855.334      105          
    152400   510.94057      4556.8224     -1513.0784     -559.95983      1981.4443      4931.1447     -384.89105      102.1627       0.96280563     36803.985      105          
    152500   511.19885      4709.037      -1489.7888     -515.60181      1985.3799      4941.8677     -329.43146      116.6115       0.96248466     36816.258      105          
    152600   509.80911      4515.2703     -1529.0425     -587.88981      1864.8564      4931.4035     -284.23363      120.17639      0.9630111      36796.132      105          
    152700   498.58771      4513.2195     -1500.9195     -573.46028      1943.3206      4939.0876     -405.00332      110.19441      0.96206624     36832.271      105          
    152800   493.56995      4465.605      -1512.7861     -648.23431      1957.649       4862.2937     -300.43816      107.12084      0.95974772     36921.248      105          
    152900   510.29462      4423.9637     -1508.4467     -592.90249      1905.3218      4806.5733     -297.3918       110.80962      0.95798036     36989.364      105          
    153000   512.3862       4361.1628     -1554.6666     -719.31291      1894.3045      4859.9753     -239.90195      120.76441      0.95755397     37005.835      105          
    153100   514.47921      4497.1296     -1512.9692     -631.26168      1906.874       4881.4006     -254.58963      107.67552      0.95951543     36930.187      105          
    153200   509.83599      4503.3372     -1526.6896     -608.65229      1869.2961      4971.6093     -322.56647      120.34013      0.95977342     36920.26       105          
    153300   494.81759      4461.2829     -1498.6782     -626.2459       1919.1393      4828.9786     -272.61863      110.70766      0.96024371     36902.178      105          
    153400   486.53468      4429.3199     -1545.535      -713.55908      1987.4232      4855.1262     -284.72324      130.5878       0.96105856     36870.889      105          
    153500   505.18724      4287.912      -1506.7977     -719.4752       1883.3142      4851.2685     -327.91043      107.51257      0.96285875     36801.955      105          
    153600   505.58888      4367.1831     -1520.8983     -747.34988      1915.2035      4982.5977     -384.41099      122.04109      0.96418618     36751.288      105          
    153700   506.75781      4498.6854     -1512.0997     -736.41091      1939.5867      4969.0193     -277.17543      115.76545      0.96681778     36651.254      105          
    153800   506.31965      4423.7036     -1536.8103     -737.98688      1974.0209      4917.8566     -309.25718      115.88043      0.96801923     36605.765      105          
    153900   503.94732      4323.4416     -1553.0043     -705.73518      1866.2449      4892.4566     -288.37477      111.8543       0.96965244     36544.108      105          
    154000   494.90202      4308.9426     -1590.1959     -784.98227      1912.5216      4999.1507     -346.02001      118.46848      0.96892051     36571.714      105          
    154100   508.55585      4119.9311     -1526.8177     -838.01847      1893.1884      4812.1378     -330.4433       109.88438      0.96853919     36586.113      105          
    154200   486.22697      4534.814      -1525.4053     -625.1832       1983.6294      4899.4936     -311.20535      113.48481      0.97026974     36520.859      105          
    154300   496.39547      4655.8161     -1543.001      -518.51659      2010.6341      4879.0315     -281.19154      108.85958      0.96956735     36547.316      105          
    154400   506.29014      4615.0611     -1522.6059     -560.82899      2055.9151      4935.1496     -399.33117      106.7624       0.9688314      36575.078      105          
    154500   504.85691      4380.0003     -1515.7736     -736.043        1894.4879      4943.712      -323.23222      116.8492       0.96725167     36634.813      105          
    154600   485.73229      4495.85       -1501.6214     -653.39634      1938.1577      4892.3478     -290.60982      110.97199      0.96533338     36707.613      105          
    154700   497.31033      4458.1886     -1524.8114     -576.72507      1860.8223      4847.1525     -265.50556      117.25586      0.96478232     36728.58       105          
    154800   501.33104      4471.4723     -1515.8556     -586.05245      1853.0273      4858.4461     -253.05426      114.96113      0.96446552     36740.644      105          
    154900   492.2718       4652.8972     -1502.0101     -547.19211      1925.6177      5005.3986     -341.65913      112.74221      0.96459675     36735.645      105          
    155000   513.42153      4464.8368     -1509.2837     -646.59458      1956.7483      4887.4003     -343.60886      120.1753       0.96465645     36733.372      105          
    155100   514.00023      4497.1185     -1551.4068     -668.47776      1942.9832      4953.9641     -299.82105      119.87673      0.9641086      36754.245      105          
    155200   496.36453      4596.8161     -1542.7753     -594.5957       1950.6894      4913.2079     -247.64314      117.93294      0.96477735     36728.769      105          
    155300   493.88047      4544.6276     -1533.2085     -553.69286      1958.7065      4847.3052     -281.97927      107.49658      0.96531166     36708.439      105          
    155400   500.92476      4457.608      -1518.7776     -553.64579      1866.5019      4849.1906     -313.84409      128.18287      0.9654405      36703.54       105          
    155500   501.67681      4342.6487     -1529.9672     -742.42788      1861.1339      4800.2976     -168.06951      121.68172      0.96378148     36766.72       105          
    155600   512.26586      4321.7311     -1522.0659     -805.25653      1876.1656      4861.5395     -204.11872      115.46715      0.96223301     36825.887      105          
    155700   518.33245      4357.32       -1511.908      -776.58758      1950.3306      4796.7818     -214.16861      112.87181      0.96052491     36891.374      105          
    155800   500.60163      4367.278      -1512.9395     -716.45483      1960.0329      4776.0879     -251.22684      111.77843      0.95888709     36954.386      105          
    155900   506.76004      4195.3358     -1512.0145     -760.93454      1829.3364      4836.3728     -305.58366      108.15934      0.95771045     36999.789      105          
    156000   495.79419      4409.6281     -1545.0066     -688.79506      1890.7139      4815.3441     -181.79243      119.16426      0.95612705     37061.062      105          
    156100   496.11485      4686.3858     -1522.8795     -513.96461      1910.4077      4889.8756     -193.12134      116.06807      0.95466985     37117.632      105          
    156200   508.78109      4416.1852     -1534.92       -754.03832      1997.0194      4821.5431     -236.85805      123.43915      0.95270537     37194.168      105          
    156300   505.47329      4432.3512     -1530.3544     -699.06133      1909.795       4863.9773     -229.06501      117.05952      0.95076399     37270.116      105          
    156400   485.99327      4580.3335     -1516.4519     -540.60048      1939.1525      4852.418      -262.90946      108.72478      0.95029894     37288.355      105          
    156500   483.04573      4568.7274     -1495.1126     -581.66299      1899.117       4858.8843     -237.60737      125.10903      0.95009925     37296.192      105          
    156600   505.88309      4437.5381     -1528.688      -638.88942      1851.0029      4905.6511     -252.97182      101.43348      0.94864244     37353.467      105          
    156700   498.16272      273429.16      1192.6233     -690.56216      268107.49      4929.9627     -229.7993       119.44215      0.94731379     37405.857      106          
    156800   514.27828      4842.1942     -1553.9108     -511.72322      1955.4852      5199.4718     -362.37622      115.24741      1.0217654      34680.255      106          
    156900   530.15167      4511.0541     -1554.1996     -548.6704       1949.6944      4870.0028     -303.998        98.224856      1.0205116      34722.861      106          
    157000   509.40193      4357.2177     -1615.1598     -635.15453      1985.6357      4941.122      -433.5168       114.29114      1.0175594      34823.602      106          
    157100   492.16041      4314.6697     -1600.6267     -639.28835      1867.6467      4865.1031     -285.42863      107.26363      1.0154254      34896.789      106          
    157200   483.43108      4303.1076     -1554.6532     -624.08891      1915.2129      4853.8081     -396.65253      109.4812       1.0130831      34977.471      106          
    157300   479.81504      4233.7138     -1536.4761     -699.02115      1846.9284      4775.2479     -265.98764      113.02239      1.0109208      35052.286      106          
    157400   493.99941      4244.766      -1587.9199     -649.69245      1843.1875      4835.4006     -308.7935       112.58377      1.0089124      35122.063      106          
    157500   505.67814      4239.1348     -1585.6996     -657.20329      1899.0202      4794.3725     -316.35537      105.00035      1.0065124      35205.811      106          
    157600   501.01074      4270.2729     -1616.5274     -674.13665      1961.3894      4749.6816     -261.82584      111.69182      1.0044839      35276.907      106          
    157700   486.46644      4406.6501     -1554.0575     -553.50916      1992.0471      4767.8707     -352.83141      107.13039      1.0035743      35308.881      106          
    157800   493.49477      4133.8042     -1520.919      -669.94814      1869.3889      4647.1566     -295.23427      103.36013      1.0023101      35353.415      106          
    157900   491.98246      4053.6184     -1596.4749     -841.01041      1864.3129      4755.574      -242.67737      113.89422      1.0003676      35422.063      106          
    158000   497.24816      4214.1186     -1580.8914     -752.24172      1838.6564      4859.3327     -281.91909      131.18178      1.0001704      35429.047      106          
    158100   505.26819      4167.5862     -1571.831      -759.91787      1824.1404      4792.3817     -235.47803      118.29097      0.99853291     35487.147      106          
    158200   497.66846      4301.5736     -1557.4432     -686.0642       1922.1376      4773.694      -255.52673      104.77604      0.99663819     35554.612      106          
    158300   496.95421      4278.1773     -1568.7707     -655.50669      1943.9021      4788.3887     -331.18722      101.35103      0.99549158     35595.564      106          
    158400   503.72498      4040.5338     -1559.7363     -756.84749      1846.7488      4785.6747     -369.70901      94.403207      0.99424456     35640.209      106          
    158500   493.28069      4294.0842     -1544.8461     -619.24015      1866.2196      4867.3182     -376.2167       100.84939      0.99108695     35753.759      106          
    158600   497.95018      4252.8199     -1520.7497     -796.96766      1948.3699      4820.6163     -308.601        110.152        0.98870484     35839.901      106          
    158700   503.98469      4424.9774     -1548.301      -587.30614      1981.8761      4693.9722     -225.04234      109.77859      0.98674495     35911.087      106          
    158800   508.04112      4275.8285     -1578.7149     -678.86854      1855.7025      4849.597      -274.90968      103.02216      0.9844864      35993.472      106          
    158900   506.69646      4083.6523     -1613.3817     -756.86726      1840.7716      4700.373      -194.12146      106.87818      0.98245382     36067.938      106          
    159000   494.9375       4119.0922     -1566.2287     -733.43929      1812.06        4747.0076     -253.27352      112.96611      0.9835073      36029.305      106          
    159100   498.09726      4166.7333     -1564.4875     -697.04775      1891.2676      4713.7573     -277.08181      100.32542      0.9829359      36050.249      106          
    159200   501.44656      4155.8269     -1593.1737     -732.80703      1879.7969      4726.6198     -222.43665      97.82759       0.98204937     36082.793      106          
    159300   490.57077      4273.238      -1551.68       -758.85923      1976.7135      4801.0476     -306.18505      112.20116      0.98202745     36083.598      106          
    159400   492.58525      4256.3973     -1529.642      -826.89467      1991.9539      4810.2218     -303.30987      114.06806      0.98074855     36130.651      106          
    159500   493.7868       148281.94     -282.17512     -559.43787      144422.96      4835.5684     -255.11648      120.14945      0.97795018     36234.038      107          
    159600   511.1239       4170.1236     -1539.333      -694.82252      1875.0496      4739.9665     -325.15399      114.417        1.0352193      34229.544      107          
    159700   500.70466      4231.822      -1572.988      -564.69038      1876.8028      4673.5755     -296.88167      116.00378      1.0335868      34283.608      107          
    159800   497.40178      3914.9584     -1613.4112     -792.39584      1809.1644      4646.3184     -249.95625      115.23885      1.0300582      34401.051      107          
    159900   502.43961      3874.6843     -1618.6486     -748.74547      1831.9303      4567.4994     -259.98875      102.63748      1.0266058      34516.74       107          
    160000   502.96248      4000.5129     -1585.9936     -703.21482      1889.0802      4673.8222     -384.1838       111.00272      1.0230369      34637.152      107          
    160100   503.4194       4300.0569     -1559.4115     -500.70055      1941.9069      4677.4961     -358.47743      99.24347       1.0204711      34724.241      107          
    160200   498.93255      4190.3736     -1611.7806     -617.89459      1890.3295      4672.8341     -252.29771      109.18292      1.0172146      34835.405      107          
    160300   501.28641      4047.3356     -1623.3891     -667.40984      1870.2653      4679.4798     -322.86784      111.25723      1.0152604      34902.457      107          
    160400   483.73041      3991.3819     -1602.2126     -693.15698      1844.295       4528.8511     -187.9402       101.54564      1.0125602      34995.533      107          
    160500   486.10174      4099.7795     -1600.6429     -564.32728      1867.0717      4561.362      -273.24782      109.56379      1.0088267      35125.046      107          
    160600   485.96641      4251.5776     -1606.9677     -560.24481      1914.4952      4625.901      -237.00856      115.40243      1.0062335      35215.567      107          
    160700   500.41359      4003.0872     -1567.3852     -773.34744      1850.7685      4619.6771     -241.94956      115.32379      1.0045506      35274.564      107          
    160800   501.46303      4128.6357     -1601.4904     -712.86895      1936.6307      4649.6826     -255.5815       112.26327      1.0027034      35339.548      107          
    160900   501.63991      4131.9017     -1578.4677     -694.71562      1899.966       4668.8805     -273.36992      109.60855      1.0008298      35405.706      107          
    161000   494.42565      4157.693      -1608.898      -598.39087      1926.914       4649.1685     -312.19812      101.09745      0.99784944     35511.453      107          
    161100   484.06219      4104.2278     -1570.0609     -647.05526      1839.8763      4565.96       -195.01545      110.52318      0.99486984     35617.809      107          
    161200   493.26628      167842.74      811.89828     -693.9295       163242.73      4662.9877     -285.18417      104.23806      0.99384588     35654.506      108          
    161300   512.96583      4231.3948     -1572.0134     -596.39162      1936.2114      4672.8977     -322.62174      113.31245      1.0540761      33617.196      108          
    161400   512.33028      4134.5621     -1613.5059     -519.03271      1910.6766      4537.1184     -288.19402      107.49977      1.0515846      33696.845      108          
    161500   499.66792      3995.3763     -1593.7363     -599.96761      1937.8133      4523.2342     -381.59143      109.6241       1.0474644      33829.393      108          
    161600   485.31274      4097.7734     -1613.5384     -548.93365      1840.2469      4530.6165     -217.01372      106.39587      1.0431695      33968.674      108          
    161700   489.87325      3807.6011     -1601.892      -792.43068      1897.7975      4499.156      -297.15944      102.12977      1.0395895      34085.652      108          
    161800   498.13631      3963.8148     -1614.4447     -589.98404      1835.1697      4492.4791     -270.02596      110.62078      1.0362837      34194.384      108          
    161900   500.49584      4111.0552     -1564.1911     -549.76344      1858.9064      4511.6623     -246.27694      100.718        1.0316448      34348.143      108          
    162000   508.54462      4059.4343     -1587.2911     -601.81257      1834.2829      4516.5504     -215.1467       112.85139      1.0272012      34496.73       108          
    162100   504.24489      4020.48       -1588.3472     -667.44661      1886.1352      4558.6032     -283.46215      114.99751      1.0231616      34632.928      108          
    162200   504.61433      3794.4105     -1613.0328     -801.62182      1910.8919      4472.7293     -293.98273      119.42674      1.0195563      34755.396      108          
    162300   486.89549      3757.9216     -1616.8015     -791.71477      1815.6466      4561.2177     -319.46394      109.03754      1.0173274      34831.544      108          
    162400   489.98801      3671.858      -1562.7824     -874.31969      1866.9513      4440.488      -313.58837      115.10913      1.0147163      34921.173      108          
    162500   483.83652      3825.4972     -1550.6632     -896.05932      1835.8598      4592.3362     -270.52251      114.54628      1.0109485      35051.325      108          
    162600   491.20222      3922.3998     -1535.286      -832.21606      1875.3468      4533.6719     -241.58608      122.46935      1.0069593      35190.184      108          
    162700   507.46718      3881.965      -1563.9837     -785.51579      1913.0037      4471.4626     -277.09698      124.09522      1.0022625      35355.094      108          
    162800   504.37387      4036.4152     -1560.0137     -702.6265       1895.3004      4595.2459     -309.70805      118.21704      0.99888167     35474.757      108          
    162900   490.03454      4115.6321     -1603.034      -697.92235      1919.5483      4664.4202     -289.80994      122.43         0.99786459     35510.914      108          
    163000   497.00167      4027.227      -1540.0529     -554.9588       1821.7696      4440.0943     -250.59052      110.96534      0.99855732     35486.279      108          
    163100   491.13949      3941.9018     -1562.5781     -715.50358      1868.1669      4563.6019     -329.53609      117.75074      0.9966808      35553.092      108          
    163200   503.58207      4065.6363     -1574.3667     -604.65849      1872.7732      4456.325      -215.5312       131.09436      0.99508316     35610.174      108          
    163300   501.92195      3941.8742     -1556.2472     -786.9633       1881.9619      4513.7458     -229.67555      119.05255      0.99403378     35647.767      108          
    163400   491.30175      3936.5462     -1550.4638     -873.48004      1961.4112      4491.8706     -209.71206      116.92028      0.9929039      35688.332      108          
    163500   506.15317      3916.9784     -1540.198      -749.9241       1896.6157      4403.2732     -204.75322      111.96483      0.99015844     35787.287      108          
    163600   492.0824       3894.6951     -1573.97       -854.8802       1913.1159      4607.0145     -308.76009      112.17503      0.98783146     35871.589      108          
    163700   493.51074      4053.9409     -1542.3145     -609.28535      2052.0476      4454.6542     -410.14252      108.98144      0.98613622     35933.255      108          
    163800   484.99029      219168.14      436.46357     -631.28263      215027.37      4602.6003     -375.90718      108.90104      0.98427073     36001.359      109          
    163900   503.18134      3908.3393     -1603.3859     -661.41186      1897.1526      4543.5635     -375.02007      107.44104      1.0528278      33657.057      109          
    164000   498.6648       3881.4967     -1596.6583     -618.3312       1933.4092      4407.1987     -349.86195      105.74028      1.0510577      33713.74       109          
    164100   489.3057       3879.8718     -1632.3855     -550.05168      1919.9292      4453.6223     -421.65797      110.41545      1.0478225      33817.83       109          
    164200   487.0848       3864.8217     -1605.7773     -618.1044       1858.6187      4460.0221     -332.75732      102.81991      1.0444135      33928.212      109          
    164300   493.96333      3890.801      -1609.7605     -636.04906      1862.9008      4510.0469     -340.51167      104.17458      1.0408715      34043.668      109          
    164400   495.45317      3916.6244     -1601.0164     -670.30615      1825.8175      4481.0237     -241.32678      122.43244      1.0373525      34159.156      109          
    164500   508.63814      3860.5819     -1591.3992     -630.9691       1861.3154      4480.6974     -371.41124      112.34867      1.0330964      34299.882      109          
    164600   488.46551      3932.7199     -1578.8805     -663.33305      1890.6192      4455.3807     -281.00905      109.94254      1.030024       34402.192      109          
    164700   489.78224      3636.98       -1581.6243     -792.2328       1844.2737      4396.6048     -342.1146       112.07322      1.0273785      34490.777      109          
    164800   487.13491      3693.8117     -1592.2587     -711.97157      1835.4003      4432.3552     -375.97543      106.262        1.0242097      34597.491      109          
    164900   490.95         3871.8082     -1609.5141     -634.89374      1957.0969      4447.6603     -389.10923      100.56805      1.0209695      34707.288      109          
    165000   492.67575      3772.5664     -1562.5927     -783.99199      1888.8901      4503.8512     -378.46719      104.87701      1.0164906      34860.217      109          
    165100   499.14252      3797.9677     -1604.5021     -774.39328      1911.7296      4401.6636     -248.9452       112.41511      1.012391       35001.381      109          
    165200   504.72514      3891.3081     -1561.2056     -685.11999      1877.5202      4454.2156     -292.5163       98.414193      1.0079583      35155.309      109          
    165300   512.32062      3895.9445     -1565.2821     -677.78384      1906.5332      4413.8366     -301.29047      119.93104      1.0043631      35281.151      109          
    165400   507.0068       3686.8133     -1598.3313     -899.74101      1939.4785      4414.1263     -280.63207      111.91288      1.0005372      35416.059      109          
    165500   500.94613      3654.2424     -1527.4749     -797.89815      1909.9143      4335.6197     -365.199        99.280455      0.99779463     35513.404      109          
    165600   489.24012      236327.17     -223.38312     -678.24283      233020.2       4443.917      -344.49175      109.17212      0.99566952     35589.202      110          
    165700   515.12806      3784.5702     -1597.9767     -677.50639      1911.4513      4420.5301     -380.99769      109.06964      1.0657221      33249.835      110          
    165800   501.05601      3881.0502     -1605.2068     -510.12452      1950.0926      4313.9919     -376.37024      108.66733      1.0637531      33311.379      110          
    165900   492.88145      3750.1376     -1593.4018     -629.85172      1985.2298      4326.666      -448.47297      109.9683       1.0600648      33427.281      110          
    166000   490.2441       3742.1272     -1504.4096     -624.64062      1888.2489      4199.425      -325.50499      109.00847      1.0546576      33598.662      110          
    166100   487.45115      3774.7885     -1587.3934     -675.87569      1908.0413      4349.9084     -332.58593      112.69381      1.050058       33745.835      110          
    166200   508.5639       3674.5717     -1602.7518     -661.21772      1759.2078      4308.6116     -237.39783      108.11958      1.0456963      33886.591      110          
    166300   514.11988      3717.0171     -1568.814      -638.34186      1879.6589      4225.4084     -288.33634      107.44206      1.0416029      34019.764      110          
    166400   506.13784      3725.71       -1621.5505     -697.02657      1942.6956      4323.3902     -335.06336      113.26461      1.0354791      34220.956      110          
    166500   500.98619      3607.87       -1578.7125     -726.77193      1857.0562      4302.5543     -354.96544      108.7093       1.031875       34340.483      110          
    166600   497.02499      3625.6929     -1577.8218     -671.97041      1818.8939      4244.2041     -300.30997      112.69706      1.0280956      34466.722      110          
    166700   499.70413      3673.7206     -1547.7923     -690.49267      1810.6219      4300.8517     -307.29832      107.83027      1.0239098      34607.624      110          
    166800   500.24502      3754.4493     -1586.5209     -702.56059      1895.9213      4287.185      -253.89867      114.32317      1.0194843      34757.85       110          
    166900   503.98812      3663.2394     -1570.8046     -765.97039      1822.9052      4246.5092     -190.89929      121.49929      1.0165697      34857.506      110          
    167000   500.12182      3766.7105     -1545.5228     -649.39724      1806.247       4331.6479     -293.64874      117.38433      1.0121245      35010.598      110          
    167100   498.37831      3766.619      -1604.7029     -686.4133       1969.3546      4236.1822     -261.43708      113.63555      1.0078293      35159.807      110          
    167200   509.77956      3751.6756     -1583.6844     -738.4973       1960.957       4282.0531     -285.90876      116.75595      1.0048128      35265.358      110          
    167300   516.32432      3721.3386     -1550.8918     -806.76175      1849.8376      4401.7241     -286.19568      113.62608      1.0016075      35378.214      110          
    167400   512.11225      3638.6701     -1551.0332     -828.30958      1900.2204      4307.7137     -308.27598      118.35467      0.99908224     35467.635      110          
    167500   490.7002       3806.8112     -1517.6713     -721.07613      1842.6644      4298.6854     -208.94934      113.15814      0.99634724     35564.994      110          
    167600   499.69106      3915.7959     -1592.0247     -530.85835      1873.8427      4290.2868     -243.80351      118.35297      0.99318658     35678.174      110          
    167700   495.27106      3769.701      -1523.4776     -728.95067      1851.8985      4389.2752     -328.61531      109.5709       0.9918772      35725.273      110          
    167800   507.28979      3820.1751     -1542.0068     -624.33751      1915.6693      4381.3542     -420.6032       110.09903      0.99041341     35778.074      110          
    167900   503.93237      3773.6373     -1524.6812     -759.37061      1916.4071      4389.5625     -357.14883      108.86828      0.9888639      35834.137      110          
    168000   502.23309      3725.3661     -1537.9823     -781.02695      1966.5591      4299.2653     -339.26022      117.8112       0.98649794     35920.079      110          
    168100   496.96661      3768.3206     -1541.7077     -677.03775      1877.9121      4337.45       -342.15103      113.855        0.98534482     35962.115      110          
    168200   493.6983       3667.5386     -1555.2336     -721.07203      1784.585       4308.2785     -254.2785       105.25913      0.98553517     35955.169      110          
    168300   490.58884      3674.8144     -1548.1301     -742.40758      1833.5507      4374.8399     -351.07808      108.03953      0.98606339     35935.909      110          
    168400   505.69184      3761.1878     -1554.7978     -735.04189      1867.519       4355.0578     -281.60023      110.0509       0.98590346     35941.738      110          
    168500   507.7625       3799.4583     -1542.2799     -730.86154      1868.0762      4427.7985     -343.52081      120.24582      0.9842327      36002.75       110          
    168600   508.10743      3699.2216     -1522.732      -740.2761       1931.1083      4356.4617     -431.7765       106.43617      0.98264989     36060.742      110          
    168700   492.40504      3810.5232     -1540.0445     -665.34469      1892.6387      4325.1375     -311.38076      109.517        0.9806798      36133.184      110          
    168800   496.02208      3794.5015     -1559.0069     -662.4132       1921.065       4297.9269     -316.40128      113.33107      0.97938218     36181.059      110          
    168900   504.26932      3786.7153     -1539.9301     -700.99572      1904.2824      4316.7362     -300.08368      106.70616      0.97778682     36240.092      110          
    169000   507.7531       3724.773      -1553.273      -761.8089       1820.4407      4392.0723     -289.13087      116.47279      0.97592961     36309.057      110          
    169100   494.67953      3940.8307     -1532.2174     -628.48521      1886.8073      4413.7122     -305.24998      106.26373      0.97410654     36377.011      110          
    169200   493.35018      3849.3414     -1533.2768     -659.11017      1903.7506      4418.5332     -386.44212      105.88653      0.97245832     36438.666      110          
    169300   494.9738       3781.0002     -1570.1931     -679.56338      1926.1656      4345.8877     -359.63723      118.34067      0.97182519     36462.405      110          
    169400   507.03395      3743.0038     -1542.1221     -678.60208      1821.8613      4361.5325     -330.16659      110.50076      0.97239493     36441.042      110          
    169500   507.44671      3812.8296     -1597.9196     -752.37426      1917.451       4366.6538     -243.95562      122.97428      0.97207002     36453.222      110          
    169600   511.28102      3745.3772     -1560.7218     -769.43122      1922.3178      4468.8695     -429.51853      113.86141      0.97213282     36450.867      110          
    169700   496.49126      3794.1443     -1527.1209     -711.79918      1950.9787      4343.7343     -377.12028      115.47165      0.97138674     36478.863      110          
    169800   503.6901       3831.11       -1517.6139     -565.45096      1837.651       4289.321      -317.3151       104.51804      0.96969128     36542.645      110          
    169900   492.63557      3900.738      -1497.9255     -649.16448      1857.3864      4401.4341     -317.51555      106.5229       0.96872769     36578.994      110          
    170000   501.23551      4040.4891     -1516.0641     -509.31415      1844.5903      4381.2151     -277.70432      117.76627      0.96806831     36603.909      110          
    170100   512.6486       4056.1502     -1517.767      -488.53524      1881.9984      4445.7864     -385.71307      120.38074      0.96740165     36629.133      110          
    170200   503.51752      4211.152      -1528.574      -417.20634      2039.8072      4330.8474     -335.97301      122.25065      0.96738001     36629.953      110          
    170300   504.38073      3883.5909     -1536.1061     -558.68456      1887.9129      4382.5784     -395.00959      102.89983      0.966013       36681.788      110          
    170400   501.18819      3805.9372     -1555.6339     -578.04004      1924.5295      4257.0652     -352.61477      110.63115      0.96558552     36698.027      110          
    170500   491.01439      3875.1818     -1538.0434     -551.18234      1902.9971      4239.0642     -285.93384      108.28012      0.96729438     36633.195      110          
    170600   499.60382      3756.2992     -1530.547      -648.75535      1874.3809      4320.6972     -368.86848      109.39195      0.9694817      36550.544      110          
    170700   501.60637      4037.698      -1507.3206     -509.43712      1997.8251      4344.0852     -394.36923      106.91462      0.96913857     36563.486      110          
    170800   500.34159      3951.7129     -1498.3173     -628.57959      2009.3099      4381.8364     -415.84148      103.305        0.96657141     36660.596      110          
    170900   508.4816       3896.4573     -1509.9661     -580.46315      1956.8955      4334.8313     -421.21158      116.37133      0.96476302     36729.314      110          
    171000   510.33115      3619.3957     -1554.9988     -760.7516       1962.0805      4288.7843     -416.80796      101.08925      0.96443716     36741.724      110          
    171100   503.21914      3671.5828     -1539.9558     -676.54613      1853.9113      4334.3197     -403.62849      103.48235      0.96596444     36683.632      110          
    171200   482.36801      3571.4233     -1516.4477     -774.00497      1790.3528      4268.7994     -312.67238      115.39608      0.96658902     36659.928      110          
    171300   484.53483      3679.9025     -1545.874      -652.13145      1879.114       4293.5677     -407.86415      113.09042      0.9664235      36666.207      110          
    171400   489.91507      63108.026     -101.69694     -651.87566      59817.265      4323.4895     -394.08195      114.92607      0.96703093     36643.175      111          
    171500   502.79206      3917.2921     -1533.1983     -498.42154      1874.9844      4344.6829     -390.35242      119.59708      1.0086383      35131.605      111          
    171600   514.08791      3677.4305     -1601.6373     -607.39495      1866.5535      4296.4511     -396.70344      120.16171      1.0084917      35136.715      111          
    171700   497.15666      3710.7669     -1603.3545     -584.04573      1872.2249      4266.7948     -356.88914      116.03662      1.0059276      35226.277      111          
    171800   492.63442      3585.9253     -1544.7642     -674.65991      1861.5138      4200.3642     -368.3629       111.83439      1.004105       35290.219      111          
    171900   496.3668       3681.4866     -1621.1803     -599.00104      1852.2054      4231.1273     -294.14081      112.47607      1.0013129      35388.624      111          
    172000   502.3125       3771.0802     -1561.5004     -527.18676      1870.3783      4206.1855     -323.04205      106.24564      0.99944625     35454.717      111          
    172100   507.56018      3804.9167     -1586.7711     -460.8746       1839.5633      4211.5044     -319.11699      120.61173      0.99793508     35508.406      111          
    172200   497.78393      3662.6573     -1599.8381     -672.02952      1929.8976      4231.6101     -340.76469      113.78186      0.99654779     35557.837      111          
    172300   503.55981      3755.1226     -1541.9266     -542.95322      1858.1579      4130.4974     -261.92666      113.27368      0.99524464     35604.396      111          
    172400   498.33903      65177.481      406.76898     -567.95492      61307.106      4214.3627     -295.90159      113.09994      0.99389982     35652.571      112          
    172500   505.02851      3474.7082     -1555.3232     -711.99066      1888.9134      4122.5719     -374.93384      105.47056      1.0304906      34386.614      112          
    172600   496.16157      3435.4528     -1602.9724     -721.67844      1918.8046      4070.4729     -346.0269       116.85302      1.0304214      34388.923      112          
    172700   498.98745      3355.5362     -1545.9079     -715.47935      1890.0956      3982.0257     -364.18212      108.9843       1.0284115      34456.135      112          
    172800   497.39077      3404.6964     -1589.9895     -724.54828      1774.1837      4129.2033     -303.74386      119.59097      1.0253598      34558.682      112          
    172900   506.06812      3640.0197     -1567.249      -584.82992      1915.5831      4075.9884     -325.79538      126.32247      1.02273        34647.544      112          
    173000   504.92088      3513.798      -1629.6278     -730.34247      1941.4388      4134.5637     -326.18266      123.94835      1.0202484      34731.819      112          
    173100   496.94807      3574.687      -1572.5728     -660.67364      1872.3808      4138.2734     -320.61236      117.89154      1.0183144      34797.782      112          
    173200   507.42853      3442.94       -1569.461      -669.27925      1861.5205      4021.0209     -316.88898      116.02777      1.0153593      34899.06       112          
    173300   495.31692      3496.0638     -1603.6001     -701.90587      1823.6906      4165.6768     -319.24155      131.44399      1.0114181      35035.05       112          
    173400   496.98046      3434.2693     -1563.0029     -760.80273      1952.3128      4066.5041     -374.51702      113.77502      1.0086911      35129.767      112          
    173500   489.09384      3537.8424     -1573.6512     -738.47077      1944.2716      4174.6817     -381.45085      112.46192      1.0072573      35179.773      112          
    173600   496.33216      3480.5736     -1598.4753     -717.96645      1925.2644      4129.1638     -381.92125      124.50841      1.0061009      35220.208      112          
    173700   492.58989      3366.1227     -1560.7682     -913.04286      1907.2916      4156.8471     -346.39536      122.1905       1.0043124      35282.93       112          
    173800   507.68209      3509.3883     -1514.427      -738.34626      1918.1836      4046.4039     -322.755        120.32908      1.0028934      35332.853      112          
    173900   510.94368      3597.9168     -1621.4796     -718.33332      1934.201       4163.0258     -276.87608      117.37896      0.9993526      35458.04       112          
    174000   516.41329      3405.1433     -1594.5065     -744.21726      1899.2785      4057.5559     -315.27166      102.30436      0.99787119     35510.68       112          
    174100   503.84621      3406.0369     -1579.8378     -712.17012      1920.6018      3999.1964     -333.26926      111.5159       0.99627074     35567.725      112          
    174200   490.07475      3527.8125     -1559.6223     -713.42682      1880.0511      4131.5929     -320.95864      110.17628      0.99544265     35597.314      112          
    174300   494.53552      3578.2756     -1566.877      -664.54042      1935.1685      4056.9495     -300.92402      118.49907      0.99406581     35646.618      112          
    174400   500.68728      90813.898      157.85658     -891.08156      87599.944      4163.1478     -339.64957      123.68077      0.99306743     35682.455      113          
    174500   513.39784      3441.8106     -1604.3845     -733.08094      1956.4009      4049.4205     -340.74231      114.19687      1.0409064      34042.528      113          
    174600   509.4773       3330.4987     -1621.4352     -676.6285       1810.6896      4021.1106     -323.72095      120.48321      1.0399302      34074.482      113          
    174700   492.24386      3500.0306     -1601.4455     -600.91605      1974.4576      3996.9334     -388.04345      119.04462      1.0369311      34173.037      113          
    174800   496.67373      3314.3794     -1572.7316     -696.53303      1821.399       3995.986      -356.82138      123.08045      1.0335921      34283.43       113          
    174900   485.55711      3562.2457     -1538.8003     -563.12089      1925.7195      3958.5728     -332.10812      111.98267      1.0305797      34383.642      113          
    175000   499.76185      3342.5793     -1596.1267     -797.30365      1881.1552      4048.1633     -311.24729      117.93851      1.0269426      34505.417      113          
    175100   497.21615      3432.1313     -1581.567      -790.18148      1891.726       4085.9769     -289.05066      115.22744      1.0249752      34571.652      113          
    175200   499.5548       3505.2506     -1539.7114     -674.41346      1903.8155      4038.1283     -335.1563       112.58803      1.0226879      34648.971      113          
    175300   506.20488      3202.4659     -1602.4422     -727.27971      1872.8341      3970.1312     -418.75201      107.97445      1.0191408      34769.566      113          
    175400   493.07631      3358.7517     -1580.8902     -586.42358      1888.2617      3974.9011     -430.89393      93.796668      1.0183504      34796.555      113          
    175500   497.84781      3421.5356     -1555.4941     -609.4721       1903.6987      3911.2556     -335.37352      106.92113      1.0154279      34896.701      113          
    175600   506.4516       3505.5365     -1612.5217     -555.1355       1815.9854      4043.2747     -300.55921      114.49293      1.012503       34997.51       113          
    175700   501.42927      3568.8586     -1558.7888     -566.02745      1924.3178      3987.1495     -332.15833      114.36595      1.0101171      35080.176      113          
    175800   501.82653      3357.6269     -1636.1747     -732.56616      1873.5092      4045.1701     -307.48917      115.1776       1.0084461      35138.301      113          
    175900   489.65649      3399.7297     -1557.4768     -687.77617      1872.7442      3987.5635     -323.28508      107.96002      1.0076866      35164.787      113          
    176000   482.82863      3513.3587     -1607.8658     -545.14126      1900.0868      4023.0612     -362.7205       105.93831      1.0065596      35204.159      113          
    176100   495.36574      3369.1618     -1606.9211     -643.16708      1946.7524      3940.383      -379.59609      111.71069      1.0054705      35242.292      113          
    176200   505.84332      3385.6913     -1550.8968     -698.00512      1892.1196      4051.6933     -416.33034      107.11068      1.0034572      35313.001      113          
    176300   499.98382      3441.3642     -1558.6758     -733.47416      1941.8238      3985.9471     -321.91404      127.65731      1.000575       35414.72       113          
    176400   497.7557       3434.5216     -1573.5315     -643.28571      1985.149       3952.0345     -391.11512      105.27043      0.9977598      35514.644      113          
    176500   487.31647      3373.9159     -1578.1989     -705.96273      1893.6358      3961.9989     -307.86929      110.31202      0.99543768     35597.491      113          
    176600   488.54008      3466.3628     -1569.5138     -627.7184       1868.7911      4045.3414     -360.39041      109.85291      0.99453867     35629.669      113          
    176700   506.88969      3457.6085     -1550.7731     -609.50444      1911.6518      3986.0921     -393.47272      113.61486      0.99238853     35706.866      113          
    176800   500.03546      3660.7428     -1582.3615     -509.49071      1889.7658      3998.3602     -261.11706      125.58607      0.98875758     35837.99       113          
    176900   499.61003      3560.095      -1543.3564     -592.01071      1978.823       3993.4115     -384.83773      108.06538      0.9882688      35855.715      113          
    177000   496.6198       3476.4697     -1572.125      -643.79205      1916.7372      3976.8931     -306.59862      105.35501      0.98892378     35831.967      113          
    177100   483.34561      3477.7839     -1595.2713     -642.10325      1921.9356      4031.1148     -346.76669      108.87478      0.98975236     35801.97       113          
    177200   486.92826      3294.2759     -1577.7054     -750.35186      1900.3756      4008.6149     -393.458        106.80069      0.99083765     35762.755      113          
    177300   499.78134      3515.9675     -1602.794      -621.27422      1974.4156      3940.2974     -283.01019      108.33284      0.99101944     35756.195      113          
    177400   504.9967       3449.7134     -1578.0439     -720.96892      1908.5693      4069.562      -339.40087      109.99579      0.9916176      35734.626      113          
    177500   506.50552      3214.0146     -1573.5482     -901.68963      1922.5411      4013.8066     -362.10767      115.01239      0.99175957     35729.511      113          
    177600   495.76282      3297.8547     -1573.0411     -785.26718      1940.1615      3984.2658     -374.10804      105.8437       0.99146925     35739.973      113          
    177700   501.4783       3262.0219     -1584.2017     -698.79576      1889.7449      3985.213      -433.11044      103.17194      0.99016691     35786.981      113          
    177800   508.88808      3320.0622     -1574.9287     -628.78094      1849.3522      3926.4264     -356.88958      104.88279      0.98962221     35806.678      113          
    177900   506.10029      3534.0699     -1548.8044     -613.84639      1926.3003      4016.3632     -361.68268      115.73986      0.99068984     35768.091      113          
    178000   510.05574      3616.4603     -1556.1359     -591.29989      2019.1424      4007.4191     -382.39863      119.73317      0.98941499     35814.178      113          
    178100   499.93545      62059.632      2246.4347     -856.48075      56854.571      4014.6261     -319.52975      120.01053      0.98811503     35861.295      114          
    178200   495.96359      3475.9187     -1575.9211     -606.25005      1912.3288      3954.8349     -333.06847      123.99472      1.0260726      34534.677      114          
    178300   495.28292      124052.72     -246.90823     -635.70895      121338.05      3836.2082     -343.14239      104.22398      1.0272071      34496.533      115          
    178400   516.09444      3050.3528     -1568.4657     -666.72789      1794.1565      3857.7246     -481.98381      115.6492       1.0762191      32925.529      115          
    178500   490.61079      3180.3787     -1570.7314     -712.21164      1896.6443      3821.7413     -375.03636      119.97238      1.0729755      33025.063      115          
    178600   503.35899      3073.6772     -1644.3299     -614.13614      1869.7437      3805.4174     -446.36445      103.34652      1.0682114      33172.35       115          
    178700   498.38615      153430.85      706.16041     -623.55549      149778.19      3900.9413     -443.4092       112.5216       1.0629096      33337.817      116          
    178800   505.99516      3022.3716     -1623.5963     -599.55588      1783.7863      3668.0294     -316.50421      110.21228      1.1178866      31698.281      116          
    178900   499.64523      2794.9775     -1651.0769     -684.10569      1835.8566      3603.1615     -418.05996      109.20191      1.11397        31809.73       116          
    179000   488.98622      2891.539      -1634.6032     -680.10201      1845.7703      3711.4272     -463.25789      112.30455      1.1081014      31978.197      116          
    179100   503.08163      2875.8149     -1638.3985     -655.99018      1810.8367      3614.5141     -362.52054      107.3734       1.1015036      32169.74       116          
    179200   494.23538      3026.6845     -1672.9009     -665.27272      1940.6104      3734.0673     -414.59508      104.77545      1.0945529      32374.027      116          
    179300   502.42461      2961.1911     -1663.9188     -667.90422      1889.3078      3628.7772     -341.007        115.93612      1.0875493      32582.508      116          
    179400   486.44894      3061.6934     -1660.2768     -669.8656       1942.1651      3679.0041     -342.01251      112.67904      1.0816939      32758.882      116          
    179500   493.32173      2943.1725     -1662.6975     -618.90217      1913.9792      3606.7134     -407.76667      111.84619      1.0751163      32959.303      116          
    179600   494.2135       2732.4941     -1678.652      -764.59128      1899.5094      3611.608      -444.12115      108.74116      1.0696957      33126.323      116          
    179700   494.89432      2886.5339     -1662.2132     -718.42888      1877.6058      3688.7491     -407.39102      108.21212      1.064221       33296.734      116          
    179800   498.74589      2936.5077     -1681.9541     -757.46289      1946.8841      3690.677      -373.87051      112.23396      1.0597829      33436.174      116          
    179900   500.54595      3038.641      -1602.5091     -642.48423      1863.8379      3670.7542     -362.35107      111.39337      1.0548841      33591.446      116          
    180000   503.89224      2846.3928     -1648.1151     -848.68407      1875.3955      3635.5635     -286.49002      118.72295      1.0485969      33792.855      116          
    180100   498.6563       2958.2975     -1611.6801     -763.97525      1922.8952      3616.9664     -322.62892      116.72011      1.0452033      33902.576      116          
    180200   498.33102      2835.3226     -1695.2565     -796.46162      1924.0828      3666.8655     -375.59377      111.6862       1.0419628      34008.012      116          
    180300   490.71337      2894.7146     -1620.0675     -711.5487       1851.8595      3630.0507     -367.14271      111.5633       1.0396334      34084.212      116          
    180400   495.9912       3006.7856     -1657.4382     -647.57655      1899.0697      3640.5325     -342.45289      114.65106      1.0361291      34199.488      116          
    180500   505.77272      2973.5335     -1616.9515     -715.35889      1913.3619      3704.3762     -425.12702      113.23282      1.0333468      34291.569      116          
    180600   488.16009      3086.5176     -1582.2913     -758.58297      1943.7424      3661.2423     -286.81645      109.22359      1.0296314      34415.31       116          
    180700   500.51034      2913.1213     -1658.3569     -772.24207      1888.8194      3665.1739     -329.53974      119.26667      1.0264264      34522.77       116          
    180800   490.23616      2931.8062     -1617.1499     -769.50337      1914.1589      3627.4987     -334.64875      111.4507       1.0262081      34530.116      116          
    180900   488.66818      2724.157      -1605.9299     -900.34744      1893.971       3597.463      -377.10635      116.10668      1.0261589      34531.771      116          
    181000   486.635        2901.0555     -1632.4018     -710.58052      1914.8262      3596.2081     -380.17309      113.17666      1.0244619      34588.973      116          
    181100   498.56045      3053.5337     -1627.7626     -623.87449      1907.596       3664.3501     -374.48806      107.71267      1.0225181      34654.726      116          
    181200   506.21179      2995.507      -1616.0329     -694.75236      1884.4066      3665.7564     -368.38434      124.5135       1.0203713      34727.636      116          
    181300   503.9138       3077.8621     -1649.4831     -611.15162      1900.8055      3669.6592     -347.27144      115.30352      1.0184711      34792.429      116          
    181400   489.67006      3047.0731     -1627.0722     -695.4551       1989.7866      3570.6049     -320.95218      130.16109      1.0170279      34841.801      116          
    181500   496.47701      2991.2522     -1598.1124     -574.12553      1877.6745      3550.0143     -375.33508      111.13638      1.0146262      34924.275      116          
    181600   490.18881      3044.7992     -1643.8542     -553.4643       1900.5153      3622.2676     -388.87011      108.20489      1.0129602      34981.714      116          
    181700   488.99275      3253.0822     -1611.9081     -551.53361      1944.3194      3695.631      -343.13496      119.70851      1.0115167      35031.636      116          
    181800   500.30853      3210.5627     -1590.5267     -579.81803      1902.2689      3588.6228     -241.38816      131.40394      1.0095854      35098.65       116          
    181900   501.59935      3239.9236     -1577.3538     -548.19704      1974.5791      3634.2475     -363.74963      120.39753      1.0091956      35112.208      116          
    182000   502.44919      3080.9363     -1567.1796     -628.57302      1894.1775      3553.1911     -288.56563      117.88601      1.0067628      35197.054      116          
    182100   492.21671      2983.2108     -1637.4567     -682.65876      1968.3135      3602.615      -387.33527      119.73295      1.0049313      35261.2        116          
    182200   496.01535      2823.551      -1564.5188     -775.07687      1903.4203      3477.1487     -333.84564      116.42331      1.0052854      35248.78       116          
    182300   504.11838      2981.5889     -1606.9848     -737.77291      1909.9991      3573.6472     -283.98755      126.68787      1.0019305      35366.81       116          
    182400   506.54428      3178.7764     -1568.5534     -577.21011      1885.4265      3600.9996     -276.2563       114.37013      0.99985919     35440.074      116          
    182500   494.3424       3188.7947     -1558.7605     -641.35476      1925.0284      3711.9813     -363.10612      115.0064       0.99803927     35504.699      116          
    182600   497.87501      2997.7741     -1558.7111     -743.94334      1935.7137      3642.6509     -394.41816      116.48201      0.99599328     35577.634      116          
    182700   499.67107      3055.8033     -1579.3116     -680.01392      1980.2576      3570.9929     -355.71667      119.59501      0.99389504     35652.743      116          
    182800   500.92956      3164.638      -1559.7748     -651.22537      1939.8894      3591.4544     -276.27603      120.57043      0.99263515     35697.994      116          
    182900   501.46301      3141.3655     -1597.255      -769.059        1998.4759      3734.4182     -340.3612       115.14654      0.99219462     35713.844      116          
    183000   512.41722      3113.28       -1544.8856     -685.6189       2007.909       3568.8893     -351.66245      118.64874      0.99226771     35711.214      116          
    183100   501.73004      2956.0457     -1593.8349     -737.41294      1818.2788      3671.2539     -324.51483      122.27561      0.99127574     35746.95       116          
    183200   494.47602      2997.4        -1567.1198     -747.65976      1927.8069      3645.5779     -375.32536      114.12015      0.99060127     35771.289      116          
    183300   507.23691      2856.3211     -1567.0787     -820.75981      1877.3162      3672.2132     -422.13859      116.76879      0.99038109     35779.241      116          
    183400   501.25249      3206.2941     -1596.511      -623.14365      2017.6162      3663.2143     -375.44772      120.566        0.98955274     35809.192      116          
    183500   511.35588      3186.8865     -1570.7775     -597.84038      1960.1177      3687.1233     -405.9548       114.21819      0.9898022      35800.167      116          
    183600   517.643        3201.3249     -1568.7721     -607.81041      1971.1955      3649.3478     -359.48743      116.85151      0.99002501     35792.11       116          
    183700   508.36179      3127.1806     -1549.1806     -684.47846      1971.4314      3658.3275     -377.45571      108.53647      0.9911672      35750.864      116          
    183800   495.50114      2940.4314     -1507.9329     -836.96015      1973.4151      3577.1437     -383.66099      118.42674      0.99235797     35707.966      116          
    183900   487.89145      3119.8686     -1564.3578     -699.51972      1966.1701      3644.3356     -353.37223      126.6126       0.99233674     35708.729      116          
    184000   504.50264      3009.7991     -1587.9433     -682.89833      1880.7512      3586.3149     -307.46258      121.03713      0.99305309     35682.97       116          
    184100   499.26111      3171.6698     -1569.972      -670.59776      1931.2161      3647.7677     -290.8114       124.06726      0.99235858     35707.943      116          
    184200   509.35389      3345.1568     -1578.1382     -531.66853      2001.0262      3742.3109     -404.42691      116.05342      0.99286536     35689.717      116          
    184300   506.98777      3107.9572     -1570.9905     -699.14548      1918.4228      3644.0217     -305.88167      121.53043      0.9918784      35725.23       116          
    184400   500.1698       2961.1697     -1616.4624     -747.86232      1928.3373      3654.3321     -374.07476      116.89972      0.99301617     35684.297      116          
    184500   497.23647      2987.3767     -1616.1525     -723.05549      1919.8735      3609.7225     -322.85146      119.83999      0.99377784     35656.947      116          
    184600   503.39798      3121.6377     -1600.724      -609.29984      1915.0392      3722.4466     -419.42073      113.59658      0.99521492     35605.459      116          
    184700   496.53726      3378.4994     -1571.0693     -505.5808       1920.2842      3718.7462     -309.97543      126.09466      0.99466306     35625.214      116          
    184800   515.87229      3016.1673     -1582.5628     -750.99042      1904.6426      3628.1678     -309.13726      126.04738      0.99414636     35643.729      116          
    184900   499.84288      3240.9247     -1578.8369     -683.08071      1968.8857      3706.3665     -299.30684      126.897        0.9930698      35682.37       116          
    185000   517.16406      2946.3291     -1575.9634     -714.35432      1851.6637      3600.794      -331.44939      115.63854      0.98920731     35821.697      116          
    185100   501.75875      3153.0097     -1599.8857     -532.53888      1910.0712      3547.9373     -289.33912      116.7649       0.98667031     35913.804      116          
    185200   489.89887      3025.7848     -1575.9494     -718.99487      1829.3179      3603.9085     -225.23648      112.73919      0.98627927     35928.043      116          
    185300   494.36359      3054.4112     -1587.3515     -773.13355      1948.2713      3653.3627     -305.46231      118.72451      0.98701011     35901.44       116          
    185400   505.26781      3024.3675     -1563.5321     -774.31817      1993.4614      3662.653      -407.08933      113.19265      0.98746356     35884.954      116          
    185500   499.67085      3070.4894     -1568.6737     -779.14471      1960.2394      3711.8565     -360.77901      106.99101      0.98735412     35888.931      116          
    185600   502.03588      3146.2814     -1558.8237     -612.27718      1893.2837      3630.2957     -320.8685       114.67141      0.98799946     35865.489      116          
    185700   492.5176       3190.4112     -1514.6604     -571.83201      1937.6412      3606.0374     -379.81896      113.04389      0.98892455     35831.939      116          
    185800   494.19774      3198.6319     -1575.4927     -579.58415      1986.9931      3656.3742     -410.15507      120.49646      0.98786998     35870.19       116          
    185900   503.06661      3183.1668     -1601.3017     -621.79112      1995.998       3618.8672     -323.58491      114.9793       0.98824369     35856.626      116          
    186000   504.38273      3163.6685     -1553.0714     -669.79827      1924.015       3697.0228     -343.44774      108.94806      0.98822153     35857.43       116          
    186100   498.13973      3119.0013     -1543.5479     -680.96699      1967.7525      3635.4744     -377.03038      117.31971      0.98627273     35928.281      116          
    186200   488.12169      2964.8714     -1578.2243     -812.13474      1933.3751      3647.9034     -353.17777      127.12966      0.98637862     35924.424      116          
    186300   493.56616      2939.8351     -1580.425      -724.7013       1922.4783      3573.2752     -365.19506      114.40291      0.98686241     35906.813      116          
    186400   496.84615      2908.3394     -1583.7769     -766.36929      1898.5062      3605.7463     -360.78534      115.01834      0.98715944     35896.009      116          
    186500   502.33523      3117.8366     -1562.2184     -682.33152      1903.5001      3582.9078     -246.22252      122.20107      0.98755001     35881.812      116          
    186600   510.34427      3050.5409     -1568.7018     -706.79637      1887.2413      3624.8098     -314.88608      128.87408      0.98797359     35866.428      116          
    186700   502.61324      3114.9978     -1534.4418     -619.68508      1932.9365      3557.9368     -343.73431      121.98562      0.98734597     35889.227      116          
    186800   491.3222       2989.5191     -1573.7893     -712.12651      1897.7825      3616.8547     -365.52052      126.31824      0.98694885     35903.668      116          
    186900   502.7          2938.7829     -1569.715      -676.23556      1924.0725      3500.5233     -358.72017      118.85789      0.98646997     35921.098      116          
    187000   496.03873      3144.6312     -1537.9432     -612.64513      1971.3496      3616.7569     -410.8311       117.94408      0.98751879     35882.946      116          
    187100   500.53413      3030.4005     -1579.0871     -734.74414      1920.6698      3583.7455     -287.97165      127.78807      0.98805541     35863.458      116          
    187200   497.77411      3122.4397     -1553.478      -650.91285      1921.1646      3654.8242     -360.36764      111.20945      0.98912683     35824.611      116          
    187300   498.38339      3163.2373     -1579.168      -577.64028      1927.5259      3632.6685     -362.94532      122.79654      0.98847594     35848.201      116          
    187400   498.081        3208.5077     -1544.8723     -531.82644      1830.1713      3600.0277     -260.33256      115.34006      0.98617245     35931.935      116          
    187500   496.09235      3174.969      -1545.1962     -612.70923      1945.7103      3649.0658     -387.59534      125.69367      0.98448914     35993.372      116          
    187600   498.47671      3257.1656     -1522.9623     -528.06793      1940.8074      3586.0543     -340.14118      121.47531      0.98382484     36017.676      116          
    187700   501.79844      76913.465      1167.5043     -697.70898      73024.681      3712.7633     -415.74522      121.97107      0.98313847     36042.821      117          
    187800   495.78966      3304.8317     -1530.3855     -448.26923      1932.3281      3528.5465     -305.14508      127.75694      1.0326234      34315.594      117          
    187900   501.65909      2919.5277     -1628.7571     -599.26112      1850.6329      3495.4834     -315.27015      116.69978      1.0336108      34282.81       117          
    188000   491.95156      2836.8789     -1616.9268     -715.93318      1839.6214      3627.0093     -419.13974      122.24799      1.0311011      34366.257      117          
    188100   496.34366      2954.8021     -1601.244      -613.69595      1898.0414      3412.8356     -258.53742      117.40242      1.0299501      34404.66       117          
    188200   506.53003      3005.5147     -1601.6461     -582.70244      1952.4739      3467.5137     -347.79178      117.66732      1.0283616      34457.805      117          
    188300   510.02136      3028.6351     -1586.5675     -619.25852      1911.3145      3484.5775     -277.41229      115.98154      1.0258882      34540.884      117          
    188400   518.02653      3077.2553     -1578.8811     -665.49639      1990.3587      3511.2495     -294.59624      114.62082      1.0235801      34618.771      117          
    188500   509.01914      2977.4694     -1594.4989     -747.30878      1878.5265      3551.8879     -232.20962      121.0723       1.0201678      34734.565      117          
    188600   495.74918      2964.9408     -1522.6403     -742.55122      1952.7983      3524.3153     -373.35778      126.37648      1.0179674      34809.647      117          
    188700   501.36385      2843.3312     -1568.0357     -714.15114      1881.5302      3422.2301     -301.25409      123.01178      1.0136031      34959.525      117          
    188800   501.23861      2802.7483     -1576.4147     -716.10534      1884.3055      3456.7849     -368.27572      122.45367      1.0104045      35070.197      117          
    188900   499.02833      3030.6217     -1636.0231     -585.29912      1869.5797      3566.9767     -300.58043      115.96796      1.0081273      35149.415      117          
    189000   512.19864      2914.9357     -1565.6255     -717.31862      1892.8705      3535.9381     -354.34533      123.41655      1.0072175      35181.163      117          
    189100   507.29073      2915.4658     -1597.1895     -750.41625      1884.0207      3556.8147     -311.25335      133.48958      1.0064103      35209.382      117          
    189200   479.14395      3001.3098     -1538.0689     -716.32087      1920.733       3571.3908     -357.30967      120.88548      1.005046       35257.176      117          
    189300   488.59648      2996.8154     -1613.8042     -593.96722      1879.0487      3554.6423     -353.80844      124.70431      1.0024517      35348.422      117          
    189400   498.73354      2931.2429     -1576.0036     -679.77396      1928.623       3478.9538     -345.0647       124.50837      1.0027865      35336.618      117          
    189500   501.48186      146804.09      338.51666     -787.10585      143783.74      3545.0899     -202.98519      126.83641      1.0005861      35414.329      118          
    189600   502.32053      3054.8491     -1615.1787     -606.6375       1913.2473      3578.5666     -353.00013      137.85159      1.0584265      33479.021      118          
    189700   498.404        2889.3372     -1617.323      -595.69839      1925.804       3416.2515     -356.75597      117.05907      1.0560631      33553.946      118          
    189800   502.02298      2744.6989     -1618.6521     -643.45373      1956.9643      3360.4557     -433.6389       123.02359      1.0536074      33632.153      118          
    189900   492.45856      2799.0417     -1649.615      -617.88745      1847.3645      3490.3557     -384.2436       113.06756      1.0504382      33733.622      118          
    190000   496.23344      2730.6113     -1597.4732     -668.76303      1841.8027      3381.2197     -344.67393      118.499        1.0458559      33881.42       118          
    190100   505.06258      2812.0001     -1597.5745     -654.41456      1834.521       3419.9171     -300.27185      109.82302      1.042677       33984.717      118          
    190200   506.49132      2761.3066     -1577.2727     -757.9111       1907.5195      3379.5742     -312.94372      122.34038      1.0387822      34112.14       118          
    190300   505.52509      2790.8537     -1573.1321     -690.81871      1915.4369      3368.4192     -351.47857      122.42701      1.0340736      34267.468      118          
    190400   497.4606       2667.689      -1572.2035     -807.63595      1886.3143      3453.3104     -418.99625      126.90002      1.0305833      34383.522      118          
    190500   494.42262      2758.062      -1576.1108     -738.66083      1898.016       3402.9786     -354.11745      125.95643      1.0276686      34481.041      118          
    190600   493.85628      2725.2356     -1549.1728     -757.34676      1832.4183      3384.3949     -317.03496      131.97683      1.0239386      34606.65       118          
    190700   492.6717       2860.6126     -1630.9919     -665.86273      1857.1653      3458.201      -284.88129      126.98216      1.021376       34693.475      118          
    190800   501.24779      2832.1003     -1562.802      -610.41156      1760.4655      3437.9595     -315.50717      122.39605      1.0194927      34757.565      118          
    190900   494.48505      2755.2297     -1550.8269     -647.22117      1825.8944      3347.6408     -344.49122      124.23382      1.0156428      34889.317      118          
    191000   493.34953      2676.9998     -1615.2796     -663.32862      1859.0911      3306.8972     -333.08426      122.70398      1.0140236      34945.029      118          
    191100   498.64166      2673.1985     -1593.3871     -716.53382      1840.0029      3350.6564     -334.00217      126.46237      1.0127803      34987.927      118          
    191200   498.90485      2799.0557     -1563.9689     -719.58746      1885.0615      3351.2715     -276.74917      123.02813      1.0096077      35097.875      118          
    191300   492.37663      2786.3129     -1563.607      -814.68209      1832.5869      3556.7191     -350.77114      126.06716      1.007704       35164.18       118          
    191400   507.28653      2689.9206     -1589.7866     -749.7904       1860.5964      3456.4507     -405.72682      118.17737      1.0060478      35222.069      118          
    191500   487.30044      2997.6864     -1564.104      -553.07094      1889.3782      3446.0147     -344.08148      123.55006      1.0040093      35293.582      118          
    191600   487.96952      2849.9423     -1555.0018     -702.30259      1920.7461      3366.6905     -294.30185      114.11187      1.0020132      35363.888      118          
    191700   512.66446      3014.9061     -1596.6538     -538.38587      1986.8984      3380.7118     -340.49896      122.83454      0.9993442      35458.338      118          
    191800   509.88549      2922.1841     -1558.7977     -644.47268      1956.9406      3453.0925     -406.42091      121.84226      0.99670031     35552.396      118          
    191900   508.05431      2760.4194     -1574.858      -678.01175      1865.7163      3400.864      -367.05325      113.76212      0.99286934     35689.574      118          
    192000   494.34967      2763.6215     -1556.5662     -728.14653      1954.6461      3363.7805     -396.06937      125.97691      0.99099699     35757.005      118          
    192100   495.48165      2701.2861     -1606.1257     -771.65068      1929.6597      3440.9879     -417.31536      125.73019      0.98990721     35796.369      118          
    192200   503.59825      2653.2233     -1547.3909     -837.38599      1790.2824      3423.1794     -299.37849      123.91684      0.98862008     35842.974      118          
    192300   511.78551      2908.4072     -1592.5114     -663.34381      1922.0787      3463.3248     -342.47373      121.33267      0.98691893     35904.757      118          
    192400   507.47293      2871.766      -1544.6727     -741.00689      1940.9341      3479.3752     -375.47169      112.60798      0.9864028      35923.544      118          
    192500   493.35045      2892.5172     -1540.3945     -747.88508      1974.4059      3463.2365     -388.73888      131.89329      0.98667813     35913.519      118          
    192600   506.22123      2811.3472     -1530.3489     -673.82629      1876.3702      3398.7343     -382.84038      123.25827      0.98520197     35967.33       118          
    192700   502.38747      2713.9845     -1526.56       -785.86443      1842.2611      3387.6669     -318.44147      114.92237      0.98367338     36023.222      118          
    192800   502.50306      2617.1657     -1549.4951     -835.25046      1869.116       3351.7619     -329.70632      110.73973      0.98405056     36009.414      118          
    192900   486.75427      2890.1961     -1555.5731     -612.12921      1952.1728      3387.9687     -388.64503      106.40189      0.98499583     35974.857      118          
    193000   490.76126      2780.069      -1538.4528     -723.74952      1872.3759      3398.1673     -352.65053      124.37857      0.98433291     35999.085      118          
    193100   498.73456      3024.6136     -1505.6007     -569.12535      1895.7048      3421.9866     -336.62665      118.27487      0.98359315     36026.16       118          
    193200   509.33701      2807.0736     -1514.8157     -742.08587      1906.3378      3440.1028     -389.07696      106.61151      0.98247287     36067.239      118          
    193300   496.47513      2998.4481     -1507.2592     -600.86996      1952.0441      3388.8739     -353.61036      119.26958      0.98226573     36074.845      118          
    193400   490.86604      2974.678      -1546.5056     -558.56922      1944.8676      3395.1986     -369.28923      108.97582      0.98210877     36080.611      118          
    193500   483.42862      2845.7373     -1533.3313     -704.25038      1889.6558      3437.1629     -360.67619      117.17655      0.98257882     36063.35       118          
    193600   503.78833      2833.2729     -1554.3495     -672.11644      1885.7488      3430.3514     -373.46984      117.10858      0.98196073     36086.05       118          
    193700   500.75467      2854.9158     -1537.0133     -782.64672      1919.7235      3454.9305     -322.92484      122.84669      0.98155265     36101.053      118          
    193800   501.80524      2748.0264     -1524.4925     -839.81268      1883.129       3418.6877     -308.92318      119.43818      0.97922366     36186.916      118          
    193900   502.77696      2769.723      -1553.4786     -688.44861      1825.1479      3403.378      -342.84126      125.96552      0.97611715     36302.081      118          
    194000   497.91327      2830.6541     -1553.8747     -607.40051      1872.0397      3347.1672     -341.35525      114.07764      0.97702195     36268.463      118          
    194100   496.27095      2730.2263     -1544.5003     -696.48895      1905.8751      3334.2279     -390.17836      121.29097      0.97855743     36211.553      118          
    194200   504.35105      3028.0533     -1550.5747     -470.84189      1875.702       3403.8583     -344.04329      113.95285      0.97883671     36201.221      118          
    194300   505.46995      3041.4905     -1529.7494     -551.33721      1912.9391      3401.7956     -317.44764      125.29001      0.97939205     36180.694      118          
    194400   491.59414      2938.7473     -1531.3151     -764.20848      1956.0683      3511.4369     -355.47917      122.2448       0.97958156     36173.694      118          
    194500   511.88954      2707.6513     -1536.2322     -725.03825      1891.8951      3350.7822     -387.6469       113.89131      0.97873639     36204.932      118          
    194600   499.88055      2606.2865     -1566.9586     -799.25943      1827.4611      3367.7189     -340.76453      118.08896      0.98017115     36151.935      118          
    194700   497.67258      2706.3325     -1557.5296     -701.28639      1853.1047      3311.5234     -313.33092      113.8513       0.98431952     35999.575      118          
    194800   491.4224       2788.9643     -1552.2379     -753.84276      1969.2509      3443.7501     -435.21618      117.26014      0.98548577     35956.972      118          
    194900   505.78705      2790.2333     -1540.1893     -680.84927      1924.994       3349.0287     -382.12677      119.37586      0.98444256     35995.075      118          
    195000   494.39733      2767.8976     -1564.0354     -823.08401      1925.6396      3424.3897     -324.93347      129.92118      0.98165813     36097.174      118          
    195100   497.8346       2912.0483     -1546.5157     -644.3143       1914.3351      3424.0574     -358.93885      123.42462      0.97961467     36172.472      118          
    195200   493.77413      2711.3815     -1583.9207     -874.68525      1948.3313      3453.919      -343.06969      110.80682      0.9792292      36186.711      118          
    195300   494.04536      2971.2563     -1539.4007     -583.80959      1872.6932      3384.3051     -287.66124      125.12963      0.98213653     36079.591      118          
    195400   495.54172      2747.3337     -1569.73       -780.2014       1941.674       3397.8809     -355.70008      113.41033      0.98528556     35964.278      118          
    195500   496.54955      2808.773      -1522.3371     -742.07518      1931.6027      3394.3241     -370.70379      117.96231      0.9885994      35843.724      118          
    195600   499.28143      2718.1591     -1564.3115     -896.06324      1990.1878      3452.4387     -384.66779      120.57517      0.98935905     35816.202      118          
    195700   504.01911      2897.5505     -1594.0964     -671.16008      2020.4816      3419.8041     -390.80559      113.32684      0.99209527     35717.42       118          
    195800   500.78127      2634.5476     -1577.9884     -799.52274      1887.2704      3349.7959     -337.2442       112.23665      0.99448962     35631.427      118          
    195900   486.52469      2810.2086     -1577.4282     -704.01324      1950.6074      3341.0153     -307.77571      107.80294      0.99552189     35594.48       118          
    196000   502.9159       2648.0588     -1550.1579     -793.75021      1826.9827      3340.6876     -297.37379      121.67039      0.99361234     35662.887      118          
    196100   499.42036      2799.4261     -1568.6756     -769.85262      1906.6411      3374.1517     -261.23526      118.3968       0.98935613     35816.308      118          
    196200   504.61273      2874.2838     -1584.0779     -646.24204      1936.3115      3418.3898     -361.19977      111.10216      0.98581474     35944.973      118          
    196300   511.24933      2805.9969     -1583.0246     -609.41903      1861.8939      3384.2459     -364.80376      117.10456      0.98240589     36069.698      118          
    196400   492.25259      2888.7391     -1594.031      -636.7855       1937.9065      3408.1912     -345.14415      118.60203      0.98273584     36057.588      118          
    196500   501.03085      2769.429      -1602.244      -734.097        1937.5565      3444.5686     -407.28781      130.9327       0.98461034     35988.942      118          
    196600   505.03054      2810.2206     -1540.8874     -821.12434      1925.2229      3423.2331     -303.6483       127.4246       0.9856         35952.805      118          
    196700   509.94797      2922.8285     -1553.4845     -668.46032      1940.982       3389.495      -300.3134       114.60968      0.98459147     35989.631      118          
    196800   497.07682      2840.01       -1508.4632     -728.99306      1907.8468      3400.7684     -337.30815      106.15914      0.98418921     36004.341      118          
    196900   504.04615      2682.0875     -1589.1304     -727.11143      1898.4678      3329.943      -335.06323      104.98175      0.9849502      35976.524      118          
    197000   504.30706      2755.0662     -1556.3359     -687.09128      1967.0589      3354.5181     -434.28331      111.19967      0.98852004     35846.601      118          
    197100   502.20306      2851.264      -1551.1342     -643.50025      1958.9395      3422.3736     -445.89087      110.47623      0.99043591     35777.261      118          
    197200   503.01031      2897.1933     -1551.1359     -689.7501       1995.3657      3484.6867     -456.42797      114.45481      0.99152066     35738.12       118          
    197300   509.27719      2996.4322     -1566.0219     -678.50681      1952.3191      3550.9458     -368.98741      106.68355      0.99009859     35789.45       118          
    197400   504.15478      2842.1545     -1532.1795     -798.89673      1904.7365      3479.8315     -331.10231      119.76504      0.98786989     35870.193      118          
    197500   494.13552      2786.3966     -1564.8887     -830.00357      1909.1698      3465.6741     -308.98976      115.43479      0.98491701     35977.736      118          
    197600   493.94916      2950.8267     -1555.4792     -639.19415      1846.6721      3523.2129     -335.24978      110.86481      0.98394167     36013.399      118          
    197700   506.00143      2948.764      -1592.5521     -584.0778       1934.8673      3425.7213     -349.5982       114.40344      0.98425986     36001.757      118          
    197800   503.67537      2997.6558     -1499.0524     -645.7576       1921.5113      3511.3936     -401.72003      111.2809       0.98559556     35952.967      118          
    197900   504.45205      2970.2795     -1558.1063     -685.88511      2023.0393      3423.7024     -353.17878      120.70795      0.98176401     36093.281      118          
    198000   505.97196      2853.2125     -1498.2574     -737.11995      1958.468       3335.3176     -330.84575      125.64996      0.97936428     36181.72       118          
    198100   497.50353      2694.1329     -1577.696      -808.44481      1912.4125      3445.0024     -393.18822      116.04702      0.9788541      36200.578      118          
    198200   487.47023      2700.26       -1526.6867     -877.65814      1890.4585      3369.7821     -283.85203      128.2162       0.97971188     36168.883      118          
    198300   503.15161      2732.8988     -1513.6536     -784.28075      1909.3166      3353.6908     -348.23862      116.06431      0.97930982     36183.732      118          
    198400   506.71404      2993.1442     -1525.7259     -619.55106      1886.1733      3462.7422     -336.38514      125.89079      0.97888692     36199.364      118          
    198500   507.13164      2776.3036     -1529.662      -805.90272      1945.8146      3392.0111     -344.69261      118.73523      0.97883067     36201.444      118          
    198600   500.31534      2965.768      -1558.4716     -604.27543      1869.0098      3404.8053     -275.4721       130.17201      0.97800035     36232.179      118          
    198700   497.54949      2839.3783     -1549.9356     -725.25748      1825.7461      3486.7846     -320.37345      122.41416      0.97969894     36169.361      118          
    198800   494.72283      2943.7978     -1532.7772     -639.42439      1979.569       3400.228      -390.12923      126.33171      0.98037137     36144.552      118          
    198900   497.62042      2854.8204     -1568.1837     -682.32317      1875.257       3450.6694     -347.01473      126.41556      0.98284428     36053.61       118          
    199000   502.15986      2730.7752     -1589.0553     -697.08838      1896.4076      3322.3101     -327.65929      125.86041      0.98668408     35913.303      118          
    199100   494.53595      2711.3012     -1577.5412     -730.74742      1834.4747      3399.1766     -330.21509      116.15361      0.98888719     35833.293      118          
    199200   497.25533      2809.1361     -1591.9327     -661.62889      1896.2915      3461.4942     -412.15866      117.07065      0.99037058     35779.621      118          
    199300   511.65743      2901.4915     -1578.1986     -578.03341      1898.6098      3393.6801     -352.91428      118.34786      0.99273828     35694.286      118          
    199400   500.81834      2921.7891     -1567.2015     -715.62976      1953.9414      3435.8664     -310.13926      124.9518       0.99337754     35671.316      118          
    199500   506.83607      2884.9674     -1550.7436     -624.04471      1896.8289      3443.5789     -397.42378      116.7717       0.99335637     35672.076      118          
    199600   495.05352      3039.959      -1582.7781     -516.28985      1894.3801      3442.8887     -316.57952      118.33763      0.99204865     35719.099      118          
    199700   496.66311      2954.3759     -1532.7136     -571.36953      1931.6967      3427.4508     -411.93867      111.25016      0.99125709     35747.622      118          
    199800   505.52425      2817.1397     -1581.8726     -637.04834      1846.5465      3456.6446     -384.51752      117.38709      0.99011032     35789.026      118          
    199900   492.19312      2807.387      -1556.943      -745.06976      1945.8614      3472.334      -425.51342      116.71783      0.98821775     35857.567      118          
    200000   491.24237      2654.1176     -1579.9222     -884.72243      1939.3442      3399.0612     -337.28073      117.63756      0.98642041     35922.902      118          
    200100   502.45386      2769.5186     -1581.9403     -727.14104      1910.7474      3343.1173     -299.73079      124.46597      0.98614538     35932.921      118          
    200200   497.51866      2919.1857     -1569.6904     -714.15738      1920.9978      3510.1314     -340.31431      112.21875      0.98568243     35949.798      118          
    200300   499.64424      2955.9688     -1585.3225     -675.34379      1959.0995      3469.5496     -342.75635      130.74237      0.98487745     35979.181      118          
    200400   504.82705      2735.0551     -1587.489      -678.36627      1918.9579      3420.233      -448.81959      110.53898      0.98423812     36002.552      118          
    200500   490.87284      2750.5524     -1578.2821     -719.8038       1852.6786      3391.1999     -319.01144      123.77117      0.98240722     36069.649      118          
    200600   497.41227      2763.6955     -1552.417      -699.96175      1807.0673      3392.5961     -314.24258      130.65345      0.98351333     36029.084      118          
    200700   508.61054      2759.4944     -1544.11       -706.40732      1865.7732      3359.4171     -339.50579      124.32726      0.98637532     35924.544      118          
    200800   511.73505      2806.2071     -1526.6027     -680.8782       1899.514       3327.3245     -341.65058      128.50008      0.99016958     35786.884      118          
    200900   502.91209      2807.8919     -1593.847      -716.68638      1827.4271      3491.815      -328.40248      127.58566      0.99277667     35692.906      118          
    201000   490.27492      2685.017      -1583.965      -791.02033      1931.2531      3372.6799     -369.5726       125.64191      0.99580478     35584.368      118          
    201100   503.07057      2684.3421     -1565.2213     -671.14004      1883.4494      3296.2873     -374.71607      115.6829       0.99949984     35452.816      118          
    201200   499.91523      2921.8537     -1575.8248     -585.54387      1877.4278      3387.5662     -311.1575       129.38586      1.0007515      35408.474      118          
    201300   503.05528      2891.9118     -1591.7422     -678.78294      1942.2591      3395.4919     -299.24402      123.92988      1.0008602      35404.629      118          
    201400   500.2551       2813.0139     -1592.6312     -738.51013      1937.3649      3407.3261     -322.01059      121.4748       1.0011564      35394.154      118          
    201500   490.972        2770.2377     -1553.075      -775.11099      1900.586       3387.3261     -311.11721      121.62882      1.0010015      35399.632      118          
    201600   489.7937       2596.6329     -1626.5187     -797.99065      1854.0491      3389.7932     -333.60264      110.90256      1.0001786      35428.756      118          
    201700   486.71145      2662.6211     -1605.142      -812.40445      1873.1248      3308.6953     -234.02821      132.37571      1.0017662      35372.609      118          
    201800   496.04478      2672.0043     -1591.8028     -856.6344       1882.3953      3478.0774     -358.52896      118.49781      1.0025019      35346.651      118          
    201900   501.12411      2774.4521     -1636.2868     -771.60863      1905.2578      3381.5948     -240.98253      136.47743      1.0017531      35373.07       118          
    202000   507.32208      2835.167      -1604.9654     -644.9404       1920.3531      3408.15       -359.68355      116.25318      1.0036478      35306.292      118          
    202100   507.17543      2753.3778     -1616.1067     -616.46818      1911.0479      3360.0219     -405.17814      120.06109      1.0037353      35303.217      118          
    202200   496.48219      2667.1275     -1571.2881     -707.30671      1908.4911      3328.4942     -408.67012      117.40711      1.0048714      35263.303      118          
    202300   490.89696      2783.7857     -1586.3802     -672.83832      1871.5984      3414.6093     -353.91013      110.70667      1.0026326      35342.044      118          
    202400   495.35243      2826.6628     -1562.602      -691.27954      1911.8635      3402.3188     -355.064        121.42602      1.0030408      35327.659      118          
    202500   508.67272      2693.753      -1566.4697     -718.81616      1914.6895      3359.7266     -414.09186      118.71461      1.0010397      35398.28       118          
    202600   496.03401      2761.3579     -1573.6896     -731.98673      1938.0533      3380.4222     -362.11957      110.67835      0.99686227     35546.62       118          
    202700   496.31261      2558.0972     -1585.5749     -947.21433      1837.2856      3415.2733     -281.89071      120.21821      0.99259991     35699.262      118          
    202800   507.49999      2685.3045     -1582.4103     -804.52169      1903.1076      3384.8017     -334.53472      118.86187      0.990305       35781.99       118          
    202900   501.67776      2746.395      -1556.9758     -885.37662      1947.1689      3410.9738     -294.48516      125.08985      0.98747465     35884.55       118          
    203000   506.60821      2801.6812     -1588.4875     -768.27313      1903.7269      3399.1652     -265.58728      121.13703      0.98625781     35928.825      118          
    203100   505.93866      2625.6754     -1576.0071     -783.97597      1872.6142      3268.4043     -276.02851      120.66854      0.98729569     35891.055      118          
    203200   499.29248      2629.6556     -1580.1352     -790.85899      1859.2603      3352.7175     -337.458        126.12985      0.98866961     35841.179      118          
    203300   493.46738      2685.4463     -1575.8583     -807.94476      1892.5888      3415.1487     -347.8923       109.40424      0.98678507     35909.627      118          
    203400   494.77011      2816.3001     -1541.1148     -756.52674      2002.0149      3314.9309     -322.45447      119.45027      0.98526654     35964.973      118          
    203500   518.31854      2843.6458     -1559.3308     -681.70064      1915.3444      3378.7419     -330.20013      120.79092      0.98711256     35897.714      118          
    203600   510.48905      2866.0737     -1555.672      -798.61013      2009.7452      3429.4452     -347.07331      128.23872      0.98946448     35812.386      118          
    203700   500.94836      2898.0813     -1539.3121     -716.62741      1964.3441      3418.6013     -355.03715      126.11251      0.99066763     35768.893      118          
    203800   502.41572      2736.0743     -1582.6825     -722.53009      1903.9353      3362.2196     -341.32292      116.45497      0.99198164     35721.512      118          
    203900   490.97601      2673.2647     -1585.8215     -841.89705      1842.5652      3431.8091     -295.2093       121.8183       0.99351066     35666.536      118          
    204000   503.21711      2643.6816     -1615.0667     -755.79282      1846.5147      3366.364      -308.79974      110.46214      0.99376526     35657.399      118          
    204100   497.00594      2860.1879     -1563.6806     -729.12695      1948.0398      3362.5005     -282.97585      125.43093      0.99507098     35610.61       118          
    204200   506.9315       2837.9849     -1610.9275     -721.51406      1952.5091      3451.619      -367.91096      134.20934      0.99448319     35631.657      118          
    204300   502.08432      2742.8101     -1562.9646     -784.9898       1923.7016      3440.0706     -393.45254      120.4448       0.99307738     35682.098      118          
    204400   501.03764      2711.6387     -1569.8534     -763.2047       1893.4422      3396.1848     -367.54957      122.61941      0.99122029     35748.95       118          
    204500   487.05513      2846.9587     -1560.9622     -739.60455      1993.8191      3420.1395     -388.71011      122.27693      0.99097091     35757.946      118          
    204600   503.25161      2754.4402     -1557.5128     -711.43179      1917.5754      3394.0336     -411.21888      122.99465      0.99152736     35737.878      118          
    204700   492.06225      2778.6621     -1530.7044     -780.54625      1959.0009      3398.4844     -382.02031      114.44773      0.98999446     35793.215      118          
    204800   501.10022      2731.893      -1596.6193     -802.85884      1958.0427      3443.4933     -397.83201      127.66715      0.98679808     35909.154      118          
    204900   496.46381      2874.779      -1534.9753     -775.18935      1977.9365      3416.1731     -329.49753      120.33159      0.98540499     35959.92       118          
    205000   512.87448      2659.0186     -1520.417      -873.69836      1891.0201      3441.4128     -394.45135      115.15247      0.98487316     35979.338      118          
    205100   503.82042      2846.163      -1532.7408     -630.28947      1970.5075      3382.5506     -444.43319      100.56834      0.98414218     36006.062      118          
    205200   499.23548      2745.9167     -1511.31       -675.5455       1918.8102      3298.1027     -414.03908      129.89832      0.98291552     36050.997      118          
    205300   500.16433      2704.6442     -1563.9375     -769.78598      1907.5216      3435.5879     -425.51173      120.76983      0.98057475     36137.055      118          
    205400   510.37805      2701.9545     -1532.4882     -807.26763      1953.5483      3366.3142     -399.31863      121.16647      0.98125695     36111.932      118          
    205500   500.039        2983.7994     -1531.699      -645.61892      2018.7572      3396.2981     -372.04194      118.10404      0.98237379     36070.877      118          
    205600   500.67873      2782.3779     -1595.0083     -801.02575      1980.6922      3460.2333     -376.09676      113.5831       0.98308637     36044.731      118          
    205700   503.66651      2777.0047     -1578.6723     -736.31757      1896.2072      3437.5294     -367.04562      125.30359      0.98610372     35934.439      118          
    205800   493.05667      2694.7089     -1539.739      -827.10204      1900.3523      3374.9975     -336.57119      122.77133      0.98737554     35888.153      118          
    205900   492.5999       2808.5192     -1596.2291     -653.77443      1917.2938      3440.431      -424.92035      125.71824      0.98707497     35899.081      118          
    206000   485.8228       39766.13       138.2889      -630.74055      37208.758      3333.9274     -408.43549      124.33159      0.98866148     35841.473      119          
    206100   498.13787      2801.3631     -1603.4999     -598.90705      1952.9334      3356.1135     -418.57866      113.3018       1.0286858      34446.945      119          
    206200   501.29229      2887.6596     -1590.1958     -581.28908      1944.3627      3367.4513     -372.29316      119.62371      1.0345384      34252.071      119          
    206300   499.88082      2721.2585     -1575.7121     -624.3734       1873.6269      3329.6045     -405.94907      124.06175      1.032621       34315.673      119          
    206400   505.07933      2604.0537     -1590.2513     -659.14861      1861.6748      3360.4361     -480.30966      111.65242      1.0285283      34452.222      119          
    206500   499.61913      2568.7237     -1581.7554     -696.64747      1836.0325      3268.5414     -378.63925      121.19188      1.0236505      34616.388      119          
    206600   494.34271      2656.4717     -1571.8648     -700.06666      1812.8024      3327.3096     -338.11526      126.40633      1.0199224      34742.922      119          
    206700   499.76311      2632.981      -1586.8751     -732.40204      1851.4756      3348.2874     -362.57072      115.0659       1.0155335      34893.072      119          
    206800   511.19306      2710.7876     -1609.7881     -703.26963      1937.2981      3323.2386     -357.73126      121.03984      1.0140007      34945.819      119          
    206900   518.46704      2736.4214     -1539.2055     -675.00707      1879.2069      3312.0707     -363.42642      122.78281      1.011767       35022.97       119          
    207000   502.86322      2568.6131     -1538.5274     -830.15041      1922.6864      3270.8702     -389.36617      133.10048      1.0079532      35155.486      119          
    207100   491.79463      2676.135      -1553.7478     -756.50222      1950.8182      3372.3219     -451.37317      114.618        1.0043019      35283.298      119          
    207200   496.12752      2560.4773     -1492.8644     -850.57936      1949.0296      3261.6284     -423.31873      116.58176      1.0020468      35362.703      119          
    207300   500.10817      2511.1788     -1587.2344     -860.76677      1845.2385      3370.3049     -380.23203      123.86856      0.9986194      35484.073      119          
    207400   500.50839      2560.1501     -1564.3648     -773.64207      1890.0474      3330.5749     -446.53633      124.07097      0.99721183     35534.159      119          
    207500   491.12969      2479.8244     -1605.0742     -819.30262      1867.7672      3309.3405     -387.90921      115.00272      0.99559272     35591.948      119          
    207600   496.17488      2634.758      -1540.5877     -618.09528      1789.7008      3296.5119     -409.32171      116.54999      0.99565148     35589.847      119          
    207700   500.59749      2651.6138     -1611.788      -714.66206      1894.6641      3350.5531     -390.54914      123.39584      0.99364497     35661.715      119          
    207800   507.29643      2611.0521     -1546.6193     -768.19888      1842.7328      3285.9739     -335.8892       133.05269      0.99351283     35666.458      119          
    207900   504.29999      2683.535      -1526.8947     -693.56173      1889.0176      3191.8951     -295.52352      118.60217      0.99224798     35711.924      119          
    208000   503.03557      2486.5937     -1584.4412     -829.30675      1844.5012      3297.4591     -369.27159      127.65302      0.99030209     35782.095      119          
    208100   497.78909      2457.1193     -1513.7394     -782.49527      1852.2685      3093.5006     -322.84814      130.43306      0.98964378     35805.898      119          
    208200   481.42281      2596.0329     -1558.9046     -699.71508      1821.8131      3277.1721     -369.86907      125.53635      0.98896003     35830.653      119          
    208300   501.65595      2502.0598     -1566.8735     -765.95077      1785.9627      3233.8491     -315.4685       130.54079      0.98753285     35882.436      119          
    208400   497.02337      2593.0666     -1562.8768     -795.01164      1891.0197      3288.1233     -351.83501      123.64703      0.98643186     35922.485      119          
    208500   505.11218      2595.8623     -1542.2023     -782.71273      1823.7231      3289.9784     -330.55738      137.63325      0.98497664     35975.558      119          
    208600   502.77448      2622.8601     -1528.1344     -843.39895      1913.7746      3309.6403     -358.39477      129.37333      0.98217993     36077.997      119          
    208700   498.79642      2629.3619     -1560.0419     -869.07689      1925.1613      3355.361      -353.37727      131.33565      0.98057345     36137.103      119          
    208800   501.34002      2484.0126     -1497.3056     -844.16295      1866.0636      3274.674      -431.25235      115.99594      0.9811078      36117.422      119          
    208900   495.73491      2641.8362     -1531.0248     -670.55954      1877.4935      3285.8778     -441.21322      121.26253      0.9797044      36169.159      119          
    209000   500.48295      2583.0588     -1548.0446     -756.26653      1885.9127      3246.223      -366.93607      122.17033      0.97884749     36200.822      119          
    209100   502.62778      2706.5655     -1535.6461     -723.05497      1927.9288      3281.6508     -355.9935       111.68054      0.97808461     36229.058      119          
    209200   501.58591      2636.5261     -1505.2656     -832.06917      1895.7485      3261.8752     -306.52665      122.76377      0.97731654     36257.53       119          
    209300   499.5845       2764.4143     -1533.3012     -705.14996      1913.554       3358.2009     -388.63682      119.7474       0.97805121     36230.295      119          
    209400   503.07444      2621.9959     -1532.1815     -727.75433      1873.9164      3277.5633     -383.88353      114.33552      0.97823522     36223.48       119          
    209500   497.58799      2541.8673     -1551.2113     -783.42054      1859.5105      3333.4659     -435.72728      119.24995      0.97899898     36195.22       119          
    209600   489.10458      2667.6142     -1544.9367     -698.00929      1901.261       3305.8639     -403.29296      106.72827      0.97789484     36236.089      119          
    209700   489.17717      2573.2689     -1528.5315     -793.94375      1865.5467      3316.0504     -419.55468      133.70174      0.97674586     36278.714      119          
    209800   506.19458      2561.1206     -1594.4489     -805.7135       1913.0069      3299.8709     -378.56032      126.96554      0.97710498     36265.381      119          
    209900   501.57334      2782.1631     -1522.6615     -675.88071      1940.612       3266.33       -347.58382      121.34706      0.97914867     36189.687      119          
    210000   496.3288       2849.1611     -1508.6922     -647.71953      1865.3084      3368.8308     -365.28729      136.72087      0.97858208     36210.641      119          
    210100   498.42279      2743.1416     -1539.7775     -659.04816      1919.0712      3212.8686     -315.69924      125.72668      0.97745095     36252.545      119          
    210200   491.19408      2626.5314     -1543.1322     -699.12873      1861.7674      3279.0488     -398.256        126.23224      0.97616138     36300.436      119          
    210300   487.01503      2668.111      -1537.2573     -749.49097      1875.5079      3275.2584     -320.13519      124.2282       0.97640936     36291.217      119          
    210400   508.14845      2667.8389     -1533.9161     -657.00441      1874.2081      3204.7457     -341.77394      121.57949      0.97612075     36301.947      119          
    210500   492.32611      2821.8692     -1545.7101     -683.48888      1890.1715      3332.0612     -302.54154      131.37702      0.97567291     36318.61       119          
    210600   502.64863      2797.9439     -1564.8403     -667.24942      1943.1166      3317.3715     -358.64073      128.18628      0.97778748     36240.067      119          
    210700   508.64822      2857.5705     -1578.5365     -574.66579      1953.3909      3288.6322     -348.76722      117.51692      0.97929208     36184.388      119          
    210800   497.08305      2876.9232     -1538.3307     -576.83288      1862.658       3321.6706     -319.58877      127.34695      0.98191704     36087.656      119          
    210900   492.89749      2748.5353     -1541.155      -584.09386      1876.2988      3279.5445     -400.52148      118.46227      0.98256565     36063.834      119          
    211000   491.20712      2579.9772     -1524.0304     -787.47902      1841.7909      3368.0685     -436.47633      118.10358      0.98388473     36015.483      119          
    211100   499.54622      2688.2476     -1553.9501     -742.94082      1855.8773      3324.431      -317.64621      122.47636      0.98400251     36011.172      119          
    211200   517.18284      2425.4774     -1545.1924     -885.66002      1903.1342      3203.139      -373.557        123.61371      0.98661563     35915.794      119          
    211300   501.41503      2460.9472     -1543.8483     -945.81198      1893.5694      3317.064      -383.15474      123.12886      0.98918623     35822.46       119          
    211400   499.19836      2465.6663     -1532.8335     -940.20899      1927.7497      3314.977      -421.99893      117.98112      0.98940877     35814.403      119          
    211500   496.00179      2566.1896     -1555.6138     -841.12889      1919.3451      3359.3209     -430.36014      114.62645      0.98979174     35800.545      119          
    211600   495.68707      2574.4237     -1553.9688     -868.96463      1918.0656      3375.2971     -420.11108      124.10551      0.99029386     35782.393      119          
    211700   500.65518      2703.6287     -1533.3926     -873.70581      1991.7249      3315.5491     -324.58059      128.03365      0.98965364     35805.541      119          
    211800   516.10363      2541.9885     -1565.5865     -907.83639      1900.7696      3250.3971     -261.09565      125.34026      0.98966112     35805.271      119          
    211900   498.59065      2639.7056     -1554.7342     -825.66071      1926.4501      3300.3813     -331.76658      125.03568      0.99079393     35764.333      119          
    212000   502.8824       2598.7948     -1627.4804     -756.2984       1858.0513      3274.6564     -273.05021      122.91619      0.99169777     35731.737      119          
    212100   501.82747      2691.1934     -1597.3834     -666.79001      1959.8307      3202.5427     -325.78758      118.78101      0.99450828     35630.758      119          
    212200   501.21841      2652.823      -1592.1532     -813.62455      1950.3377      3375.3984     -383.80528      116.67         0.99729602     35531.159      119          
    212300   503.1554       2804.9655     -1520.9495     -751.09017      1919.2913      3388.0802     -351.76336      121.39703      0.99686364     35546.571      119          
    212400   500.36078      2693.4103     -1568.6359     -860.07614      1931.5516      3316.8275     -255.29547      129.03871      0.99210928     35716.916      119          
    212500   499.55798      2634.1041     -1549.0248     -735.56368      1867.719       3286.9743     -356.77285      120.77213      0.98955948     35808.948      119          
    212600   492.22508      2545.7034     -1592.3942     -822.79727      1899.2735      3244.0524     -298.02073      115.58971      0.98919412     35822.174      119          
    212700   494.70795      2605.3398     -1569.5582     -783.40622      1946.9284      3296.8345     -398.78035      113.32169      0.99160149     35735.206      119          
    212800   505.63231      2591.3353     -1564.1304     -836.17695      1955.707       3319.9741     -403.0699       119.03144      0.99325294     35675.791      119          
    212900   511.29377      2535.524      -1579.835      -842.35124      1903.6412      3316.596      -389.48163      126.95465      0.99362384     35662.474      119          
    213000   507.82965      2315.632      -1548.2936     -984.66252      1934.0561      3235.7111     -443.50907      122.32997      0.99353518     35665.656      119          
    213100   487.39335      2828.6812     -1560.0321     -591.4048       1924.1846      3225.9079     -297.29157      127.31731      0.99377258     35657.136      119          
    213200   500.6083       2678.6334     -1574.0348     -670.60197      1841.7563      3341.4228     -377.66382      117.75494      0.99440639     35634.409      119          
    213300   503.40731      2605.0357     -1564.3576     -781.98702      1866.9331      3323.3604     -360.35168      121.4385       0.99443319     35633.449      119          
    213400   508.20685      2656.8577     -1526.444      -714.63155      1920.4677      3196.1006     -347.47495      128.83997      0.99359853     35663.382      119          
    213500   509.1978       2700.2796     -1569.6274     -589.31083      1931.2975      3222.8869     -415.11387      120.14731      0.99315976     35679.138      119          
    213600   488.60264      2557.5513     -1574.123      -808.47686      1906.542       3292.6542     -376.13717      117.09205      0.9937093      35659.407      119          
    213700   503.01422      2282.4298     -1583.3124     -981.69215      1835.1         3304.6437     -408.53058      116.22129      0.99453673     35629.739      119          
    213800   509.82851      2546.6801     -1512.3778     -823.68329      1896.9268      3216.5676     -350.08323      119.32998      0.99541986     35598.128      119          
    213900   500.77798      2638.9674     -1543.0048     -868.60258      1904.2703      3348.6852     -328.19894      125.8182       0.99648866     35559.947      119          
    214000   504.77721      2531.0039     -1524.4828     -893.05286      1825.7085      3349.8162     -341.61118      114.6261       0.99730795     35530.735      119          
    214100   500.78511      2498.6578     -1559.3176     -880.70744      1882.5109      3276.1953     -336.66481      116.64135      0.99669992     35552.41       119          
    214200   492.97151      2640.599      -1545.8598     -777.93232      1910.4703      3318.298      -383.50943      119.13217      0.99646096     35560.936      119          
    214300   505.34979      2579.2844     -1570.8966     -801.73362      1923.4954      3263.249      -349.05474      114.22496      0.99562649     35590.741      119          
    214400   509.96459      2809.9393     -1560.0106     -616.85969      1919.2886      3274.0114     -330.90939      124.41897      0.99426132     35639.608      119          
    214500   514.66849      2589.727      -1540.114      -804.48995      1897.5481      3249.7064     -332.12404      119.20053      0.99204086     35719.379      119          
    214600   503.71153      2620.1773     -1567.5438     -753.89205      1876.044       3294.238      -355.10377      126.43492      0.99196351     35722.165      119          
    214700   501.13956      2669.37       -1566.2862     -635.28227      1886.5085      3200.6563     -333.25203      117.02572      0.99389904     35652.599      119          
    214800   502.7413       2580.5053     -1572.3766     -711.94979      1874.7038      3231.5249     -355.79467      114.39767      0.99221129     35713.244      119          
    214900   496.3904       2783.8222     -1551.5584     -669.11883      1863.9393      3322.6966     -310.79182      128.65544      0.99222295     35712.824      119          
    215000   505.55507      2550.6227     -1560.6052     -905.79053      1909.5793      3326.457      -328.16271      109.14483      0.9925893      35699.643      119          
    215100   499.73665      2642.6476     -1600.1771     -842.3448       1983.6518      3326.0862     -346.47853      121.90998      0.99090576     35760.297      119          
    215200   503.58136      2633.3174     -1598.2477     -746.25955      1869.7113      3361.8508     -376.84333      123.10593      0.99168408     35732.231      119          
    215300   498.81278      2823.9333     -1577.7087     -550.34519      1928.7203      3346.9746     -438.96569      115.25804      0.99173663     35730.337      119          
    215400   488.55577      2777.2563     -1535.2199     -658.36429      1931.5258      3318.5115     -393.96557      114.76873      0.99259884     35699.3        119          
    215500   497.4657       2756.7573     -1606.1774     -639.68643      2001.0503      3247.9883     -367.99654      121.57897      0.99427343     35639.174      119          
    215600   499.33197      2811.376      -1533.5265     -684.50703      1981.3852      3329.1617     -401.98877      120.85153      0.99568828     35588.532      119          
    215700   494.34338      2794.3937     -1535.3927     -791.88121      1959.2009      3393.9667     -358.06896      126.56892      0.9948047      35620.142      119          
    215800   511.4655       2496.5188     -1564.7363     -866.58176      1839.7151      3319.966      -355.06463      123.22045      0.99182382     35727.196      119          
    215900   492.03063      2683.8684     -1558.9179     -687.27781      1927.2516      3224.828      -345.76354      123.7481       0.99051042     35774.57       119          
    216000   493.78859      2633.4442     -1566.1243     -721.19264      1880.1035      3293.0158     -377.93139      125.5732       0.98999492     35793.198      119          
    216100   490.9229       2656.0802     -1569.8946     -799.38304      1929.8896      3337.1748     -369.04006      127.33346      0.99255287     35700.954      119          
    216200   500.26288      2626.7445     -1562.0633     -825.97554      1965.9863      3288.9353     -366.14944      126.01114      0.99496803     35614.294      119          
    216300   499.14872      2533.7975     -1581.7763     -941.25852      1907.464       3429.2935     -398.49279      118.56751      0.99708712     35538.604      119          
    216400   506.36248      2558.8602     -1613.4857     -830.25492      1958.0513      3246.7034     -324.56878      122.41499      0.99918428     35464.013      119          
    216500   498.48021      2751.5418     -1554.9663     -678.40779      1908.3196      3258.22       -301.41151      119.78787      1.0022014      35357.249      119          
    216600   495.69653      2642.632      -1571.2075     -779.72728      1919.0182      3294.3553     -330.21118      110.40452      1.0027155      35339.121      119          
    216700   493.65521      2610.0104     -1572.1171     -811.55419      1945.1528      3213.3696     -281.40076      116.56007      1.001002       35399.612      119          
    216800   505.30065      2553.0788     -1555.8045     -777.30035      1859.8459      3282.6529     -374.30594      117.99065      0.99894358     35472.558      119          
    216900   507.16325      2702.9644     -1575.205      -717.69823      1854.1989      3371.9891     -352.61364      122.29329      0.99630325     35566.565      119          
    217000   502.38429      2821.4844     -1541.4352     -697.52188      1999.0241      3357.185      -419.35977      123.59213      0.99388708     35653.028      119          
    217100   502.40917      2625.8105     -1564.1597     -815.80434      1948.4047      3327.6955     -393.10184      122.77618      0.99031009     35781.807      119          
    217200   493.51593      2611.6828     -1549.439      -752.97236      1834.51        3313.11       -354.6342       121.10832      0.98846056     35848.759      119          
    217300   486.0224       2588.1084     -1541.8117     -843.80579      1914.7391      3271.8898     -330.80904      117.90604      0.98567382     35950.112      119          
    217400   487.6214       2742.1914     -1536.9202     -762.76562      1982.2616      3256.3463     -326.52736      129.79673      0.98286005     36053.031      119          
    217500   513.49285      2574.1589     -1522.0383     -743.78173      1893.1171      3276.7843     -442.0801       112.1577       0.98340582     36033.022      119          
    217600   499.13824      2835.2293     -1538.4962     -578.44716      1954.9611      3247.2787     -367.54634      117.47913      0.98238578     36070.437      119          
    217700   500.88684      2651.2713     -1540.4481     -737.15436      1929.0665      3306.6308     -428.26974      121.44629      0.98267535     36059.808      119          
    217800   499.7849       2687.8697     -1532.2866     -729.51684      1967.5242      3335.3357     -469.48437      116.29753      0.98560476     35952.631      119          
    217900   498.93696      2759.3269     -1547.3647     -687.89706      1940.3317      3274.3965     -340.96024      120.82068      0.98801292     35865.001      119          
    218000   502.84497      2652.9578     -1541.9495     -790.85282      1918.5709      3281.3618     -331.37654      117.20391      0.99049346     35775.182      119          
    218100   505.64139      2673.3987     -1536.6037     -785.92127      1877.9914      3327.2044     -335.97712      126.70496      0.99418305     35642.414      119          
    218200   498.88547      2722.3706     -1576.6789     -748.03215      1935.0284      3409.5163     -408.46591      111.0029       0.99627518     35567.567      119          
    218300   492.63507      2689.3603     -1595.995      -711.95503      1954.656       3241.5655     -318.11167      119.2006       0.99795412     35507.729      119          
    218400   487.93426      2667.2645     -1522.3419     -716.26856      1921.3473      3273.831      -410.62512      121.3218       1.001675       35375.829      119          
    218500   498.14003      2622.1949     -1549.0841     -719.32938      1886.8845      3293.3551     -411.3621       121.73085      1.0038854      35297.936      119          
    218600   509.78927      2575.0634     -1559.2571     -836.22923      1958.4825      3346.0192     -454.99881      121.04679      1.0053614      35246.117      119          
    218700   505.03989      2771.9736     -1574.8854     -672.24748      1872.2066      3389.7294     -363.02313      120.19352      1.0022551      35355.353      119          
    218800   500.90309      2698.7612     -1550.7445     -717.19764      1876.3316      3315.2261     -344.2778       119.42339      0.99654691     35557.869      119          
    218900   485.4162       2651.997      -1552.2048     -820.07795      1896.0652      3343.7803     -329.48436      113.91873      0.99239793     35706.527      119          
    219000   496.09959      2621.4484     -1554.6514     -770.81423      1958.9005      3287.3795     -403.33991      103.97395      0.98953171     35809.953      119          
    219100   513.46492      2632.9436     -1546.3264     -790.31991      1911.3829      3332.2051     -393.29179      119.29373      0.98832213     35853.78       119          
    219200   511.48242      2830.5258     -1545.6587     -712.38897      1956.963       3317.154      -310.20007      124.65658      0.98689265     35905.713      119          
    219300   513.19354      2512.6341     -1555.9898     -892.96388      1924.3575      3282.7594     -364.34258      118.81341      0.98608675     35935.058      119          
    219400   500.7087       2794.1777     -1517.9232     -615.91493      1936.201       3248.6055     -375.86077      119.06999      0.98685494     35907.085      119          
    219500   500.26739      2590.5535     -1539.05       -826.16136      1958.5929      3213.7845     -329.3413       112.72866      0.98748612     35884.134      119          
    219600   499.96859      2704.7312     -1556.1016     -743.70403      1962.7309      3238.4194     -322.27212      125.65869      0.9889799      35829.933      119          
    219700   508.71188      2629.0685     -1553.7849     -766.36022      1907.7014      3290.1586     -363.5525       114.90604      0.99171768     35731.02       119          
    219800   490.68061      2700.4801     -1545.218      -803.39303      1973.6347      3280.8173     -329.50478      124.1439       0.99416233     35643.157      119          
    219900   505.54637      2442.0931     -1540.6605     -843.85874      1839.1955      3182.5225     -312.02642      116.92079      0.99345959     35668.37       119          
    220000   489.23433      2769.023      -1635.6792     -633.4975       2017.3939      3244.8645     -346.47286      122.41426      0.98928397     35818.921      119          
    220100   511.93899      2628.9754     -1602.2346     -634.33851      1861.5056      3184.6291     -299.81212      119.22594      0.98848757     35847.779      119          
    220200   499.97683      2827.4038     -1604.9826     -700.61159      1963.5096      3315.1937     -266.70607      121.00079      0.98854857     35845.567      119          
    220300   505.65766      2697.3892     -1537.6383     -768.0247       2018.6748      3261.5166     -403.83839      126.69928      0.9910879      35753.725      119          
    220400   497.01372      2705.7271     -1543.9935     -717.51082      1879.6129      3278.6482     -310.59379      119.56417      0.99304735     35683.177      119          
    220500   489.51164      2761.6138     -1506.1013     -699.11362      1891.5671      3268.3974     -331.09364      137.95773      0.9944964      35631.184      119          
    220600   492.68062      2688.8731     -1573.1194     -732.44612      1856.6299      3305.3807     -301.17719      133.60515      0.99251146     35702.443      119          
    220700   507.40687      2613.6178     -1563.2336     -698.81284      1888.8794      3192.4202     -324.45112      118.81578      0.99016382     35787.092      119          
    220800   493.3303       2615.9039     -1572.9096     -847.50537      1948.3863      3330.9532     -359.79462      116.77395      0.98804594     35863.802      119          
    220900   512.38135      2594.1249     -1562.5273     -840.70209      1936.3952      3261.3963     -336.34011      135.90284      0.98871505     35839.532      119          
    221000   511.19847      2742.1448     -1521.0708     -772.12113      1967.1293      3324.4523     -377.60922      121.36439      0.98839556     35851.116      119          
    221100   508.18294      2747.5231     -1560.9987     -679.8222       1951.3384      3351.5151     -431.23587      116.72631      0.98618555     35931.457      119          
    221200   498.86817      2587.0776     -1579.5006     -816.64949      1854.5702      3355.4638     -352.11531      125.30909      0.98638714     35924.114      119          
    221300   500.80653      2740.9209     -1532.7227     -630.35721      1856.8253      3359.2833     -427.2799       115.17207      0.98792602     35868.156      119          
    221400   500.92381      2538.6902     -1572.3036     -864.45783      1948.5815      3256.9903     -345.05833      114.93816      0.98938648     35815.21       119          
    221500   495.87762      2535.1501     -1619.4634     -1032.3078      1995.3584      3431.8206     -365.95788      125.70034      0.99366917     35660.847      119          
    221600   505.81412      2744.9854     -1582.1363     -835.04121      2023.2678      3319.7385     -313.10427      132.26089      0.99728718     35531.475      119          
    221700   500.7968       2673.4934     -1560.5669     -843.86653      1972.3892      3336.3407     -344.74258      113.93942      0.9987954      35477.821      119          
    221800   512.19946      2356.1457     -1576.3118     -952.6379       1864.4516      3294.6057     -402.16534      128.20348      1.0008582      35404.701      119          
    221900   499.6688       2511.088      -1590.0007     -868.36757      1929.556       3247.6904     -329.65656      121.86654      0.99989384     35438.846      119          
    222000   494.3107       2552.7842     -1548.5284     -826.67364      1891.8882      3257.9717     -338.74303      116.86926      0.99762958     35519.28       119          
    222100   500.68054      2480.7473     -1604.4003     -901.10739      1909.2758      3290.2424     -335.16613      121.90283      0.99395753     35650.501      119          
    222200   507.68344      2683.6918     -1561.9823     -793.09025      1912.6017      3355.1121     -346.69722      117.74784      0.99209056     35717.59       119          
    222300   507.56266      2686.8845     -1526.5164     -797.12632      1923.2043      3331.8843     -363.85907      119.29761      0.9893806      35815.423      119          
    222400   492.7371       2682.6978     -1530.8289     -852.79324      1920.1331      3360.4039     -335.28573      121.06859      0.98362863     36024.86       119          
    222500   501.27295      2592.0746     -1496.1129     -819.20688      1971.7601      3241.1665     -430.46158      124.92936      0.9770725      36266.586      119          
    222600   497.15431      2590.0287     -1543.5222     -874.71872      2001.029       3281.2052     -396.37047      122.40588      0.97043408     36514.674      119          
    222700   501.2576       2607.2216     -1513.7575     -881.87984      1962.3714      3254.9244     -337.33548      122.89874      0.96598761     36682.752      119          
    222800   507.28427      2688.0783     -1548.9801     -804.33027      1911.4812      3311.3788     -309.62593      128.15451      0.96399351     36758.634      119          
    222900   507.93987      2927.555      -1491.6634     -635.58126      2007.8041      3263.4065     -341.16761      124.75674      0.96402118     36757.578      119          
    223000   508.7217       2872.998      -1539.484      -665.65067      1957.9991      3318.6977     -327.81928      129.25522      0.96226624     36824.615      119          
    223100   497.78098      2665.617      -1528.7467     -794.16919      1936.6505      3231.6231     -305.3634       125.62275      0.96329815     36785.168      119          
    223200   491.18095      2577.203      -1549.5542     -884.95549      1886.345       3330.3465     -330.32966      125.3508       0.96733141     36631.793      119          
    223300   493.28696      233037.63     -377.24361     -764.97487      231123.67      3252.8739     -316.14429      119.44002      0.97453639     36360.966      120          
    223400   504.60389      2878.8072     -1583.3055     -610.25139      1938.0507      3398.4147     -391.82465      127.72342      1.0475538      33826.505      120          
    223500   513.23297      2389.4611     -1585.9356     -818.06766      1929.2478      3136.7578     -397.4508       124.90954      1.046318       33866.457      120          
    223600   500.89583      2401.8175     -1539.5404     -793.45048      1881.1799      3192.9178     -461.49706      122.20769      1.0423437      33995.585      120          
    223700   494.88708      2280.3629     -1590.4158     -896.55816      1872.5473      3137.9302     -350.89594      107.75524      1.0376398      34149.695      120          
    223800   494.2605       2503.1892     -1627.4161     -720.98728      1890.1016      3179.3072     -336.83838      119.02228      1.0343516      34258.258      120          
    223900   498.20104      2589.2151     -1585.1083     -690.63875      1782.3079      3236.6447     -275.36132      121.3708       1.0312691      34360.659      120          
    224000   503.79526      2582.1406     -1584.3542     -706.25765      1921.1087      3185.9114     -354.07521      119.80764      1.028019       34469.288      120          
    224100   502.01191      2699.606      -1581.2982     -611.80628      1958.6507      3174.9461     -359.13667      118.25028      1.0256845      34547.743      120          
    224200   496.96856      2516.5493     -1586.2169     -746.38163      1931.4299      3155.2628     -364.94295      127.3981       1.0217108      34682.107      120          
    224300   501.59095      2438.6065     -1575.2239     -706.7086       1882.8241      3088.1541     -370.2845       119.84532      1.019127       34770.036      120          
    224400   495.75025      2416.3149     -1603.7872     -749.85717      1885.2562      3117.0142     -356.42904      124.11782      1.0163543      34864.893      120          
    224500   507.34987      2440.473      -1603.8414     -746.1402       1890.6138      3136.5046     -347.71949      111.05568      1.0144774      34929.396      120          
    224600   504.42106      2584.3802     -1568.511      -724.3867       1889.2167      3101.1888     -237.45823      124.33061      1.0126322      34993.045      120          
    224700   503.39179      2690.4287     -1555.838      -593.69123      1856.1762      3177.0779     -313.38216      120.08594      1.0088358      35124.73       120          
    224800   497.08134      2535.8195     -1555.8441     -753.55121      1934.1194      3173.672      -371.59243      109.01594      1.0073989      35174.83       120          
    224900   497.7019       2555.5638     -1563.2003     -711.16484      1853.9335      3220.0243     -362.43331      118.40447      1.0054871      35241.708      120          
    225000   500.61903      2566.795      -1526.4494     -704.54741      1838.3048      3191.4339     -340.99955      109.05254      1.002858       35334.098      120          
    225100   508.89566      2512.888      -1569.7922     -681.36291      1881.9444      3249.9026     -470.8851       103.08131      0.99861608     35484.191      120          
    225200   502.95353      2560.1009     -1564.7651     -701.3881       1893.1442      3225.1056     -402.1509       110.15515      0.99738307     35528.059      120          
    225300   501.8886       2535.6594     -1490.7514     -744.76827      1886.3233      3112.3742     -349.32241      121.80395      0.99664698     35554.298      120          
    225400   511.83389      2557.8753     -1546.7892     -742.04512      1955.289       3149.445      -382.46197      124.43767      0.99289069     35688.807      120          
    225500   506.46208      2710.8275     -1542.4146     -692.78348      1925.1658      3222.6321     -320.8638       119.0914       0.99144396     35740.885      120          
    225600   505.29521      2691.7278     -1527.2733     -586.61454      1836.1555      3105.1745     -254.66691      118.95249      0.98986037     35798.063      120          
    225700   493.95732      2573.5704     -1531.2078     -691.20089      1863.7386      3150.0436     -340.77966      122.97655      0.98888535     35833.359      120          
    225800   486.86264      2678.514      -1539.2286     -638.29347      1923.0865      3167.6792     -353.15421      118.42454      0.98678804     35909.519      120          
    225900   493.30819      2598.1207     -1552.6201     -708.16641      1945.9963      3221.8482     -431.30159      122.36429      0.98628912     35927.684      120          
    226000   513.39798      2636.7183     -1553.446      -629.63785      1858.656       3181.308      -337.89645      117.73459      0.98695859     35903.314      120          
    226100   511.08654      2608.5149     -1526.2587     -731.5503       1949.3444      3136.8538     -334.39436      114.52005      0.98835641     35852.536      120          
    226200   497.06231      2483.9001     -1504.6415     -792.39117      1917.966       3143.8875     -402.38143      121.46077      0.98829693     35854.694      120          
    226300   489.91818      2556.7769     -1536.8761     -706.25115      1918.3416      3101.1439     -340.16289      120.5815       0.98725861     35892.403      120          
    226400   497.3156       2570.1341     -1544.4714     -700.14591      1844.597       3170.6461     -319.06545      118.57368      0.9875179      35882.979      120          
    226500   507.22266      2620.3806     -1512.0383     -646.50833      1871.1362      3113.2511     -328.06493      122.60489      0.98733154     35889.752      120          
    226600   508.31841      2611.6358     -1533.4126     -724.02063      1935.6678      3093.8104     -288.85301      128.44384      0.98563079     35951.681      120          
    226700   507.3517       2510.5958     -1536.1321     -790.5002       1870.0183      3206.7226     -358.99352      119.4807       0.98446882     35994.115      120          
    226800   486.07354      2518.6301     -1527.6188     -778.9603       1884.3092      3170.1265     -357.46404      128.23759      0.98291307     36051.086      120          
    226900   490.07055      2487.656      -1516.1458     -752.48595      1857.5675      3151.677      -381.23341      128.27668      0.98381876     36017.898      120          
    227000   500.56978      2480.2657     -1512.6284     -753.31191      1870.9402      3146.3689     -386.25098      115.14789      0.98262163     36061.779      120          
    227100   502.44406      2320.2067     -1490.4087     -987.77248      1938.6496      3128.6        -389.19741      120.33565      0.9825455      36064.573      120          
    227200   505.13794      2604.4949     -1504.5464     -731.77535      1890.1512      3224.5278     -398.86788      125.00549      0.98130672     36110.1        120          
    227300   493.61138      2414.2853     -1495.837      -839.70969      1828.611       3176.4488     -372.10538      116.8775       0.97992082     36161.171      120          
    227400   487.83544      2487.9996     -1513.3954     -738.29782      1848.0073      3151.3891     -377.46201      117.75841      0.97835042     36219.215      120          
    227500   492.59296      2726.1968     -1505.8662     -571.52477      1871.6482      3187.739      -367.86513      112.06569      0.97609453     36302.923      120          
    227600   500.4073       2707.4615     -1548.1563     -641.71653      1913.5769      3279.9412     -413.77767      117.59392      0.97338445     36403.997      120          
    227700   505.98268      2584.772      -1511.8721     -735.38598      1893.113       3186.6694     -375.25766      127.50533      0.97323006     36409.771      120          
    227800   498.66273      2619.6414     -1521.7143     -721.21013      1870.8868      3213.997      -348.2971       125.97919      0.9736594      36393.716      120          
    227900   491.24617      2635.1353     -1486.5957     -687.15403      1835.8437      3144.3926     -302.91914      131.5678       0.97413987     36375.766      120          
    228000   485.17628      2515.0577     -1521.1072     -785.8674       1876.2717      3223.5136     -408.74108      130.98807      0.97363783     36394.523      120          
    228100   491.1947       2560.1593     -1522.7687     -770.36061      1887.3105      3189.0963     -359.77749      136.65922      0.97341149     36402.985      120          
    228200   501.65344      2573.8701     -1508.1829     -819.46489      1956.9516      3202.0835     -383.51221      125.99504      0.97367153     36393.263      120          
    228300   503.62148      2453.9111     -1546.7073     -942.5294       1919.787       3233.3634     -337.79223      127.78956      0.97469431     36355.074      120          
    228400   504.84132      2661.0541     -1520.4306     -650.31769      1911.1097      3160.5282     -370.5244       130.68889      0.97682481     36275.782      120          
    228500   497.20289      2539.749      -1523.3137     -753.219        1907.2621      3205.7699     -417.61032      120.86011      0.97698666     36269.773      120          
    228600   487.9697       2276.2103     -1547.8798     -953.66586      1839.1656      3201.7028     -376.66897      113.55658      0.97642909     36290.484      120          
    228700   495.11119      2398.44       -1558.1805     -796.10002      1926.5925      3094.5462     -385.68539      117.2672       0.97751418     36250.199      120          
    228800   503.95185      2460.7347     -1529.3203     -882.79029      1905.2319      3200.4034     -357.34121      124.55115      0.97965753     36170.889      120          
    228900   505.15464      2344.5932     -1553.5488     -979.58877      1889.8092      3210.399      -341.64171      119.16421      0.98131627     36109.749      120          
    229000   499.01059      2474.9161     -1546.2071     -804.06246      1902.6972      3208.3221     -412.17369      126.34006      0.98397613     36012.138      120          
    229100   496.99209      2459.8102     -1551.8497     -734.94537      1893.3015      3188.9666     -452.65687      116.99406      0.98474722     35983.939      120          
    229200   497.22018      2553.2684     -1555.0051     -651.7459       1880.3285      3222.2702     -450.9162       108.33693      0.98606135     35935.983      120          
    229300   504.87196      2603.4974     -1570.7946     -714.60406      1891.901       3220.4624     -344.0666       120.59917      0.98616998     35932.025      120          
    229400   503.28166      2574.1886     -1560.3875     -810.79066      1963.4842      3257.1749     -394.17635      118.88401      0.98708628     35898.67       120          
    229500   503.41578      2383.7289     -1527.3778     -925.21425      1903.7599      3225.4452     -417.58489      124.70064      0.98797708     35866.302      120          
    229600   491.16988      2496.1606     -1545.638      -829.03263      1898.3128      3153.7699     -302.51287      121.26143      0.98902716     35828.222      120          
    229700   493.3827       2584.486      -1559.1951     -691.13572      1903.0391      3206.9534     -402.84624      127.67054      0.98864769     35841.973      120          
    229800   501.22293      2414.4265     -1567.6653     -821.38992      1882.6703      3211.0394     -406.43075      116.20271      0.98863645     35842.381      120          
    229900   495.76555      2581.1861     -1545.0242     -720.3256       1949.1983      3185.4175     -411.7955       123.71564      0.98823067     35857.098      120          
    230000   498.09825      2484.1827     -1531.801      -785.16766      1875.5793      3144.4936     -337.88154      118.95991      0.98828909     35854.978      120          
    230029   498.58502      2576.7751     -1575.1543     -699.01673      1884.0835      3228.3292     -381.7378       120.2712       0.9882997      35854.594      120          
Loop time of 4106.06 on 6 procs for 200000 steps with 2996 atoms

Performance: 4.208 ns/day, 5.703 hours/ns, 48.708 timesteps/s, 145.930 katom-step/s
97.9% CPU use with 6 MPI tasks x no OpenMP threads

MPI task timing breakdown:
Section |  min time  |  avg time  |  max time  |%varavg| %total
---------------------------------------------------------------
Pair    | 366.86     | 404.51     | 439.73     | 130.0 |  9.85
Bond    | 283.24     | 302.02     | 324.55     |  85.3 |  7.36
Neigh   | 112.99     | 114.14     | 115.84     |   9.5 |  2.78
Comm    | 930.65     | 989.1      | 1031.5     | 122.1 | 24.09
Output  | 33.217     | 33.392     | 33.576     |   1.9 |  0.81
Modify  | 2130.5     | 2146.8     | 2170.6     |  28.8 | 52.28
Other   |            | 116.1      |            |       |  2.83

Nlocal:        499.333 ave         526 max         469 min
Histogram: 1 0 1 0 0 1 1 1 0 1
Nghost:        6173.17 ave        6312 max        6064 min
Histogram: 2 0 1 0 0 0 2 0 0 1
Neighs:         148754 ave      157711 max      139151 min
Histogram: 2 0 0 0 1 0 0 1 1 1

Total # of neighbors = 892523
Ave neighs/atom = 297.90487
Ave special neighs/atom = 10.343124
Neighbor list builds = 9638
Dangerous builds = 0

write_data reaxed.data nocoeff nofix
System init for write_data ...
Generated 36 of 36 mixed pair_coeff terms from sixthpower/geometric mixing rule
unfix reacted
unfix npt
unfix fxrct


thermo_style custom step temp pe evdwl ecoul ebond eangle edihed eimp density vol
fix 		relax all npt temp 600.0 600.0 100 iso 1.0 1.0 1000
run 1000
Generated 36 of 36 mixed pair_coeff terms from sixthpower/geometric mixing rule
Neighbor list info ...
  update: every = 1 steps, delay = 0 steps, check = yes
  max neighbors/atom: 2000, page size: 100000
  master list distance cutoff = 12
  ghost atom cutoff = 12
  binsize = 6, bins = 6 6 6
  1 neighbor lists, perpetual/occasional/extra = 1 0 0
  (1) pair lj/class2/coul/cut, perpetual
      attributes: half, newton on
      pair build: half/bin/newton
      stencil: half/bin/3d
      bin: standard
WARNING: Inconsistent image flags (../domain.cpp:815)
Per MPI rank memory allocation (min/avg/max) = 30.65 | 30.77 | 31.3 Mbytes
   Step          Temp          PotEng         E_vdwl         E_coul         E_bond        E_angle        E_dihed        E_impro        Density         Volume    
    230029   498.58502      2576.7751     -1575.1543     -699.01673      1884.0835      3228.3292     -381.7378       120.2712       0.9882997      35854.594    
    230100   500.78358      2803.9546     -1563.3273     -683.64427      2004.5402      3272.1366     -354.40201      128.65153      0.98928506     35818.881    
    230200   539.94997      2869.284      -1488.1379     -723.81264      1926.2743      3357.3202     -333.74289      131.3829       0.99079736     35764.209    
    230300   554.94325      3070.2198     -1575.1364     -875.12479      2106.5835      3527.628      -251.57751      137.84695      0.98916942     35823.069    
    230400   591.47059      3322.3399     -1492.7891     -725.96354      2181.3839      3580.2724     -362.88469      142.32104      0.99073354     35766.513    
    230500   605.45641      3561.1973     -1475.8295     -696.0771       2266.9482      3592.1706     -269.85104      143.83617      0.98969972     35803.874    
    230600   621.65861      3516.1935     -1517.6172     -705.42143      2263.9446      3535.8043     -199.31671      138.79996      0.98623313     35929.724    
    230700   610.0073       3253.0079     -1480.4977     -948.51932      2216.1454      3513.9521     -182.23171      134.15909      0.98037834     36144.295    
    230800   600.04515      3379.5501     -1481.2593     -768.09094      2245.7143      3470.9643     -231.71356      143.93527      0.97352935     36398.578    
    230900   601.31519      3357.7299     -1503.3343     -740.45289      2210.3668      3487.3274     -235.26157      139.08436      0.96423949     36749.256    
    231000   589.26291      3593.7702     -1485.7073     -689.66393      2264.9732      3544.0503     -180.30896      140.42684      0.95656092     37044.252    
    231029   595.10714      3597.2775     -1474.901      -676.71881      2181.1433      3671.5536     -241.06182      137.26216      0.95479463     37112.781    
Loop time of 4.27428 on 6 procs for 1000 steps with 2996 atoms

Performance: 20.214 ns/day, 1.187 hours/ns, 233.957 timesteps/s, 700.936 katom-step/s
99.0% CPU use with 6 MPI tasks x no OpenMP threads

MPI task timing breakdown:
Section |  min time  |  avg time  |  max time  |%varavg| %total
---------------------------------------------------------------
Pair    | 1.618      | 1.7697     | 1.9712     |   8.3 | 41.40
Bond    | 1.225      | 1.3152     | 1.4681     |   7.1 | 30.77
Neigh   | 0.24418    | 0.24521    | 0.24686    |   0.2 |  5.74
Comm    | 0.45846    | 0.81816    | 1.0402     |  21.2 | 19.14
Output  | 0.0201     | 0.020243   | 0.02094    |   0.2 |  0.47
Modify  | 0.07129    | 0.082157   | 0.088863   |   2.3 |  1.92
Other   |            | 0.02365    |            |       |  0.55

Nlocal:        499.333 ave         520 max         477 min
Histogram: 1 0 1 0 1 1 0 0 1 1
Nghost:           6050 ave        6123 max        5976 min
Histogram: 2 0 1 0 0 0 0 0 2 1
Neighs:         143500 ave      158764 max      130404 min
Histogram: 1 1 0 0 2 0 1 0 0 1

Total # of neighbors = 860998
Ave neighs/atom = 287.38251
Ave special neighs/atom = 10.343124
Neighbor list builds = 55
Dangerous builds = 0
Total wall time: 1:18:26
