LAMMPS (22 Dec 2022)
WARNING: Using I/O redirection is unreliable with parallel runs. Better to use the -in switch to read input files. (../lammps.cpp:531)
# PREREQUISITES:
#
#     You must use moltemplate.sh to create 3 files:
#        system.data  system.in.init  system.in.settings
#     (Follow the instructions in README_setup.sh,
#      or run the file as a script using ./README_setup.sh)

# ------------------------------- Initialization Section --------------------

units real
atom_style full
pair_style lj/class2/coul/cut 10.0
bond_style class2
angle_style class2
dihedral_style class2
improper_style class2


# ------------------------------- Atom Definition Section -------------------

read_data       "pre_mol.data" extra/bond/per/atom 1 extra/angle/per/atom 12 extra/dihedral/per/atom 12 extra/improper/per/atom 12 extra/special/per/atom 12
Reading data file ...
  orthogonal box = (0 0 0) to (20.176428 20.176428 20.176428)
  1 by 2 by 3 MPI processor grid
  reading atoms ...
  74 atoms
  scanning bonds ...
  5 = max bonds/atom
  scanning angles ...
  18 = max angles/atom
  scanning dihedrals ...
  30 = max dihedrals/atom
  scanning impropers ...
  16 = max impropers/atom
  reading bonds ...
  85 bonds
  reading angles ...
  186 angles
  reading dihedrals ...
  345 dihedrals
  reading impropers ...
  120 impropers
Finding 1-2 1-3 1-4 neighbors ...
  special bond factors lj:    0        0        0       
  special bond factors coul:  0        0        0       
     4 = max # of 1-2 neighbors
     9 = max # of 1-3 neighbors
    25 = max # of 1-4 neighbors
    36 = max # of special neighbors
  special bonds CPU = 0.000 seconds
  read_data CPU = 0.009 seconds

include calc.pram

# Masses

mass		1    12.01115  # c
mass		2    12.01115  # c1
mass		3    12.01115  # c3h
mass		4     1.00797  # h
mass		5     1.00797  # hc
mass		6    15.99940  # o3e
mass		7    15.99940  # oc
mass		8    15.99940  # oh

# Potentials

pair_coeff	 1  1    0.05400    4.01000  # c,c
pair_coeff	 2  2    0.05400    4.01000  # c1,c1
pair_coeff	 3  3    0.05400    4.01000  # c3h,c3h
pair_coeff	 4  4    0.02000    2.99500  # h,h
pair_coeff	 5  5    0.02000    2.99500  # hc,hc
pair_coeff	 6  6    0.24000    3.53500  # o3e,o3e
pair_coeff	 7  7    0.24000    3.53500  # oc,oc
pair_coeff	 8  8    0.24000    3.53500  # oh,oh

# Bond Coeffs

bond_coeff	 1    1.53000  299.67000 -501.77000  679.81000  # c,c
bond_coeff	 2    1.53000  299.67000 -501.77000  679.81000  # c,c1
bond_coeff	 3    1.53000  299.67000 -501.77000  679.81000  # c,c3h
bond_coeff	 4    1.10100  345.00000 -691.89000  844.60000  # c,hc
bond_coeff	 5    1.53000  299.67000 -501.77000  679.81000  # c1,c1
bond_coeff	 6    1.53000  299.67000 -501.77000  679.81000  # c1,c3h
bond_coeff	 7    1.10100  345.00000 -691.89000  844.60000  # c1,hc
bond_coeff	 8    1.42000  400.39540 -835.19510 1313.01420  # c1,o3e
bond_coeff	 9    1.42000  400.39540 -835.19510 1313.01420  # c1,oc
bond_coeff	10    1.42000  400.39540 -835.19510 1313.01420  # c1,oh
bond_coeff	11    1.53000  299.67000 -501.77000  679.81000  # c3h,c3h
bond_coeff	12    1.10100  345.00000 -691.89000  844.60000  # c3h,hc
bond_coeff	13    1.42000  400.39540 -835.19510 1313.01420  # c3h,o3e
bond_coeff	14    0.96000  493.84800    0.00000    0.00000  # h,oh

# Angle Coeffs

angle_coeff	 1  112.67000   39.51600   -7.44300   -9.55830  # c,c,c1
angle_coeff	 2  110.77000   41.45300  -10.60400    5.12900  # c,c,hc
angle_coeff	 3  112.67000   39.51600   -7.44300   -9.55830  # c,c1,c
angle_coeff	 4  112.67000   39.51600   -7.44300   -9.55830  # c,c1,c1
angle_coeff	 5  110.77000   41.45300  -10.60400    5.12900  # c,c1,hc
angle_coeff	 6  111.27000   54.53810   -8.36420  -13.08380  # c,c1,o3e
angle_coeff	 7  111.27000   54.53810   -8.36420  -13.08380  # c,c1,oc
angle_coeff	 8  112.67000   39.51600   -7.44300   -9.55830  # c,c3h,c3h
angle_coeff	 9  110.77000   41.45300  -10.60400    5.12900  # c,c3h,hc
angle_coeff	10  111.27000   54.53810   -8.36420  -13.08380  # c,c3h,o3e
angle_coeff	11  112.67000   39.51600   -7.44300   -9.55830  # c1,c,c1
angle_coeff	12  112.67000   39.51600   -7.44300   -9.55830  # c1,c,c3h
angle_coeff	13  110.77000   41.45300  -10.60400    5.12900  # c1,c,hc
angle_coeff	14  112.67000   39.51600   -7.44300   -9.55830  # c1,c1,c1
angle_coeff	15  112.67000   39.51600   -7.44300   -9.55830  # c1,c1,c3h
angle_coeff	16  110.77000   41.45300  -10.60400    5.12900  # c1,c1,hc
angle_coeff	17  111.27000   54.53810   -8.36420  -13.08380  # c1,c1,o3e
angle_coeff	18  111.27000   54.53810   -8.36420  -13.08380  # c1,c1,oc
angle_coeff	19  111.27000   54.53810   -8.36420  -13.08380  # c1,c1,oh
angle_coeff	20  112.67000   39.51600   -7.44300   -9.55830  # c1,c3h,c3h
angle_coeff	21  110.77000   41.45300  -10.60400    5.12900  # c1,c3h,hc
angle_coeff	22  111.27000   54.53810   -8.36420  -13.08380  # c1,c3h,o3e
angle_coeff	23  104.50000   35.74540  -10.00670   -6.27290  # c1,o3e,c1
angle_coeff	24  104.50000   35.74540  -10.00670   -6.27290  # c1,oc,c1
angle_coeff	25  109.00000   58.50000    0.00000    0.00000  # c1,oh,h
angle_coeff	26  110.77000   41.45300  -10.60400    5.12900  # c3h,c,hc
angle_coeff	27  110.77000   41.45300  -10.60400    5.12900  # c3h,c1,hc
angle_coeff	28  110.77000   41.45300  -10.60400    5.12900  # c3h,c3h,hc
angle_coeff	29  111.27000   54.53810   -8.36420  -13.08380  # c3h,c3h,o3e
angle_coeff	30  104.50000   35.74540  -10.00670   -6.27290  # c3h,o3e,c3h
angle_coeff	31  107.66000   39.64100  -12.92100   -2.43180  # hc,c,hc
angle_coeff	32  108.72800   58.54460  -10.80880  -12.40060  # hc,c1,o3e
angle_coeff	33  108.72800   58.54460  -10.80880  -12.40060  # hc,c1,oc
angle_coeff	34  108.72800   58.54460  -10.80880  -12.40060  # hc,c1,oh
angle_coeff	35  108.72800   58.54460  -10.80880  -12.40060  # hc,c3h,o3e

# BondBond Coeffs

angle_coeff	 1 bb    0.00000    1.53000    1.53000  # c,c,c1
angle_coeff	 2 bb    3.38720    1.53000    1.10100  # c,c,hc
angle_coeff	 3 bb    0.00000    1.53000    1.53000  # c,c1,c
angle_coeff	 4 bb    0.00000    1.53000    1.53000  # c,c1,c1
angle_coeff	 5 bb    3.38720    1.53000    1.10100  # c,c1,hc
angle_coeff	 6 bb   11.43180    1.53000    1.42000  # c,c1,o3e
angle_coeff	 7 bb   11.43180    1.53000    1.42000  # c,c1,oc
angle_coeff	 8 bb    0.00000    1.53000    1.53000  # c,c3h,c3h
angle_coeff	 9 bb    3.38720    1.53000    1.10100  # c,c3h,hc
angle_coeff	10 bb   11.43180    1.53000    1.42000  # c,c3h,o3e
angle_coeff	11 bb    0.00000    1.53000    1.53000  # c1,c,c1
angle_coeff	12 bb    0.00000    1.53000    1.53000  # c1,c,c3h
angle_coeff	13 bb    3.38720    1.53000    1.10100  # c1,c,hc
angle_coeff	14 bb    0.00000    1.53000    1.53000  # c1,c1,c1
angle_coeff	15 bb    0.00000    1.53000    1.53000  # c1,c1,c3h
angle_coeff	16 bb    3.38720    1.53000    1.10100  # c1,c1,hc
angle_coeff	17 bb   11.43180    1.53000    1.42000  # c1,c1,o3e
angle_coeff	18 bb   11.43180    1.53000    1.42000  # c1,c1,oc
angle_coeff	19 bb   11.43180    1.53000    1.42000  # c1,c1,oh
angle_coeff	20 bb    0.00000    1.53000    1.53000  # c1,c3h,c3h
angle_coeff	21 bb    3.38720    1.53000    1.10100  # c1,c3h,hc
angle_coeff	22 bb   11.43180    1.53000    1.42000  # c1,c3h,o3e
angle_coeff	23 bb   -7.11310    1.42000    1.42000  # c1,o3e,c1
angle_coeff	24 bb   -7.11310    1.42000    1.42000  # c1,oc,c1
angle_coeff	25 bb    0.00000    1.42000    0.96000  # c1,oh,h
angle_coeff	26 bb    3.38720    1.53000    1.10100  # c3h,c,hc
angle_coeff	27 bb    3.38720    1.53000    1.10100  # c3h,c1,hc
angle_coeff	28 bb    3.38720    1.53000    1.10100  # c3h,c3h,hc
angle_coeff	29 bb   11.43180    1.53000    1.42000  # c3h,c3h,o3e
angle_coeff	30 bb   -7.11310    1.42000    1.42000  # c3h,o3e,c3h
angle_coeff	31 bb    5.33160    1.10100    1.10100  # hc,c,hc
angle_coeff	32 bb   23.19790    1.10100    1.42000  # hc,c1,o3e
angle_coeff	33 bb   23.19790    1.10100    1.42000  # hc,c1,oc
angle_coeff	34 bb   23.19790    1.10100    1.42000  # hc,c1,oh
angle_coeff	35 bb   23.19790    1.10100    1.42000  # hc,c3h,o3e

# BondAngle Coeffs

angle_coeff	 1 ba    8.01600    8.01600    1.53000    1.53000  # c,c,c1
angle_coeff	 2 ba   11.42100   20.75400    1.53000    1.10100  # c,c,hc
angle_coeff	 3 ba    8.01600    8.01600    1.53000    1.53000  # c,c1,c
angle_coeff	 4 ba    8.01600    8.01600    1.53000    1.53000  # c,c1,c1
angle_coeff	 5 ba   11.42100   20.75400    1.53000    1.10100  # c,c1,hc
angle_coeff	 6 ba    2.68680   20.40330    1.53000    1.42000  # c,c1,o3e
angle_coeff	 7 ba   20.40330    2.68680    1.53000    1.42000  # c,c1,oc
angle_coeff	 8 ba    8.01600    8.01600    1.53000    1.53000  # c,c3h,c3h
angle_coeff	 9 ba   11.42100   20.75400    1.53000    1.10100  # c,c3h,hc
angle_coeff	10 ba    2.68680   20.40330    1.53000    1.42000  # c,c3h,o3e
angle_coeff	11 ba    8.01600    8.01600    1.53000    1.53000  # c1,c,c1
angle_coeff	12 ba    8.01600    8.01600    1.53000    1.53000  # c1,c,c3h
angle_coeff	13 ba   20.75400   11.42100    1.53000    1.10100  # c1,c,hc
angle_coeff	14 ba    8.01600    8.01600    1.53000    1.53000  # c1,c1,c1
angle_coeff	15 ba    8.01600    8.01600    1.53000    1.53000  # c1,c1,c3h
angle_coeff	16 ba   20.75400   11.42100    1.53000    1.10100  # c1,c1,hc
angle_coeff	17 ba    2.68680   20.40330    1.53000    1.42000  # c1,c1,o3e
angle_coeff	18 ba    2.68680   20.40330    1.53000    1.42000  # c1,c1,oc
angle_coeff	19 ba   20.40330    2.68680    1.53000    1.42000  # c1,c1,oh
angle_coeff	20 ba    8.01600    8.01600    1.53000    1.53000  # c1,c3h,c3h
angle_coeff	21 ba   20.75400   11.42100    1.53000    1.10100  # c1,c3h,hc
angle_coeff	22 ba    2.68680   20.40330    1.53000    1.42000  # c1,c3h,o3e
angle_coeff	23 ba   -2.81120   -2.81120    1.42000    1.42000  # c1,o3e,c1
angle_coeff	24 ba   -2.81120   -2.81120    1.42000    1.42000  # c1,oc,c1
angle_coeff	25 ba    0.00000    0.00000    1.42000    0.96000  # c1,oh,h
angle_coeff	26 ba   11.42100   20.75400    1.53000    1.10100  # c3h,c,hc
angle_coeff	27 ba   11.42100   20.75400    1.53000    1.10100  # c3h,c1,hc
angle_coeff	28 ba   11.42100   20.75400    1.53000    1.10100  # c3h,c3h,hc
angle_coeff	29 ba   20.40330    2.68680    1.53000    1.42000  # c3h,c3h,o3e
angle_coeff	30 ba   -2.81120   -2.81120    1.42000    1.42000  # c3h,o3e,c3h
angle_coeff	31 ba   18.10300   18.10300    1.10100    1.10100  # hc,c,hc
angle_coeff	32 ba    4.61890   55.32700    1.10100    1.42000  # hc,c1,o3e
angle_coeff	33 ba    4.61890   55.32700    1.10100    1.42000  # hc,c1,oc
angle_coeff	34 ba   55.32700    4.61890    1.10100    1.42000  # hc,c1,oh
angle_coeff	35 ba    4.61890   55.32700    1.10100    1.42000  # hc,c3h,o3e

# Dihedral Coeffs

dihedral_coeff	 1    0.00000    0.00000    0.05140    0.00000   -0.14300    0.00000  # c,c,c1,c1
dihedral_coeff	 2    0.00000    0.00000    0.03160    0.00000   -0.16810    0.00000  # c,c,c1,hc
dihedral_coeff	 3    0.71370    0.00000    0.26600    0.00000   -0.25450    0.00000  # c,c,c1,oc
dihedral_coeff	 4    0.00000    0.00000    0.05140    0.00000   -0.14300    0.00000  # c,c1,c,c1
dihedral_coeff	 5    0.00000    0.00000    0.03160    0.00000   -0.16810    0.00000  # c,c1,c,hc
dihedral_coeff	 6    0.00000    0.00000    0.05140    0.00000   -0.14300    0.00000  # c,c1,c1,c
dihedral_coeff	 7    0.00000    0.00000    0.05140    0.00000   -0.14300    0.00000  # c,c1,c1,c1
dihedral_coeff	 8    0.00000    0.00000    0.05140    0.00000   -0.14300    0.00000  # c,c1,c1,c3h
dihedral_coeff	 9    0.00000    0.00000    0.03160    0.00000   -0.16810    0.00000  # c,c1,c1,hc
dihedral_coeff	10    0.71370    0.00000    0.26600    0.00000   -0.25450    0.00000  # c,c1,c1,o3e
dihedral_coeff	11    0.71370    0.00000    0.26600    0.00000   -0.25450    0.00000  # c,c1,c1,oc
dihedral_coeff	12    0.71370    0.00000    0.26600    0.00000   -0.25450    0.00000  # c,c1,c1,oh
dihedral_coeff	13   -0.52030    0.00000   -0.30280    0.00000   -0.34500    0.00000  # c,c1,o3e,c1
dihedral_coeff	14   -0.52030    0.00000   -0.30280    0.00000   -0.34500    0.00000  # c,c1,oc,c1
dihedral_coeff	15    0.00000    0.00000    0.05140    0.00000   -0.14300    0.00000  # c,c3h,c3h,c1
dihedral_coeff	16    0.00000    0.00000    0.03160    0.00000   -0.16810    0.00000  # c,c3h,c3h,hc
dihedral_coeff	17    0.71370    0.00000    0.26600    0.00000   -0.25450    0.00000  # c,c3h,c3h,o3e
dihedral_coeff	18   -0.52030    0.00000   -0.30280    0.00000   -0.34500    0.00000  # c,c3h,o3e,c3h
dihedral_coeff	19    0.00000    0.00000    0.05140    0.00000   -0.14300    0.00000  # c1,c,c,c1
dihedral_coeff	20    0.00000    0.00000    0.03160    0.00000   -0.16810    0.00000  # c1,c,c,hc
dihedral_coeff	21    0.00000    0.00000    0.05140    0.00000   -0.14300    0.00000  # c1,c,c1,c1
dihedral_coeff	22    0.00000    0.00000    0.03160    0.00000   -0.16810    0.00000  # c1,c,c1,hc
dihedral_coeff	23    0.71370    0.00000    0.26600    0.00000   -0.25450    0.00000  # c1,c,c1,o3e
dihedral_coeff	24    0.71370    0.00000    0.26600    0.00000   -0.25450    0.00000  # c1,c,c1,oc
dihedral_coeff	25    0.00000    0.00000    0.05140    0.00000   -0.14300    0.00000  # c1,c,c3h,c3h
dihedral_coeff	26    0.00000    0.00000    0.03160    0.00000   -0.16810    0.00000  # c1,c,c3h,hc
dihedral_coeff	27    0.71370    0.00000    0.26600    0.00000   -0.25450    0.00000  # c1,c,c3h,o3e
dihedral_coeff	28    0.00000    0.00000    0.05140    0.00000   -0.14300    0.00000  # c1,c1,c,c3h
dihedral_coeff	29    0.00000    0.00000    0.03160    0.00000   -0.16810    0.00000  # c1,c1,c,hc
dihedral_coeff	30    0.00000    0.00000    0.05140    0.00000   -0.14300    0.00000  # c1,c1,c1,c1
dihedral_coeff	31    0.00000    0.00000    0.05140    0.00000   -0.14300    0.00000  # c1,c1,c1,c3h
dihedral_coeff	32    0.00000    0.00000    0.03160    0.00000   -0.16810    0.00000  # c1,c1,c1,hc
dihedral_coeff	33    0.71370    0.00000    0.26600    0.00000   -0.25450    0.00000  # c1,c1,c1,o3e
dihedral_coeff	34    0.71370    0.00000    0.26600    0.00000   -0.25450    0.00000  # c1,c1,c1,oc
dihedral_coeff	35    0.71370    0.00000    0.26600    0.00000   -0.25450    0.00000  # c1,c1,c1,oh
dihedral_coeff	36    0.00000    0.00000    0.05140    0.00000   -0.14300    0.00000  # c1,c1,c3h,c3h
dihedral_coeff	37    0.00000    0.00000    0.03160    0.00000   -0.16810    0.00000  # c1,c1,c3h,hc
dihedral_coeff	38    0.71370    0.00000    0.26600    0.00000   -0.25450    0.00000  # c1,c1,c3h,o3e
dihedral_coeff	39   -0.52030    0.00000   -0.30280    0.00000   -0.34500    0.00000  # c1,c1,o3e,c1
dihedral_coeff	40   -0.52030    0.00000   -0.30280    0.00000   -0.34500    0.00000  # c1,c1,oc,c1
dihedral_coeff	41    0.00000    0.00000    0.00000    0.00000    0.13000  180.00000  # c1,c1,oh,h
dihedral_coeff	42    0.00000    0.00000    0.03160    0.00000   -0.16810    0.00000  # c1,c3h,c3h,hc
dihedral_coeff	43    0.71370    0.00000    0.26600    0.00000   -0.25450    0.00000  # c1,c3h,c3h,o3e
dihedral_coeff	44   -0.52030    0.00000   -0.30280    0.00000   -0.34500    0.00000  # c1,c3h,o3e,c3h
dihedral_coeff	45    0.53020    0.00000    0.00000    0.00000   -0.39660    0.00000  # c1,o3e,c1,hc
dihedral_coeff	46    0.53020    0.00000    0.00000    0.00000   -0.39660    0.00000  # c1,oc,c1,hc
dihedral_coeff	47    0.00000    0.00000    0.03160    0.00000   -0.16810    0.00000  # c3h,c,c1,hc
dihedral_coeff	48    0.00000    0.00000    0.03160    0.00000   -0.16810    0.00000  # c3h,c1,c1,hc
dihedral_coeff	49    0.00000    0.00000    0.03160    0.00000   -0.16810    0.00000  # c3h,c3h,c,hc
dihedral_coeff	50    0.00000    0.00000    0.03160    0.00000   -0.16810    0.00000  # c3h,c3h,c1,hc
dihedral_coeff	51    0.53020    0.00000    0.00000    0.00000   -0.39660    0.00000  # c3h,o3e,c3h,hc
dihedral_coeff	52    0.00000    0.00000    0.00000    0.00000    0.13000  180.00000  # h,oh,c1,hc
dihedral_coeff	53   -0.14320    0.00000    0.06170    0.00000   -0.10830    0.00000  # hc,c,c,hc
dihedral_coeff	54   -0.14320    0.00000    0.06170    0.00000   -0.10830    0.00000  # hc,c,c1,hc
dihedral_coeff	55   -0.14350    0.00000    0.25300    0.00000   -0.09050    0.00000  # hc,c,c1,o3e
dihedral_coeff	56   -0.14350    0.00000    0.25300    0.00000   -0.09050    0.00000  # hc,c,c1,oc
dihedral_coeff	57   -0.14320    0.00000    0.06170    0.00000   -0.10830    0.00000  # hc,c,c3h,hc
dihedral_coeff	58   -0.14350    0.00000    0.25300    0.00000   -0.09050    0.00000  # hc,c,c3h,o3e
dihedral_coeff	59   -0.14320    0.00000    0.06170    0.00000   -0.10830    0.00000  # hc,c1,c1,hc
dihedral_coeff	60   -0.14350    0.00000    0.25300    0.00000   -0.09050    0.00000  # hc,c1,c1,o3e
dihedral_coeff	61   -0.14350    0.00000    0.25300    0.00000   -0.09050    0.00000  # hc,c1,c1,oc
dihedral_coeff	62   -0.14350    0.00000    0.25300    0.00000   -0.09050    0.00000  # hc,c1,c1,oh
dihedral_coeff	63   -0.14320    0.00000    0.06170    0.00000   -0.10830    0.00000  # hc,c1,c3h,hc
dihedral_coeff	64   -0.14350    0.00000    0.25300    0.00000   -0.09050    0.00000  # hc,c1,c3h,o3e
dihedral_coeff	65   -0.14320    0.00000    0.06170    0.00000   -0.10830    0.00000  # hc,c3h,c3h,hc
dihedral_coeff	66   -0.14350    0.00000    0.25300    0.00000   -0.09050    0.00000  # hc,c3h,c3h,o3e
dihedral_coeff	67   -0.18200    0.00000   -0.10840    0.00000   -0.70470    0.00000  # oc,c1,c1,oc
dihedral_coeff	68   -0.18200    0.00000   -0.10840    0.00000   -0.70470    0.00000  # oc,c1,c1,oh

# MiddleBondTorsion Coeffs

dihedral_coeff	 1 mbt  -17.78700   -7.18770    0.00000    1.53000  # c,c,c1,c1
dihedral_coeff	 2 mbt  -14.87900   -3.65810   -0.31380    1.53000  # c,c,c1,hc
dihedral_coeff	 3 mbt  -21.88420   -7.67640   -0.68680    1.53000  # c,c,c1,oc
dihedral_coeff	 4 mbt  -17.78700   -7.18770    0.00000    1.53000  # c,c1,c,c1
dihedral_coeff	 5 mbt  -14.87900   -3.65810   -0.31380    1.53000  # c,c1,c,hc
dihedral_coeff	 6 mbt  -17.78700   -7.18770    0.00000    1.53000  # c,c1,c1,c
dihedral_coeff	 7 mbt  -17.78700   -7.18770    0.00000    1.53000  # c,c1,c1,c1
dihedral_coeff	 8 mbt  -17.78700   -7.18770    0.00000    1.53000  # c,c1,c1,c3h
dihedral_coeff	 9 mbt  -14.87900   -3.65810   -0.31380    1.53000  # c,c1,c1,hc
dihedral_coeff	10 mbt  -21.88420   -7.67640   -0.68680    1.53000  # c,c1,c1,o3e
dihedral_coeff	11 mbt  -21.88420   -7.67640   -0.68680    1.53000  # c,c1,c1,oc
dihedral_coeff	12 mbt  -21.88420   -7.67640   -0.68680    1.53000  # c,c1,c1,oh
dihedral_coeff	13 mbt   -5.92880   -2.70070   -0.31750    1.42000  # c,c1,o3e,c1
dihedral_coeff	14 mbt   -5.92880   -2.70070   -0.31750    1.42000  # c,c1,oc,c1
dihedral_coeff	15 mbt  -17.78700   -7.18770    0.00000    1.53000  # c,c3h,c3h,c1
dihedral_coeff	16 mbt  -14.87900   -3.65810   -0.31380    1.53000  # c,c3h,c3h,hc
dihedral_coeff	17 mbt  -21.88420   -7.67640   -0.68680    1.53000  # c,c3h,c3h,o3e
dihedral_coeff	18 mbt   -5.92880   -2.70070   -0.31750    1.42000  # c,c3h,o3e,c3h
dihedral_coeff	19 mbt  -17.78700   -7.18770    0.00000    1.53000  # c1,c,c,c1
dihedral_coeff	20 mbt  -14.87900   -3.65810   -0.31380    1.53000  # c1,c,c,hc
dihedral_coeff	21 mbt  -17.78700   -7.18770    0.00000    1.53000  # c1,c,c1,c1
dihedral_coeff	22 mbt  -14.87900   -3.65810   -0.31380    1.53000  # c1,c,c1,hc
dihedral_coeff	23 mbt  -21.88420   -7.67640   -0.68680    1.53000  # c1,c,c1,o3e
dihedral_coeff	24 mbt  -21.88420   -7.67640   -0.68680    1.53000  # c1,c,c1,oc
dihedral_coeff	25 mbt  -17.78700   -7.18770    0.00000    1.53000  # c1,c,c3h,c3h
dihedral_coeff	26 mbt  -14.87900   -3.65810   -0.31380    1.53000  # c1,c,c3h,hc
dihedral_coeff	27 mbt  -21.88420   -7.67640   -0.68680    1.53000  # c1,c,c3h,o3e
dihedral_coeff	28 mbt  -17.78700   -7.18770    0.00000    1.53000  # c1,c1,c,c3h
dihedral_coeff	29 mbt  -14.87900   -3.65810   -0.31380    1.53000  # c1,c1,c,hc
dihedral_coeff	30 mbt  -17.78700   -7.18770    0.00000    1.53000  # c1,c1,c1,c1
dihedral_coeff	31 mbt  -17.78700   -7.18770    0.00000    1.53000  # c1,c1,c1,c3h
dihedral_coeff	32 mbt  -14.87900   -3.65810   -0.31380    1.53000  # c1,c1,c1,hc
dihedral_coeff	33 mbt  -21.88420   -7.67640   -0.68680    1.53000  # c1,c1,c1,o3e
dihedral_coeff	34 mbt  -21.88420   -7.67640   -0.68680    1.53000  # c1,c1,c1,oc
dihedral_coeff	35 mbt  -21.88420   -7.67640   -0.68680    1.53000  # c1,c1,c1,oh
dihedral_coeff	36 mbt  -17.78700   -7.18770    0.00000    1.53000  # c1,c1,c3h,c3h
dihedral_coeff	37 mbt  -14.87900   -3.65810   -0.31380    1.53000  # c1,c1,c3h,hc
dihedral_coeff	38 mbt  -21.88420   -7.67640   -0.68680    1.53000  # c1,c1,c3h,o3e
dihedral_coeff	39 mbt   -5.92880   -2.70070   -0.31750    1.42000  # c1,c1,o3e,c1
dihedral_coeff	40 mbt   -5.92880   -2.70070   -0.31750    1.42000  # c1,c1,oc,c1
dihedral_coeff	41 mbt    0.00000    0.00000    0.00000    1.42000  # c1,c1,oh,h
dihedral_coeff	42 mbt  -14.87900   -3.65810   -0.31380    1.53000  # c1,c3h,c3h,hc
dihedral_coeff	43 mbt  -21.88420   -7.67640   -0.68680    1.53000  # c1,c3h,c3h,o3e
dihedral_coeff	44 mbt   -5.92880   -2.70070   -0.31750    1.42000  # c1,c3h,o3e,c3h
dihedral_coeff	45 mbt   -6.80070   -4.65460   -1.41010    1.42000  # c1,o3e,c1,hc
dihedral_coeff	46 mbt   -6.80070   -4.65460   -1.41010    1.42000  # c1,oc,c1,hc
dihedral_coeff	47 mbt  -14.87900   -3.65810   -0.31380    1.53000  # c3h,c,c1,hc
dihedral_coeff	48 mbt  -14.87900   -3.65810   -0.31380    1.53000  # c3h,c1,c1,hc
dihedral_coeff	49 mbt  -14.87900   -3.65810   -0.31380    1.53000  # c3h,c3h,c,hc
dihedral_coeff	50 mbt  -14.87900   -3.65810   -0.31380    1.53000  # c3h,c3h,c1,hc
dihedral_coeff	51 mbt   -6.80070   -4.65460   -1.41010    1.42000  # c3h,o3e,c3h,hc
dihedral_coeff	52 mbt    0.00000    0.00000    0.00000    1.42000  # h,oh,c1,hc
dihedral_coeff	53 mbt  -14.26100   -0.53220   -0.48640    1.53000  # hc,c,c,hc
dihedral_coeff	54 mbt  -14.26100   -0.53220   -0.48640    1.53000  # hc,c,c1,hc
dihedral_coeff	55 mbt  -16.79750   -1.22960   -0.27500    1.53000  # hc,c,c1,o3e
dihedral_coeff	56 mbt  -16.79750   -1.22960   -0.27500    1.53000  # hc,c,c1,oc
dihedral_coeff	57 mbt  -14.26100   -0.53220   -0.48640    1.53000  # hc,c,c3h,hc
dihedral_coeff	58 mbt  -16.79750   -1.22960   -0.27500    1.53000  # hc,c,c3h,o3e
dihedral_coeff	59 mbt  -14.26100   -0.53220   -0.48640    1.53000  # hc,c1,c1,hc
dihedral_coeff	60 mbt  -16.79750   -1.22960   -0.27500    1.53000  # hc,c1,c1,o3e
dihedral_coeff	61 mbt  -16.79750   -1.22960   -0.27500    1.53000  # hc,c1,c1,oc
dihedral_coeff	62 mbt  -16.79750   -1.22960   -0.27500    1.53000  # hc,c1,c1,oh
dihedral_coeff	63 mbt  -14.26100   -0.53220   -0.48640    1.53000  # hc,c1,c3h,hc
dihedral_coeff	64 mbt  -16.79750   -1.22960   -0.27500    1.53000  # hc,c1,c3h,o3e
dihedral_coeff	65 mbt  -14.26100   -0.53220   -0.48640    1.53000  # hc,c3h,c3h,hc
dihedral_coeff	66 mbt  -16.79750   -1.22960   -0.27500    1.53000  # hc,c3h,c3h,o3e
dihedral_coeff	67 mbt  -17.25850   -3.61570   -0.83640    1.53000  # oc,c1,c1,oc
dihedral_coeff	68 mbt  -17.25850   -3.61570   -0.83640    1.53000  # oc,c1,c1,oh

# EndBondTorsion Coeffs

dihedral_coeff	 1 ebt   -0.07320    0.00000    0.00000   -0.07320    0.00000    0.00000    1.53000    1.53000  # c,c,c1,c1
dihedral_coeff	 2 ebt    0.08140    0.05910    0.22190    0.24860    0.24220   -0.09250    1.53000    1.10100  # c,c,c1,hc
dihedral_coeff	 3 ebt    1.15380    0.84090   -0.91380   -0.31900    0.44110   -0.71740    1.53000    1.42000  # c,c,c1,oc
dihedral_coeff	 4 ebt   -0.07320    0.00000    0.00000   -0.07320    0.00000    0.00000    1.53000    1.53000  # c,c1,c,c1
dihedral_coeff	 5 ebt    0.08140    0.05910    0.22190    0.24860    0.24220   -0.09250    1.53000    1.10100  # c,c1,c,hc
dihedral_coeff	 6 ebt   -0.07320    0.00000    0.00000   -0.07320    0.00000    0.00000    1.53000    1.53000  # c,c1,c1,c
dihedral_coeff	 7 ebt   -0.07320    0.00000    0.00000   -0.07320    0.00000    0.00000    1.53000    1.53000  # c,c1,c1,c1
dihedral_coeff	 8 ebt   -0.07320    0.00000    0.00000   -0.07320    0.00000    0.00000    1.53000    1.53000  # c,c1,c1,c3h
dihedral_coeff	 9 ebt    0.08140    0.05910    0.22190    0.24860    0.24220   -0.09250    1.53000    1.10100  # c,c1,c1,hc
dihedral_coeff	10 ebt   -0.31900    0.44110   -0.71740    1.15380    0.84090   -0.91380    1.53000    1.42000  # c,c1,c1,o3e
dihedral_coeff	11 ebt    1.15380    0.84090   -0.91380   -0.31900    0.44110   -0.71740    1.53000    1.42000  # c,c1,c1,oc
dihedral_coeff	12 ebt    1.15380    0.84090   -0.91380   -0.31900    0.44110   -0.71740    1.53000    1.42000  # c,c1,c1,oh
dihedral_coeff	13 ebt    0.47410    1.26350    0.55760   -0.24560    1.05170   -0.77950    1.53000    1.42000  # c,c1,o3e,c1
dihedral_coeff	14 ebt    0.47410    1.26350    0.55760   -0.24560    1.05170   -0.77950    1.53000    1.42000  # c,c1,oc,c1
dihedral_coeff	15 ebt   -0.07320    0.00000    0.00000   -0.07320    0.00000    0.00000    1.53000    1.53000  # c,c3h,c3h,c1
dihedral_coeff	16 ebt    0.08140    0.05910    0.22190    0.24860    0.24220   -0.09250    1.53000    1.10100  # c,c3h,c3h,hc
dihedral_coeff	17 ebt   -0.31900    0.44110   -0.71740    1.15380    0.84090   -0.91380    1.53000    1.42000  # c,c3h,c3h,o3e
dihedral_coeff	18 ebt   -0.24560    1.05170   -0.77950    0.47410    1.26350    0.55760    1.53000    1.42000  # c,c3h,o3e,c3h
dihedral_coeff	19 ebt   -0.07320    0.00000    0.00000   -0.07320    0.00000    0.00000    1.53000    1.53000  # c1,c,c,c1
dihedral_coeff	20 ebt    0.24860    0.24220   -0.09250    0.08140    0.05910    0.22190    1.53000    1.10100  # c1,c,c,hc
dihedral_coeff	21 ebt   -0.07320    0.00000    0.00000   -0.07320    0.00000    0.00000    1.53000    1.53000  # c1,c,c1,c1
dihedral_coeff	22 ebt    0.24860    0.24220   -0.09250    0.08140    0.05910    0.22190    1.53000    1.10100  # c1,c,c1,hc
dihedral_coeff	23 ebt   -0.31900    0.44110   -0.71740    1.15380    0.84090   -0.91380    1.53000    1.42000  # c1,c,c1,o3e
dihedral_coeff	24 ebt   -0.31900    0.44110   -0.71740    1.15380    0.84090   -0.91380    1.53000    1.42000  # c1,c,c1,oc
dihedral_coeff	25 ebt   -0.07320    0.00000    0.00000   -0.07320    0.00000    0.00000    1.53000    1.53000  # c1,c,c3h,c3h
dihedral_coeff	26 ebt    0.24860    0.24220   -0.09250    0.08140    0.05910    0.22190    1.53000    1.10100  # c1,c,c3h,hc
dihedral_coeff	27 ebt   -0.31900    0.44110   -0.71740    1.15380    0.84090   -0.91380    1.53000    1.42000  # c1,c,c3h,o3e
dihedral_coeff	28 ebt   -0.07320    0.00000    0.00000   -0.07320    0.00000    0.00000    1.53000    1.53000  # c1,c1,c,c3h
dihedral_coeff	29 ebt    0.24860    0.24220   -0.09250    0.08140    0.05910    0.22190    1.53000    1.10100  # c1,c1,c,hc
dihedral_coeff	30 ebt   -0.07320    0.00000    0.00000   -0.07320    0.00000    0.00000    1.53000    1.53000  # c1,c1,c1,c1
dihedral_coeff	31 ebt   -0.07320    0.00000    0.00000   -0.07320    0.00000    0.00000    1.53000    1.53000  # c1,c1,c1,c3h
dihedral_coeff	32 ebt    0.24860    0.24220   -0.09250    0.08140    0.05910    0.22190    1.53000    1.10100  # c1,c1,c1,hc
dihedral_coeff	33 ebt   -0.31900    0.44110   -0.71740    1.15380    0.84090   -0.91380    1.53000    1.42000  # c1,c1,c1,o3e
dihedral_coeff	34 ebt   -0.31900    0.44110   -0.71740    1.15380    0.84090   -0.91380    1.53000    1.42000  # c1,c1,c1,oc
dihedral_coeff	35 ebt    1.15380    0.84090   -0.91380   -0.31900    0.44110   -0.71740    1.53000    1.42000  # c1,c1,c1,oh
dihedral_coeff	36 ebt   -0.07320    0.00000    0.00000   -0.07320    0.00000    0.00000    1.53000    1.53000  # c1,c1,c3h,c3h
dihedral_coeff	37 ebt    0.24860    0.24220   -0.09250    0.08140    0.05910    0.22190    1.53000    1.10100  # c1,c1,c3h,hc
dihedral_coeff	38 ebt   -0.31900    0.44110   -0.71740    1.15380    0.84090   -0.91380    1.53000    1.42000  # c1,c1,c3h,o3e
dihedral_coeff	39 ebt   -0.24560    1.05170   -0.77950    0.47410    1.26350    0.55760    1.53000    1.42000  # c1,c1,o3e,c1
dihedral_coeff	40 ebt   -0.24560    1.05170   -0.77950    0.47410    1.26350    0.55760    1.53000    1.42000  # c1,c1,oc,c1
dihedral_coeff	41 ebt    0.00000    0.00000    0.00000    0.00000    0.00000    0.00000    1.53000    0.96000  # c1,c1,oh,h
dihedral_coeff	42 ebt    0.24860    0.24220   -0.09250    0.08140    0.05910    0.22190    1.53000    1.10100  # c1,c3h,c3h,hc
dihedral_coeff	43 ebt   -0.31900    0.44110   -0.71740    1.15380    0.84090   -0.91380    1.53000    1.42000  # c1,c3h,c3h,o3e
dihedral_coeff	44 ebt   -0.24560    1.05170   -0.77950    0.47410    1.26350    0.55760    1.53000    1.42000  # c1,c3h,o3e,c3h
dihedral_coeff	45 ebt   -0.16200    0.15640   -1.14080   -0.60540    1.33390    0.96480    1.42000    1.10100  # c1,o3e,c1,hc
dihedral_coeff	46 ebt   -0.16200    0.15640   -1.14080   -0.60540    1.33390    0.96480    1.42000    1.10100  # c1,oc,c1,hc
dihedral_coeff	47 ebt    0.08140    0.05910    0.22190    0.24860    0.24220   -0.09250    1.53000    1.10100  # c3h,c,c1,hc
dihedral_coeff	48 ebt    0.08140    0.05910    0.22190    0.24860    0.24220   -0.09250    1.53000    1.10100  # c3h,c1,c1,hc
dihedral_coeff	49 ebt    0.08140    0.05910    0.22190    0.24860    0.24220   -0.09250    1.53000    1.10100  # c3h,c3h,c,hc
dihedral_coeff	50 ebt    0.08140    0.05910    0.22190    0.24860    0.24220   -0.09250    1.53000    1.10100  # c3h,c3h,c1,hc
dihedral_coeff	51 ebt   -0.60540    1.33390    0.96480   -0.16200    0.15640   -1.14080    1.42000    1.10100  # c3h,o3e,c3h,hc
dihedral_coeff	52 ebt    0.00000    0.00000    0.00000    0.00000    0.00000    0.00000    0.96000    1.10100  # h,oh,c1,hc
dihedral_coeff	53 ebt    0.21300    0.31200    0.07770    0.21300    0.31200    0.07770    1.10100    1.10100  # hc,c,c,hc
dihedral_coeff	54 ebt    0.21300    0.31200    0.07770    0.21300    0.31200    0.07770    1.10100    1.10100  # hc,c,c1,hc
dihedral_coeff	55 ebt    0.96810    0.95510    0.04360    0.59030    0.66690    0.85840    1.10100    1.42000  # hc,c,c1,o3e
dihedral_coeff	56 ebt    0.96810    0.95510    0.04360    0.59030    0.66690    0.85840    1.10100    1.42000  # hc,c,c1,oc
dihedral_coeff	57 ebt    0.21300    0.31200    0.07770    0.21300    0.31200    0.07770    1.10100    1.10100  # hc,c,c3h,hc
dihedral_coeff	58 ebt    0.96810    0.95510    0.04360    0.59030    0.66690    0.85840    1.10100    1.42000  # hc,c,c3h,o3e
dihedral_coeff	59 ebt    0.21300    0.31200    0.07770    0.21300    0.31200    0.07770    1.10100    1.10100  # hc,c1,c1,hc
dihedral_coeff	60 ebt    0.96810    0.95510    0.04360    0.59030    0.66690    0.85840    1.10100    1.42000  # hc,c1,c1,o3e
dihedral_coeff	61 ebt    0.96810    0.95510    0.04360    0.59030    0.66690    0.85840    1.10100    1.42000  # hc,c1,c1,oc
dihedral_coeff	62 ebt    0.59030    0.66690    0.85840    0.96810    0.95510    0.04360    1.10100    1.42000  # hc,c1,c1,oh
dihedral_coeff	63 ebt    0.21300    0.31200    0.07770    0.21300    0.31200    0.07770    1.10100    1.10100  # hc,c1,c3h,hc
dihedral_coeff	64 ebt    0.96810    0.95510    0.04360    0.59030    0.66690    0.85840    1.10100    1.42000  # hc,c1,c3h,o3e
dihedral_coeff	65 ebt    0.21300    0.31200    0.07770    0.21300    0.31200    0.07770    1.10100    1.10100  # hc,c3h,c3h,hc
dihedral_coeff	66 ebt    0.96810    0.95510    0.04360    0.59030    0.66690    0.85840    1.10100    1.42000  # hc,c3h,c3h,o3e
dihedral_coeff	67 ebt    1.01650    0.75530   -0.46090    1.01650    0.75530   -0.46090    1.42000    1.42000  # oc,c1,c1,oc
dihedral_coeff	68 ebt    1.01650    0.75530   -0.46090    1.01650    0.75530   -0.46090    1.42000    1.42000  # oc,c1,c1,oh

# AngleTorsion Coeffs

dihedral_coeff	 1 at    0.38860   -0.31390    0.13890    0.38860   -0.31390    0.13890  112.67000  112.67000  # c,c,c1,c1
dihedral_coeff	 2 at    0.31130    0.45160   -0.19880   -0.24540    0.00000   -0.11360  112.67000  110.77000  # c,c,c1,hc
dihedral_coeff	 3 at    0.96720   -0.75660   -1.23310    0.56230   -0.30410   -0.40150  112.67000  111.27000  # c,c,c1,oc
dihedral_coeff	 4 at    0.38860   -0.31390    0.13890    0.38860   -0.31390    0.13890  112.67000  112.67000  # c,c1,c,c1
dihedral_coeff	 5 at    0.31130    0.45160   -0.19880   -0.24540    0.00000   -0.11360  112.67000  110.77000  # c,c1,c,hc
dihedral_coeff	 6 at    0.38860   -0.31390    0.13890    0.38860   -0.31390    0.13890  112.67000  112.67000  # c,c1,c1,c
dihedral_coeff	 7 at    0.38860   -0.31390    0.13890    0.38860   -0.31390    0.13890  112.67000  112.67000  # c,c1,c1,c1
dihedral_coeff	 8 at    0.38860   -0.31390    0.13890    0.38860   -0.31390    0.13890  112.67000  112.67000  # c,c1,c1,c3h
dihedral_coeff	 9 at    0.31130    0.45160   -0.19880   -0.24540    0.00000   -0.11360  112.67000  110.77000  # c,c1,c1,hc
dihedral_coeff	10 at    0.56230   -0.30410   -0.40150    0.96720   -0.75660   -1.23310  112.67000  111.27000  # c,c1,c1,o3e
dihedral_coeff	11 at    0.96720   -0.75660   -1.23310    0.56230   -0.30410   -0.40150  112.67000  111.27000  # c,c1,c1,oc
dihedral_coeff	12 at    0.96720   -0.75660   -1.23310    0.56230   -0.30410   -0.40150  112.67000  111.27000  # c,c1,c1,oh
dihedral_coeff	13 at    0.56760    0.94500    0.07030   -2.74660    1.48770   -0.89550  111.27000  104.50000  # c,c1,o3e,c1
dihedral_coeff	14 at    0.56760    0.94500    0.07030   -2.74660    1.48770   -0.89550  111.27000  104.50000  # c,c1,oc,c1
dihedral_coeff	15 at    0.38860   -0.31390    0.13890    0.38860   -0.31390    0.13890  112.67000  112.67000  # c,c3h,c3h,c1
dihedral_coeff	16 at    0.31130    0.45160   -0.19880   -0.24540    0.00000   -0.11360  112.67000  110.77000  # c,c3h,c3h,hc
dihedral_coeff	17 at    0.56230   -0.30410   -0.40150    0.96720   -0.75660   -1.23310  112.67000  111.27000  # c,c3h,c3h,o3e
dihedral_coeff	18 at   -2.74660    1.48770   -0.89550    0.56760    0.94500    0.07030  111.27000  104.50000  # c,c3h,o3e,c3h
dihedral_coeff	19 at    0.38860   -0.31390    0.13890    0.38860   -0.31390    0.13890  112.67000  112.67000  # c1,c,c,c1
dihedral_coeff	20 at   -0.24540    0.00000   -0.11360    0.31130    0.45160   -0.19880  112.67000  110.77000  # c1,c,c,hc
dihedral_coeff	21 at    0.38860   -0.31390    0.13890    0.38860   -0.31390    0.13890  112.67000  112.67000  # c1,c,c1,c1
dihedral_coeff	22 at   -0.24540    0.00000   -0.11360    0.31130    0.45160   -0.19880  112.67000  110.77000  # c1,c,c1,hc
dihedral_coeff	23 at    0.56230   -0.30410   -0.40150    0.96720   -0.75660   -1.23310  112.67000  111.27000  # c1,c,c1,o3e
dihedral_coeff	24 at    0.56230   -0.30410   -0.40150    0.96720   -0.75660   -1.23310  112.67000  111.27000  # c1,c,c1,oc
dihedral_coeff	25 at    0.38860   -0.31390    0.13890    0.38860   -0.31390    0.13890  112.67000  112.67000  # c1,c,c3h,c3h
dihedral_coeff	26 at   -0.24540    0.00000   -0.11360    0.31130    0.45160   -0.19880  112.67000  110.77000  # c1,c,c3h,hc
dihedral_coeff	27 at    0.56230   -0.30410   -0.40150    0.96720   -0.75660   -1.23310  112.67000  111.27000  # c1,c,c3h,o3e
dihedral_coeff	28 at    0.38860   -0.31390    0.13890    0.38860   -0.31390    0.13890  112.67000  112.67000  # c1,c1,c,c3h
dihedral_coeff	29 at   -0.24540    0.00000   -0.11360    0.31130    0.45160   -0.19880  112.67000  110.77000  # c1,c1,c,hc
dihedral_coeff	30 at    0.38860   -0.31390    0.13890    0.38860   -0.31390    0.13890  112.67000  112.67000  # c1,c1,c1,c1
dihedral_coeff	31 at    0.38860   -0.31390    0.13890    0.38860   -0.31390    0.13890  112.67000  112.67000  # c1,c1,c1,c3h
dihedral_coeff	32 at   -0.24540    0.00000   -0.11360    0.31130    0.45160   -0.19880  112.67000  110.77000  # c1,c1,c1,hc
dihedral_coeff	33 at    0.56230   -0.30410   -0.40150    0.96720   -0.75660   -1.23310  112.67000  111.27000  # c1,c1,c1,o3e
dihedral_coeff	34 at    0.56230   -0.30410   -0.40150    0.96720   -0.75660   -1.23310  112.67000  111.27000  # c1,c1,c1,oc
dihedral_coeff	35 at    0.96720   -0.75660   -1.23310    0.56230   -0.30410   -0.40150  112.67000  111.27000  # c1,c1,c1,oh
dihedral_coeff	36 at    0.38860   -0.31390    0.13890    0.38860   -0.31390    0.13890  112.67000  112.67000  # c1,c1,c3h,c3h
dihedral_coeff	37 at   -0.24540    0.00000   -0.11360    0.31130    0.45160   -0.19880  112.67000  110.77000  # c1,c1,c3h,hc
dihedral_coeff	38 at    0.56230   -0.30410   -0.40150    0.96720   -0.75660   -1.23310  112.67000  111.27000  # c1,c1,c3h,o3e
dihedral_coeff	39 at   -2.74660    1.48770   -0.89550    0.56760    0.94500    0.07030  111.27000  104.50000  # c1,c1,o3e,c1
dihedral_coeff	40 at   -2.74660    1.48770   -0.89550    0.56760    0.94500    0.07030  111.27000  104.50000  # c1,c1,oc,c1
dihedral_coeff	41 at    0.00000    0.00000    0.00000    0.00000    0.00000    0.00000  111.27000  109.00000  # c1,c1,oh,h
dihedral_coeff	42 at   -0.24540    0.00000   -0.11360    0.31130    0.45160   -0.19880  112.67000  110.77000  # c1,c3h,c3h,hc
dihedral_coeff	43 at    0.56230   -0.30410   -0.40150    0.96720   -0.75660   -1.23310  112.67000  111.27000  # c1,c3h,c3h,o3e
dihedral_coeff	44 at   -2.74660    1.48770   -0.89550    0.56760    0.94500    0.07030  111.27000  104.50000  # c1,c3h,o3e,c3h
dihedral_coeff	45 at   -0.77770    0.43400   -0.66530   -1.82340    1.63930    0.51440  104.50000  108.72800  # c1,o3e,c1,hc
dihedral_coeff	46 at   -0.77770    0.43400   -0.66530   -1.82340    1.63930    0.51440  104.50000  108.72800  # c1,oc,c1,hc
dihedral_coeff	47 at    0.31130    0.45160   -0.19880   -0.24540    0.00000   -0.11360  112.67000  110.77000  # c3h,c,c1,hc
dihedral_coeff	48 at    0.31130    0.45160   -0.19880   -0.24540    0.00000   -0.11360  112.67000  110.77000  # c3h,c1,c1,hc
dihedral_coeff	49 at    0.31130    0.45160   -0.19880   -0.24540    0.00000   -0.11360  112.67000  110.77000  # c3h,c3h,c,hc
dihedral_coeff	50 at    0.31130    0.45160   -0.19880   -0.24540    0.00000   -0.11360  112.67000  110.77000  # c3h,c3h,c1,hc
dihedral_coeff	51 at   -1.82340    1.63930    0.51440   -0.77770    0.43400   -0.66530  104.50000  108.72800  # c3h,o3e,c3h,hc
dihedral_coeff	52 at    0.00000    0.00000    0.00000    0.00000    0.00000    0.00000  109.00000  108.72800  # h,oh,c1,hc
dihedral_coeff	53 at   -0.80850    0.55690   -0.24660   -0.80850    0.55690   -0.24660  110.77000  110.77000  # hc,c,c,hc
dihedral_coeff	54 at   -0.80850    0.55690   -0.24660   -0.80850    0.55690   -0.24660  110.77000  110.77000  # hc,c,c1,hc
dihedral_coeff	55 at    2.36680    2.49200   -1.01220   -0.18920    0.49180    0.72730  110.77000  111.27000  # hc,c,c1,o3e
dihedral_coeff	56 at    2.36680    2.49200   -1.01220   -0.18920    0.49180    0.72730  110.77000  111.27000  # hc,c,c1,oc
dihedral_coeff	57 at   -0.80850    0.55690   -0.24660   -0.80850    0.55690   -0.24660  110.77000  110.77000  # hc,c,c3h,hc
dihedral_coeff	58 at    2.36680    2.49200   -1.01220   -0.18920    0.49180    0.72730  110.77000  111.27000  # hc,c,c3h,o3e
dihedral_coeff	59 at   -0.80850    0.55690   -0.24660   -0.80850    0.55690   -0.24660  110.77000  110.77000  # hc,c1,c1,hc
dihedral_coeff	60 at    2.36680    2.49200   -1.01220   -0.18920    0.49180    0.72730  110.77000  111.27000  # hc,c1,c1,o3e
dihedral_coeff	61 at    2.36680    2.49200   -1.01220   -0.18920    0.49180    0.72730  110.77000  111.27000  # hc,c1,c1,oc
dihedral_coeff	62 at   -0.18920    0.49180    0.72730    2.36680    2.49200   -1.01220  110.77000  111.27000  # hc,c1,c1,oh
dihedral_coeff	63 at   -0.80850    0.55690   -0.24660   -0.80850    0.55690   -0.24660  110.77000  110.77000  # hc,c1,c3h,hc
dihedral_coeff	64 at    2.36680    2.49200   -1.01220   -0.18920    0.49180    0.72730  110.77000  111.27000  # hc,c1,c3h,o3e
dihedral_coeff	65 at   -0.80850    0.55690   -0.24660   -0.80850    0.55690   -0.24660  110.77000  110.77000  # hc,c3h,c3h,hc
dihedral_coeff	66 at    2.36680    2.49200   -1.01220   -0.18920    0.49180    0.72730  110.77000  111.27000  # hc,c3h,c3h,o3e
dihedral_coeff	67 at    0.55110    0.97370   -0.66730    0.55110    0.97370   -0.66730  111.27000  111.27000  # oc,c1,c1,oc
dihedral_coeff	68 at    0.55110    0.97370   -0.66730    0.55110    0.97370   -0.66730  111.27000  111.27000  # oc,c1,c1,oh

# AngleAngleTorsion Coeffs

dihedral_coeff	 1 aat  -22.04500  112.67000  112.67000  # c,c,c1,c1
dihedral_coeff	 2 aat  -16.16400  112.67000  110.77000  # c,c,c1,hc
dihedral_coeff	 3 aat  -29.04200  112.67000  111.27000  # c,c,c1,oc
dihedral_coeff	 4 aat  -22.04500  112.67000  112.67000  # c,c1,c,c1
dihedral_coeff	 5 aat  -16.16400  112.67000  110.77000  # c,c1,c,hc
dihedral_coeff	 6 aat  -22.04500  112.67000  112.67000  # c,c1,c1,c
dihedral_coeff	 7 aat  -22.04500  112.67000  112.67000  # c,c1,c1,c1
dihedral_coeff	 8 aat  -22.04500  112.67000  112.67000  # c,c1,c1,c3h
dihedral_coeff	 9 aat  -16.16400  112.67000  110.77000  # c,c1,c1,hc
dihedral_coeff	10 aat  -29.04200  112.67000  111.27000  # c,c1,c1,o3e
dihedral_coeff	11 aat  -29.04200  112.67000  111.27000  # c,c1,c1,oc
dihedral_coeff	12 aat  -29.04200  112.67000  111.27000  # c,c1,c1,oh
dihedral_coeff	13 aat  -19.00590  111.27000  104.50000  # c,c1,o3e,c1
dihedral_coeff	14 aat  -19.00590  111.27000  104.50000  # c,c1,oc,c1
dihedral_coeff	15 aat  -22.04500  112.67000  112.67000  # c,c3h,c3h,c1
dihedral_coeff	16 aat  -16.16400  112.67000  110.77000  # c,c3h,c3h,hc
dihedral_coeff	17 aat  -29.04200  112.67000  111.27000  # c,c3h,c3h,o3e
dihedral_coeff	18 aat  -19.00590  111.27000  104.50000  # c,c3h,o3e,c3h
dihedral_coeff	19 aat  -22.04500  112.67000  112.67000  # c1,c,c,c1
dihedral_coeff	20 aat  -16.16400  112.67000  110.77000  # c1,c,c,hc
dihedral_coeff	21 aat  -22.04500  112.67000  112.67000  # c1,c,c1,c1
dihedral_coeff	22 aat  -16.16400  112.67000  110.77000  # c1,c,c1,hc
dihedral_coeff	23 aat  -29.04200  112.67000  111.27000  # c1,c,c1,o3e
dihedral_coeff	24 aat  -29.04200  112.67000  111.27000  # c1,c,c1,oc
dihedral_coeff	25 aat  -22.04500  112.67000  112.67000  # c1,c,c3h,c3h
dihedral_coeff	26 aat  -16.16400  112.67000  110.77000  # c1,c,c3h,hc
dihedral_coeff	27 aat  -29.04200  112.67000  111.27000  # c1,c,c3h,o3e
dihedral_coeff	28 aat  -22.04500  112.67000  112.67000  # c1,c1,c,c3h
dihedral_coeff	29 aat  -16.16400  112.67000  110.77000  # c1,c1,c,hc
dihedral_coeff	30 aat  -22.04500  112.67000  112.67000  # c1,c1,c1,c1
dihedral_coeff	31 aat  -22.04500  112.67000  112.67000  # c1,c1,c1,c3h
dihedral_coeff	32 aat  -16.16400  112.67000  110.77000  # c1,c1,c1,hc
dihedral_coeff	33 aat  -29.04200  112.67000  111.27000  # c1,c1,c1,o3e
dihedral_coeff	34 aat  -29.04200  112.67000  111.27000  # c1,c1,c1,oc
dihedral_coeff	35 aat  -29.04200  112.67000  111.27000  # c1,c1,c1,oh
dihedral_coeff	36 aat  -22.04500  112.67000  112.67000  # c1,c1,c3h,c3h
dihedral_coeff	37 aat  -16.16400  112.67000  110.77000  # c1,c1,c3h,hc
dihedral_coeff	38 aat  -29.04200  112.67000  111.27000  # c1,c1,c3h,o3e
dihedral_coeff	39 aat  -19.00590  111.27000  104.50000  # c1,c1,o3e,c1
dihedral_coeff	40 aat  -19.00590  111.27000  104.50000  # c1,c1,oc,c1
dihedral_coeff	41 aat    0.00000  111.27000  109.00000  # c1,c1,oh,h
dihedral_coeff	42 aat  -16.16400  112.67000  110.77000  # c1,c3h,c3h,hc
dihedral_coeff	43 aat  -29.04200  112.67000  111.27000  # c1,c3h,c3h,o3e
dihedral_coeff	44 aat  -19.00590  111.27000  104.50000  # c1,c3h,o3e,c3h
dihedral_coeff	45 aat  -16.44380  104.50000  108.72800  # c1,o3e,c1,hc
dihedral_coeff	46 aat  -16.44380  104.50000  108.72800  # c1,oc,c1,hc
dihedral_coeff	47 aat  -16.16400  112.67000  110.77000  # c3h,c,c1,hc
dihedral_coeff	48 aat  -16.16400  112.67000  110.77000  # c3h,c1,c1,hc
dihedral_coeff	49 aat  -16.16400  112.67000  110.77000  # c3h,c3h,c,hc
dihedral_coeff	50 aat  -16.16400  112.67000  110.77000  # c3h,c3h,c1,hc
dihedral_coeff	51 aat  -16.44380  104.50000  108.72800  # c3h,o3e,c3h,hc
dihedral_coeff	52 aat    0.00000  109.00000  108.72800  # h,oh,c1,hc
dihedral_coeff	53 aat  -12.56400  110.77000  110.77000  # hc,c,c,hc
dihedral_coeff	54 aat  -12.56400  110.77000  110.77000  # hc,c,c1,hc
dihedral_coeff	55 aat  -20.20060  110.77000  111.27000  # hc,c,c1,o3e
dihedral_coeff	56 aat  -20.20060  110.77000  111.27000  # hc,c,c1,oc
dihedral_coeff	57 aat  -12.56400  110.77000  110.77000  # hc,c,c3h,hc
dihedral_coeff	58 aat  -20.20060  110.77000  111.27000  # hc,c,c3h,o3e
dihedral_coeff	59 aat  -12.56400  110.77000  110.77000  # hc,c1,c1,hc
dihedral_coeff	60 aat  -20.20060  110.77000  111.27000  # hc,c1,c1,o3e
dihedral_coeff	61 aat  -20.20060  110.77000  111.27000  # hc,c1,c1,oc
dihedral_coeff	62 aat  -20.20060  110.77000  111.27000  # hc,c1,c1,oh
dihedral_coeff	63 aat  -12.56400  110.77000  110.77000  # hc,c1,c3h,hc
dihedral_coeff	64 aat  -20.20060  110.77000  111.27000  # hc,c1,c3h,o3e
dihedral_coeff	65 aat  -12.56400  110.77000  110.77000  # hc,c3h,c3h,hc
dihedral_coeff	66 aat  -20.20060  110.77000  111.27000  # hc,c3h,c3h,o3e
dihedral_coeff	67 aat  -14.04840  111.27000  111.27000  # oc,c1,c1,oc
dihedral_coeff	68 aat  -14.04840  111.27000  111.27000  # oc,c1,c1,oh

# BondBond13 Coeffs

dihedral_coeff	 1 bb13    0.00000    1.53000    1.53000  # c,c,c1,c1
dihedral_coeff	 2 bb13    0.00000    1.53000    1.10100  # c,c,c1,hc
dihedral_coeff	 3 bb13    0.00000    1.53000    1.42000  # c,c,c1,oc
dihedral_coeff	 4 bb13    0.00000    1.53000    1.53000  # c,c1,c,c1
dihedral_coeff	 5 bb13    0.00000    1.53000    1.10100  # c,c1,c,hc
dihedral_coeff	 6 bb13    0.00000    1.53000    1.53000  # c,c1,c1,c
dihedral_coeff	 7 bb13    0.00000    1.53000    1.53000  # c,c1,c1,c1
dihedral_coeff	 8 bb13    0.00000    1.53000    1.53000  # c,c1,c1,c3h
dihedral_coeff	 9 bb13    0.00000    1.53000    1.10100  # c,c1,c1,hc
dihedral_coeff	10 bb13    0.00000    1.53000    1.42000  # c,c1,c1,o3e
dihedral_coeff	11 bb13    0.00000    1.53000    1.42000  # c,c1,c1,oc
dihedral_coeff	12 bb13    0.00000    1.53000    1.42000  # c,c1,c1,oh
dihedral_coeff	13 bb13    0.00000    1.53000    1.42000  # c,c1,o3e,c1
dihedral_coeff	14 bb13    0.00000    1.53000    1.42000  # c,c1,oc,c1
dihedral_coeff	15 bb13    0.00000    1.53000    1.53000  # c,c3h,c3h,c1
dihedral_coeff	16 bb13    0.00000    1.53000    1.10100  # c,c3h,c3h,hc
dihedral_coeff	17 bb13    0.00000    1.53000    1.42000  # c,c3h,c3h,o3e
dihedral_coeff	18 bb13    0.00000    1.53000    1.42000  # c,c3h,o3e,c3h
dihedral_coeff	19 bb13    0.00000    1.53000    1.53000  # c1,c,c,c1
dihedral_coeff	20 bb13    0.00000    1.53000    1.10100  # c1,c,c,hc
dihedral_coeff	21 bb13    0.00000    1.53000    1.53000  # c1,c,c1,c1
dihedral_coeff	22 bb13    0.00000    1.53000    1.10100  # c1,c,c1,hc
dihedral_coeff	23 bb13    0.00000    1.53000    1.42000  # c1,c,c1,o3e
dihedral_coeff	24 bb13    0.00000    1.53000    1.42000  # c1,c,c1,oc
dihedral_coeff	25 bb13    0.00000    1.53000    1.53000  # c1,c,c3h,c3h
dihedral_coeff	26 bb13    0.00000    1.53000    1.10100  # c1,c,c3h,hc
dihedral_coeff	27 bb13    0.00000    1.53000    1.42000  # c1,c,c3h,o3e
dihedral_coeff	28 bb13    0.00000    1.53000    1.53000  # c1,c1,c,c3h
dihedral_coeff	29 bb13    0.00000    1.53000    1.10100  # c1,c1,c,hc
dihedral_coeff	30 bb13    0.00000    1.53000    1.53000  # c1,c1,c1,c1
dihedral_coeff	31 bb13    0.00000    1.53000    1.53000  # c1,c1,c1,c3h
dihedral_coeff	32 bb13    0.00000    1.53000    1.10100  # c1,c1,c1,hc
dihedral_coeff	33 bb13    0.00000    1.53000    1.42000  # c1,c1,c1,o3e
dihedral_coeff	34 bb13    0.00000    1.53000    1.42000  # c1,c1,c1,oc
dihedral_coeff	35 bb13    0.00000    1.53000    1.42000  # c1,c1,c1,oh
dihedral_coeff	36 bb13    0.00000    1.53000    1.53000  # c1,c1,c3h,c3h
dihedral_coeff	37 bb13    0.00000    1.53000    1.10100  # c1,c1,c3h,hc
dihedral_coeff	38 bb13    0.00000    1.53000    1.42000  # c1,c1,c3h,o3e
dihedral_coeff	39 bb13    0.00000    1.53000    1.42000  # c1,c1,o3e,c1
dihedral_coeff	40 bb13    0.00000    1.53000    1.42000  # c1,c1,oc,c1
dihedral_coeff	41 bb13    0.00000    1.53000    0.96000  # c1,c1,oh,h
dihedral_coeff	42 bb13    0.00000    1.53000    1.10100  # c1,c3h,c3h,hc
dihedral_coeff	43 bb13    0.00000    1.53000    1.42000  # c1,c3h,c3h,o3e
dihedral_coeff	44 bb13    0.00000    1.53000    1.42000  # c1,c3h,o3e,c3h
dihedral_coeff	45 bb13    0.00000    1.42000    1.10100  # c1,o3e,c1,hc
dihedral_coeff	46 bb13    0.00000    1.42000    1.10100  # c1,oc,c1,hc
dihedral_coeff	47 bb13    0.00000    1.53000    1.10100  # c3h,c,c1,hc
dihedral_coeff	48 bb13    0.00000    1.53000    1.10100  # c3h,c1,c1,hc
dihedral_coeff	49 bb13    0.00000    1.53000    1.10100  # c3h,c3h,c,hc
dihedral_coeff	50 bb13    0.00000    1.53000    1.10100  # c3h,c3h,c1,hc
dihedral_coeff	51 bb13    0.00000    1.42000    1.10100  # c3h,o3e,c3h,hc
dihedral_coeff	52 bb13    0.00000    0.96000    1.10100  # h,oh,c1,hc
dihedral_coeff	53 bb13    0.00000    1.10100    1.10100  # hc,c,c,hc
dihedral_coeff	54 bb13    0.00000    1.10100    1.10100  # hc,c,c1,hc
dihedral_coeff	55 bb13    0.00000    1.10100    1.42000  # hc,c,c1,o3e
dihedral_coeff	56 bb13    0.00000    1.10100    1.42000  # hc,c,c1,oc
dihedral_coeff	57 bb13    0.00000    1.10100    1.10100  # hc,c,c3h,hc
dihedral_coeff	58 bb13    0.00000    1.10100    1.42000  # hc,c,c3h,o3e
dihedral_coeff	59 bb13    0.00000    1.10100    1.10100  # hc,c1,c1,hc
dihedral_coeff	60 bb13    0.00000    1.10100    1.42000  # hc,c1,c1,o3e
dihedral_coeff	61 bb13    0.00000    1.10100    1.42000  # hc,c1,c1,oc
dihedral_coeff	62 bb13    0.00000    1.10100    1.42000  # hc,c1,c1,oh
dihedral_coeff	63 bb13    0.00000    1.10100    1.10100  # hc,c1,c3h,hc
dihedral_coeff	64 bb13    0.00000    1.10100    1.42000  # hc,c1,c3h,o3e
dihedral_coeff	65 bb13    0.00000    1.10100    1.10100  # hc,c3h,c3h,hc
dihedral_coeff	66 bb13    0.00000    1.10100    1.42000  # hc,c3h,c3h,o3e
dihedral_coeff	67 bb13    0.00000    1.42000    1.42000  # oc,c1,c1,oc
dihedral_coeff	68 bb13    0.00000    1.42000    1.42000  # oc,c1,c1,oh

# Improper Coeffs

improper_coeff	 1    0.00000    0.00000  # c,c,c1,hc
improper_coeff	 2    0.00000    0.00000  # c,c,hc,c1
improper_coeff	 3    0.00000    0.00000  # c,c,hc,hc
improper_coeff	 4    0.00000    0.00000  # c,c1,c1,hc
improper_coeff	 5    0.00000    0.00000  # c,c1,hc,c3h
improper_coeff	 6    0.00000    0.00000  # c,c1,hc,hc
improper_coeff	 7    0.00000    0.00000  # c,c3h,hc,hc
improper_coeff	 8    0.00000    0.00000  # c1,c,c,c1
improper_coeff	 9    0.00000    0.00000  # c1,c,c,hc
improper_coeff	10    0.00000    0.00000  # c1,c,c1,c1
improper_coeff	11    0.00000    0.00000  # c1,c,c1,hc
improper_coeff	12    0.00000    0.00000  # c1,c,c1,oc
improper_coeff	13    0.00000    0.00000  # c1,c,hc,c1
improper_coeff	14    0.00000    0.00000  # c1,c,hc,oc
improper_coeff	15    0.00000    0.00000  # c1,c,o3e,c1
improper_coeff	16    0.00000    0.00000  # c1,c,o3e,hc
improper_coeff	17    0.00000    0.00000  # c1,c,oc,c1
improper_coeff	18    0.00000    0.00000  # c1,c,oc,hc
improper_coeff	19    0.00000    0.00000  # c1,c1,c1,c1
improper_coeff	20    0.00000    0.00000  # c1,c1,c1,c3h
improper_coeff	21    0.00000    0.00000  # c1,c1,c1,hc
improper_coeff	22    0.00000    0.00000  # c1,c1,c1,o3e
improper_coeff	23    0.00000    0.00000  # c1,c1,c1,oc
improper_coeff	24    0.00000    0.00000  # c1,c1,c1,oh
improper_coeff	25    0.00000    0.00000  # c1,c1,c3h,hc
improper_coeff	26    0.00000    0.00000  # c1,c1,hc,c3h
improper_coeff	27    0.00000    0.00000  # c1,c1,hc,o3e
improper_coeff	28    0.00000    0.00000  # c1,c1,hc,oc
improper_coeff	29    0.00000    0.00000  # c1,c1,hc,oh
improper_coeff	30    0.00000    0.00000  # c1,c1,o3e,hc
improper_coeff	31    0.00000    0.00000  # c1,c1,oc,hc
improper_coeff	32    0.00000    0.00000  # c3h,c,hc,c3h
improper_coeff	33    0.00000    0.00000  # c3h,c,o3e,c3h
improper_coeff	34    0.00000    0.00000  # c3h,c,o3e,hc
improper_coeff	35    0.00000    0.00000  # c3h,c1,c3h,hc
improper_coeff	36    0.00000    0.00000  # c3h,c1,c3h,o3e
improper_coeff	37    0.00000    0.00000  # c3h,c1,o3e,hc
improper_coeff	38    0.00000    0.00000  # c3h,c3h,o3e,hc

# AngleAngle Coeffs

improper_coeff	 1 aa    0.00000   -1.31990    0.00000  112.67000  110.77000  110.77000  # c,c,c1,hc
improper_coeff	 2 aa    0.00000   -1.31990    0.00000  110.77000  112.67000  110.77000  # c,c,hc,c1
improper_coeff	 3 aa    0.00000   -0.48250    0.00000  110.77000  110.77000  107.66000  # c,c,hc,hc
improper_coeff	 4 aa   -1.31990   -1.31990    0.11840  112.67000  110.77000  110.77000  # c,c1,c1,hc
improper_coeff	 5 aa    0.11840    0.00000   -1.31990  110.77000  112.67000  110.77000  # c,c1,hc,c3h
improper_coeff	 6 aa    0.27380   -0.48250    0.27380  110.77000  110.77000  107.66000  # c,c1,hc,hc
improper_coeff	 7 aa    0.00000   -0.48250    0.00000  110.77000  110.77000  107.66000  # c,c3h,hc,hc
improper_coeff	 8 aa    0.00000    0.00000   -0.17290  112.67000  112.67000  112.67000  # c1,c,c,c1
improper_coeff	 9 aa    0.00000    0.00000    0.11840  112.67000  110.77000  110.77000  # c1,c,c,hc
improper_coeff	10 aa    0.00000   -0.17290    0.00000  112.67000  112.67000  112.67000  # c1,c,c1,c1
improper_coeff	11 aa    0.00000   -1.31990    0.00000  112.67000  110.77000  110.77000  # c1,c,c1,hc
improper_coeff	12 aa    0.00000   -0.83300    0.00000  112.67000  111.27000  111.27000  # c1,c,c1,oc
improper_coeff	13 aa    0.00000   -1.31990    0.00000  110.77000  112.67000  110.77000  # c1,c,hc,c1
improper_coeff	14 aa    0.00000    2.59260    0.00000  110.77000  111.27000  108.72800  # c1,c,hc,oc
improper_coeff	15 aa    0.00000   -0.83300   -0.83300  111.27000  112.67000  111.27000  # c1,c,o3e,c1
improper_coeff	16 aa    0.00000    2.59260    3.91770  111.27000  110.77000  108.72800  # c1,c,o3e,hc
improper_coeff	17 aa    0.00000   -0.83300    0.00000  111.27000  112.67000  111.27000  # c1,c,oc,c1
improper_coeff	18 aa    0.00000    2.59260    0.00000  111.27000  110.77000  108.72800  # c1,c,oc,hc
improper_coeff	19 aa   -0.17290   -0.17290   -0.17290  112.67000  112.67000  112.67000  # c1,c1,c1,c1
improper_coeff	20 aa   -0.17290   -0.17290   -0.17290  112.67000  112.67000  112.67000  # c1,c1,c1,c3h
improper_coeff	21 aa   -1.31990   -1.31990    0.11840  112.67000  110.77000  110.77000  # c1,c1,c1,hc
improper_coeff	22 aa   -0.83300   -0.83300   -3.57440  112.67000  111.27000  111.27000  # c1,c1,c1,o3e
improper_coeff	23 aa   -0.83300   -0.83300   -3.57440  112.67000  111.27000  111.27000  # c1,c1,c1,oc
improper_coeff	24 aa    0.00000    0.00000   -3.57440  112.67000  111.27000  111.27000  # c1,c1,c1,oh
improper_coeff	25 aa   -1.31990    0.00000    0.11840  112.67000  110.77000  110.77000  # c1,c1,c3h,hc
improper_coeff	26 aa    0.11840    0.00000   -1.31990  110.77000  112.67000  110.77000  # c1,c1,hc,c3h
improper_coeff	27 aa    3.91770    2.59260    0.16890  110.77000  111.27000  108.72800  # c1,c1,hc,o3e
improper_coeff	28 aa    3.91770    2.59260    0.16890  110.77000  111.27000  108.72800  # c1,c1,hc,oc
improper_coeff	29 aa    0.00000    0.00000    0.16890  110.77000  111.27000  108.72800  # c1,c1,hc,oh
improper_coeff	30 aa    0.16890    2.59260    3.91770  111.27000  110.77000  108.72800  # c1,c1,o3e,hc
improper_coeff	31 aa    0.16890    2.59260    3.91770  111.27000  110.77000  108.72800  # c1,c1,oc,hc
improper_coeff	32 aa    0.11840    0.00000    0.00000  110.77000  112.67000  110.77000  # c3h,c,hc,c3h
improper_coeff	33 aa   -3.57440    0.00000   -0.83300  111.27000  112.67000  111.27000  # c3h,c,o3e,c3h
improper_coeff	34 aa    0.00000    2.59260    3.91770  111.27000  110.77000  108.72800  # c3h,c,o3e,hc
improper_coeff	35 aa   -1.31990    0.00000    0.11840  112.67000  110.77000  110.77000  # c3h,c1,c3h,hc
improper_coeff	36 aa   -0.83300    0.00000   -3.57440  112.67000  111.27000  111.27000  # c3h,c1,c3h,o3e
improper_coeff	37 aa    0.16890    2.59260    3.91770  111.27000  110.77000  108.72800  # c3h,c1,o3e,hc
improper_coeff	38 aa    0.00000    2.59260    0.00000  111.27000  110.77000  108.72800  # c3h,c3h,o3e,hc

# ------------------------------- OPT Section -------------------------------
minimize 1.0e-5 1.0e-7 100000 400000
Generated 28 of 28 mixed pair_coeff terms from sixthpower/geometric mixing rule
Neighbor list info ...
  update: every = 1 steps, delay = 0 steps, check = yes
  max neighbors/atom: 2000, page size: 100000
  master list distance cutoff = 12
  ghost atom cutoff = 12
  binsize = 6, bins = 4 4 4
  1 neighbor lists, perpetual/occasional/extra = 1 0 0
  (1) pair lj/class2/coul/cut, perpetual
      attributes: half, newton on
      pair build: half/bin/newton
      stencil: half/bin/3d
      bin: standard
Per MPI rank memory allocation (min/avg/max) = 28.72 | 29.05 | 29.51 Mbytes
   Step          Temp          E_pair         E_mol          TotEng         Press     
         0   0             -22.148786      613.51741      591.36862     -2751.4307    
        30   0             -20.533792      468.51069      447.97689     -5.2137061    
Loop time of 0.02237 on 6 procs for 30 steps with 74 atoms

98.0% CPU use with 6 MPI tasks x no OpenMP threads

Minimization stats:
  Stopping criterion = linesearch alpha is zero
  Energy initial, next-to-last, final = 
       591.36862026566   447.976892928703   447.976892928703
  Force two-norm initial, final = 272.72269 19.340882
  Force max component initial, final = 60.959525 4.9339297
  Final line search alpha, max atom move = 2.793026e-11 1.3780594e-10
  Iterations, force evaluations = 30 111

MPI task timing breakdown:
Section |  min time  |  avg time  |  max time  |%varavg| %total
---------------------------------------------------------------
Pair    | 3.4311e-05 | 0.00061638 | 0.0014037  |   0.0 |  2.76
Bond    | 2.4508e-05 | 0.0038829  | 0.012117   |   7.6 | 17.36
Neigh   | 4.7228e-05 | 5.0436e-05 | 5.335e-05  |   0.0 |  0.23
Comm    | 0.0071807  | 0.014147   | 0.020255   |   4.1 | 63.24
Output  | 0          | 0          | 0          |   0.0 |  0.00
Modify  | 0          | 0          | 0          |   0.0 |  0.00
Other   |            | 0.003673   |            |       | 16.42

Nlocal:        12.3333 ave          39 max           0 min
Histogram: 3 0 0 1 0 1 0 0 0 1
Nghost:          495.5 ave         697 max         379 min
Histogram: 2 0 1 1 0 1 0 0 0 1
Neighs:        334.333 ave         704 max           0 min
Histogram: 3 0 0 0 0 0 0 1 0 2

Total # of neighbors = 2006
Ave neighs/atom = 27.108108
Ave special neighs/atom = 13.972973
Neighbor list builds = 1
Dangerous builds = 0
# ------------------------------- Run Section -------------------------------
#

thermo_style custom step temp pe evdwl ecoul ebond eangle edihed eimp density vol
thermo          100

fix Langevin  all langevin 300 300 100.0 482432
fix moveLimit all nve/limit 0.1
run 20000
Generated 28 of 28 mixed pair_coeff terms from sixthpower/geometric mixing rule
Per MPI rank memory allocation (min/avg/max) = 27.72 | 27.94 | 28.38 Mbytes
   Step          Temp          PotEng         E_vdwl         E_coul         E_bond        E_angle        E_dihed        E_impro        Density         Volume    
        30   0              447.97689      5.5487327     -26.082525      8.7667508      573.4671      -109.77798     -3.9451831      0.099999998    8213.5863    
       100   176.15498      481.48219      7.5030896     -25.541091      29.68017       581.82287     -108.15922     -3.8236322      0.099999998    8213.5863    
       200   293.63713      494.71019      2.3157016     -24.671307      25.845196      603.14731     -107.34192     -4.584787       0.099999998    8213.5863    
       300   271.10732      494.30089      3.1859356     -29.577569      32.306113      602.8516      -110.98636     -3.4788267      0.099999998    8213.5863    
       400   325.97469      501.34108      1.729921      -28.027554      36.575485      598.88607     -103.04192     -4.7809219      0.099999998    8213.5863    
       500   366.58081      492.29156      2.5171874     -29.030837      23.351974      617.22389     -115.78041     -5.9902462      0.099999998    8213.5863    
       600   295.35688      498.37129      4.4461241     -29.334079      34.92043       602.6444      -111.08274     -3.2228414      0.099999998    8213.5863    
       700   305.03831      493.7508       1.1059107     -30.463807      37.410064      605.72098     -115.6448      -4.3775499      0.099999998    8213.5863    
       800   385.77963      487.4253       2.3328057     -31.308483      30.233165      596.42243     -105.41223     -4.8423846      0.099999998    8213.5863    
       900   279.40917      496.40743      4.4812153     -27.982265      42.789225      595.70712     -115.28067     -3.3071943      0.099999998    8213.5863    
      1000   313.36176      502.22457      0.48194507    -29.107551      31.013153      614.68206     -110.53538     -4.3096616      0.099999998    8213.5863    
      1100   312.90437      505.55005     -0.43411782    -29.94781       45.053388      601.65124     -107.97965     -2.7930025      0.099999998    8213.5863    
      1200   285.56012      503.83435      4.2868346     -26.290733      33.00037       607.53975     -108.45056     -6.2513008      0.099999998    8213.5863    
      1300   311.69564      497.65257     -1.9847322     -24.890756      29.655337      613.22116     -113.85558     -4.4928659      0.099999998    8213.5863    
      1400   300.25877      499.59116      3.143402      -26.313214      33.950386      609.78703     -115.12761     -5.8488342      0.099999998    8213.5863    
      1500   297.96153      494.77264      1.7393897     -28.992966      39.176261      591.71503     -103.75995     -5.1051255      0.099999998    8213.5863    
      1600   340.00103      507.96219      2.4420533     -29.544464      41.53132       602.47425     -104.27281     -4.6681617      0.099999998    8213.5863    
      1700   288.78106      497.58892      2.5866525     -27.774601      36.56707       591.00971     -102.51953     -2.2803862      0.099999998    8213.5863    
      1800   285.31139      501.74311      0.8650338     -23.742976      32.750566      606.87677     -111.11137     -3.8949111      0.099999998    8213.5863    
      1900   326.59947      494.80316      0.62949734    -27.61763       32.043154      584.82681     -90.660299     -4.4183661      0.099999998    8213.5863    
      2000   281.79225      502.04461      2.9795663     -27.54189       41.824029      598.07574     -110.03512     -3.2577149      0.099999998    8213.5863    
      2100   291.45369      499.21397      4.3136909     -28.778587      32.254342      606.08457     -111.16937     -3.4906768      0.099999998    8213.5863    
      2200   269.27113      503.55876      4.9805729     -29.884306      30.865177      611.55213     -110.46757     -3.4872485      0.099999998    8213.5863    
      2300   267.69511      488.56089      1.1048012     -29.753926      34.157304      606.28168     -119.10333     -4.1256433      0.099999998    8213.5863    
      2400   297.91991      494.29514      5.5845575     -30.890064      29.737911      594.04216     -101.08312     -3.0962986      0.099999998    8213.5863    
      2500   282.34147      485.83952      6.5338947     -31.802639      30.733248      592.03234     -107.39851     -4.2588049      0.099999998    8213.5863    
      2600   262.58417      495.96156      0.90029509    -31.197333      35.64412       604.51334     -109.54301     -4.3558538      0.099999998    8213.5863    
      2700   334.59389      496.993        1.0311725     -30.120324      33.224292      599.08992     -102.51452     -3.7175447      0.099999998    8213.5863    
      2800   335.91982      496.90164      2.5356808     -30.939587      44.872777      599.35462     -115.13149     -3.7903624      0.099999998    8213.5863    
      2900   328.93935      500.47304      3.2506002     -28.557054      38.798341      592.61615     -101.54395     -4.0910466      0.099999998    8213.5863    
      3000   261.32826      503.63647      3.2613566     -31.395751      39.445045      620.74938     -123.68359     -4.7399728      0.099999998    8213.5863    
      3100   270.79122      484.80254      2.0733222     -34.091729      34.229935      595.39476     -110.01567     -2.7880812      0.099999998    8213.5863    
      3200   281.00259      502.47834      5.1978447     -27.018334      38.394293      600.76298     -111.31205     -3.546385       0.099999998    8213.5863    
      3300   287.87169      499.55531      2.6739569     -26.769449      29.45669       610.43558     -111.14271     -5.0987549      0.099999998    8213.5863    
      3400   342.81239      505.26086      6.7069817     -23.169547      32.896155      605.15054     -112.79643     -3.5268366      0.099999998    8213.5863    
      3500   307.6489       513.18296      2.2187331     -18.590898      39.013311      592.9023      -98.912405     -3.4480799      0.099999998    8213.5863    
      3600   331.2779       513.53818      4.0792694     -23.790524      43.972012      602.081       -108.21132     -4.5922531      0.099999998    8213.5863    
      3700   292.04462      511.31589      3.997876      -20.556778      44.083286      609.79669     -119.58742     -6.4177689      0.099999998    8213.5863    
      3800   315.84291      506.90773      4.7686187     -17.920708      37.495978      607.38536     -120.72623     -4.0952858      0.099999998    8213.5863    
      3900   295.36003      501.46954      1.8858494     -23.909364      33.948337      595.85475     -102.34591     -3.9641194      0.099999998    8213.5863    
      4000   256.533        508.9955       4.4928993     -14.970109      33.777938      603.35757     -113.80356     -3.8592378      0.099999998    8213.5863    
      4100   282.99947      498.43755      1.7716223     -19.340384      27.748377      601.25688     -109.12866     -3.8702919      0.099999998    8213.5863    
      4200   369.14         503.23419      0.7408215     -21.488238      39.239101      598.38359     -110.09579     -3.5452857      0.099999998    8213.5863    
      4300   328.82653      491.40343      1.5928767     -24.552069      30.782423      603.9507      -116.16702     -4.2034823      0.099999998    8213.5863    
      4400   318.12782      507.21457      1.5991061     -24.011464      31.42544       598.7982      -98.929071     -1.6676347      0.099999998    8213.5863    
      4500   290.1018       506.65316      2.4228181     -26.124579      38.871908      605.2213      -110.05312     -3.6851703      0.099999998    8213.5863    
      4600   297.66372      508.06268      0.66469412    -26.680025      39.687514      592.35968     -96.117488     -1.8516952      0.099999998    8213.5863    
      4700   341.15361      503.97131      0.51250313    -19.367102      43.946456      594.29696     -112.26275     -3.1547612      0.099999998    8213.5863    
      4800   322.02445      496.75526      1.8366963     -22.231228      26.081597      611.53772     -115.61755     -4.8519668      0.099999998    8213.5863    
      4900   286.39999      517.56957     -1.8604222     -18.669848      36.048723      610.66128     -105.15697     -3.4531893      0.099999998    8213.5863    
      5000   303.82848      508.82921      3.5213773     -19.647036      33.426548      608.52301     -112.38593     -4.608768       0.099999998    8213.5863    
      5100   265.01807      502.18143     -1.2964657     -17.45883       33.644207      613.35778     -122.20301     -3.8622484      0.099999998    8213.5863    
      5200   292.39135      501.90177      0.93653874    -19.38647       27.23771       607.85842     -111.44772     -3.2967059      0.099999998    8213.5863    
      5300   330.79879      501.04509      2.9802095     -20.323269      26.3582        609.47591     -113.5981      -3.8478653      0.099999998    8213.5863    
      5400   310.88685      503.81811      2.1772549     -22.24666       33.851241      602.88805     -109.69441     -3.1573582      0.099999998    8213.5863    
      5500   304.97649      498.94258      2.5669709     -24.500727      34.175704      599.3543      -109.89201     -2.7616467      0.099999998    8213.5863    
      5600   296.24458      506.21823      0.54311286    -26.121248      36.187352      607.32006     -106.64847     -5.0625709      0.099999998    8213.5863    
      5700   306.30124      513.04487      5.6841127     -27.935052      39.589561      607.6161      -108.29        -3.6198526      0.099999998    8213.5863    
      5800   374.4655       513.23374     -1.2925287     -26.661312      39.010348      612.20122     -108.08213     -1.9418565      0.099999998    8213.5863    
      5900   317.97888      508.97428      2.6708162     -27.387075      42.996944      597.91411     -103.58086     -3.6396543      0.099999998    8213.5863    
      6000   323.28753      504.37862      4.2833075     -25.092646      38.628646      608.42096     -116.87896     -4.9826875      0.099999998    8213.5863    
      6100   327.7485       509.70895      2.0607717     -21.65948       35.380576      598.85794     -102.43511     -2.4957399      0.099999998    8213.5863    
      6200   275.15528      505.93079     -1.0683415     -21.209756      37.020123      596.49392     -102.20209     -3.1030689      0.099999998    8213.5863    
      6300   262.6143       497.94369      3.1952828     -29.054663      39.340991      594.55089     -106.28925     -3.7995534      0.099999998    8213.5863    
      6400   341.7851       505.35367      10.930625     -27.443497      28.976596      607.13053     -108.58412     -5.6564697      0.099999998    8213.5863    
      6500   295.65152      499.46045      4.1448146     -29.591298      27.094804      617.89031     -115.28093     -4.7972589      0.099999998    8213.5863    
      6600   283.79972      502.97363      1.4448333     -25.651207      35.864695      601.27763     -105.50604     -4.4562814      0.099999998    8213.5863    
      6700   287.73226      497.86663      1.3321067     -25.941392      32.518591      598.09735     -104.03336     -4.1066585      0.099999998    8213.5863    
      6800   295.9335       500.33208      4.5079818     -24.39678       36.238223      609.08397     -119.23515     -5.8661774      0.099999998    8213.5863    
      6900   326.34373      497.81902      3.0785064     -28.258673      36.330807      583.43187     -92.802994     -3.9604921      0.099999998    8213.5863    
      7000   319.49936      517.02491      4.6316274     -30.053857      46.792242      610.72813     -109.19435     -5.8788802      0.099999998    8213.5863    
      7100   289.41508      495.5968       3.84081       -24.863446      32.344343      605.12288     -115.46354     -5.384252       0.099999998    8213.5863    
      7200   274.36941      491.17158      2.6518229     -27.066179      28.763881      584.35139     -94.981266     -2.5480682      0.099999998    8213.5863    
      7300   302.42776      505.81916      6.7811267     -28.58313       35.216327      599.39752     -103.62148     -3.3712071      0.099999998    8213.5863    
      7400   319.05784      505.59352      5.7252029     -21.264918      36.956796      596.99589     -108.45939     -4.3600631      0.099999998    8213.5863    
      7500   320.81501      513.60828     -1.0119043     -22.313133      35.629255      616.92947     -110.54373     -5.0816822      0.099999998    8213.5863    
      7600   328.18219      507.48296      0.92872108    -25.727578      38.62422       611.90956     -113.30016     -4.9518018      0.099999998    8213.5863    
      7700   253.19841      500.21597      1.300197      -22.715447      37.448396      596.48564     -108.57222     -3.7305932      0.099999998    8213.5863    
      7800   273.08229      496.55837      2.0940123     -24.942294      34.495437      591.05145     -102.81092     -3.3293095      0.099999998    8213.5863    
      7900   299.91558      497.33954      4.5540813     -25.963116      21.020027      606.57187     -104.6122      -4.2311276      0.099999998    8213.5863    
      8000   352.1297       495.91216     -0.36782813    -20.795412      29.891391      598.0173      -105.49301     -5.3402717      0.099999998    8213.5863    
      8100   282.39712      506.5522       2.7220953     -25.215537      35.816314      615.55359     -117.56035     -4.763923       0.099999998    8213.5863    
      8200   287.2521       509.54344     -1.7907637     -27.575654      34.896872      601.04227     -94.710495     -2.3187906      0.099999998    8213.5863    
      8300   311.2765       502.3823       1.8076195     -26.140348      35.788371      614.11128     -118.70609     -4.4785301      0.099999998    8213.5863    
      8400   349.40813      507.07498     -0.091864231   -26.05321       41.489592      596.2273      -101.46775     -3.0290919      0.099999998    8213.5863    
      8500   315.01736      512.80165      0.02505108    -28.118326      41.248112      608.50941     -104.86428     -3.9983225      0.099999998    8213.5863    
      8600   288.58299      493.18322      0.69518503    -25.594592      32.157289      611.17066     -119.11807     -6.1272519      0.099999998    8213.5863    
      8700   293.72882      490.17618      4.462286      -27.865287      26.768608      595.98819     -104.86304     -4.3145746      0.099999998    8213.5863    
      8800   354.04029      500.88786      2.6953863     -27.843907      30.820404      606.27017     -106.87094     -4.1832575      0.099999998    8213.5863    
      8900   296.71789      512.38199      0.36761005    -26.966568      46.498427      596.90674     -101.18253     -3.2416905      0.099999998    8213.5863    
      9000   260.04844      507.44317      2.2688239     -27.891518      32.372268      609.34742     -106.04744     -2.6063841      0.099999998    8213.5863    
      9100   276.56103      503.73295      3.4133899     -26.963755      33.809717      604.13246     -106.87156     -3.7873028      0.099999998    8213.5863    
      9200   333.33236      501.09048      0.742452      -28.592843      36.648084      601.77909     -105.20789     -4.2784092      0.099999998    8213.5863    
      9300   339.7448       500.82328      2.6949771     -26.372363      30.464986      616.06835     -117.48674     -4.5459341      0.099999998    8213.5863    
      9400   336.06331      505.09017     -1.4691009     -25.549107      34.331865      610.96703     -109.14367     -4.0468541      0.099999998    8213.5863    
      9500   299.2092       505.43996      1.7447585     -25.420045      35.607003      607.51534     -109.53284     -4.4742604      0.099999998    8213.5863    
      9600   297.16052      501.17087      3.2015156     -24.707559      33.792067      603.78131     -111.1395      -3.7569576      0.099999998    8213.5863    
      9700   358.07228      513.76327      1.6635928     -24.299414      42.461657      605.07349     -105.36515     -5.770907       0.099999998    8213.5863    
      9800   287.65701      510.28463      2.1725272     -28.840934      40.077943      618.15608     -116.45177     -4.8292193      0.099999998    8213.5863    
      9900   311.54913      511.3568       0.78254394    -23.259278      36.79351       614.96754     -114.89458     -3.0329363      0.099999998    8213.5863    
     10000   264.66994      510.96932      4.0353119     -23.059354      40.509346      609.89125     -116.14821     -4.2590264      0.099999998    8213.5863    
     10100   320.25013      496.07678      8.152929      -26.267058      31.425251      595.88922     -109.24827     -3.875287       0.099999998    8213.5863    
     10200   332.9156       499.39453      7.2703219     -25.179795      27.643267      602.48402     -109.03271     -3.7905836      0.099999998    8213.5863    
     10300   295.69163      506.28911      5.1011256     -22.742245      36.572595      616.4508      -125.13438     -3.9587862      0.099999998    8213.5863    
     10400   309.25473      516.74186      6.2272962     -24.014367      36.805671      610.95457     -107.0043      -6.2270068      0.099999998    8213.5863    
     10500   316.7136       506.0334      -1.0823636     -22.069497      34.159537      615.23483     -116.01461     -4.1945031      0.099999998    8213.5863    
     10600   341.39139      508.17298      5.9027999     -23.026035      30.5024        603.63708     -105.91018     -2.9330743      0.099999998    8213.5863    
     10700   336.55311      505.92254      1.7625408     -25.243319      35.563614      594.18582     -97.298744     -3.0473776      0.099999998    8213.5863    
     10800   292.09851      502.02258      2.3262728     -21.703029      28.984305      614.91548     -118.85365     -3.6468053      0.099999998    8213.5863    
     10900   273.96058      496.478        2.0156576     -26.320376      32.27266       603.94415     -111.70128     -3.7328029      0.099999998    8213.5863    
     11000   291.90461      517.61973      4.9983114     -25.589983      40.518499      604.7947      -104.68879     -2.4130074      0.099999998    8213.5863    
     11100   316.46759      507.20841      0.17837509    -21.370733      28.812425      606.43295     -103.01559     -3.8290097      0.099999998    8213.5863    
     11200   320.33658      504.88605      1.6125622     -23.038376      35.516246      596.08675     -103.79783     -1.4932921      0.099999998    8213.5863    
     11300   255.91929      510.03405      1.6873079     -21.28244       40.421912      602.55507     -108.89092     -4.4568788      0.099999998    8213.5863    
     11400   312.12294      508.2009       2.050006      -24.250886      44.194201      606.27208     -115.75103     -4.3134706      0.099999998    8213.5863    
     11500   329.262        490.08993     -0.35317886    -27.903136      30.532626      603.4598      -110.49299     -5.1531902      0.099999998    8213.5863    
     11600   314.25977      486.9797       4.3377271     -25.812478      31.026126      596.48849     -114.81125     -4.2489122      0.099999998    8213.5863    
     11700   288.39475      504.01776      1.3538075     -21.496478      43.209556      600.98229     -115.91282     -4.1185906      0.099999998    8213.5863    
     11800   336.91782      499.2451       0.76622076    -24.06439       24.09778       614.08493     -111.60367     -4.0357654      0.099999998    8213.5863    
     11900   318.59124      510.14188      2.7138756     -25.633029      37.503397      609.79341     -110.30134     -3.9344307      0.099999998    8213.5863    
     12000   288.88465      513.70306      2.9588981     -23.361956      28.603431      623.57913     -112.17643     -5.9000152      0.099999998    8213.5863    
     12100   322.68967      499.40292      2.1301637     -29.432225      31.361457      606.15035     -107.34507     -3.4617566      0.099999998    8213.5863    
     12200   302.75148      505.96659      4.2856635     -31.894539      41.738959      615.29087     -118.39516     -5.059205       0.099999998    8213.5863    
     12300   325.75388      492.7289      -1.5638309     -26.799461      28.21144       601.79779     -104.79619     -4.1208438      0.099999998    8213.5863    
     12400   363.06236      506.89664     -3.7195423     -22.567534      42.516969      600.70434     -107.19808     -2.8395071      0.099999998    8213.5863    
     12500   316.32148      496.23731      1.8209189     -27.012548      35.323976      610.55625     -119.02981     -5.4214758      0.099999998    8213.5863    
     12600   338.52691      501.04593      1.9915937     -31.222451      44.566899      599.29992     -110.04909     -3.5409372      0.099999998    8213.5863    
     12700   323.89508      509.00586     -1.9994797     -31.860971      38.97578       614.44505     -107.28007     -3.2744489      0.099999998    8213.5863    
     12800   351.08934      494.90444      2.3057074     -32.776195      40.904484      595.3523      -106.29873     -4.5831249      0.099999998    8213.5863    
     12900   318.43357      505.93483     -1.1234924     -25.207489      37.783341      607.11396     -109.29477     -3.3367205      0.099999998    8213.5863    
     13000   296.70034      493.40738     -0.28037977    -25.842819      33.653146      590.17381     -101.33693     -2.9594583      0.099999998    8213.5863    
     13100   246.53636      498.64011      2.1726925     -24.384558      36.753537      611.86542     -122.71044     -5.0565433      0.099999998    8213.5863    
     13200   281.65022      492.90892      0.63125732    -27.127948      28.415139      613.2218      -116.43557     -5.7957577      0.099999998    8213.5863    
     13300   292.01476      496.97871     -1.7389917     -34.621085      36.262953      615.79548     -112.90215     -5.8174962      0.099999998    8213.5863    
     13400   279.25995      504.5133       1.6038808     -25.753719      31.998237      621.35568     -119.46165     -5.2291269      0.099999998    8213.5863    
     13500   250.27139      490.38378      1.4967175     -29.928337      26.770247      605.34031     -110.4244      -2.8707537      0.099999998    8213.5863    
     13600   256.75475      495.87502     -1.9376918     -23.501647      27.303767      606.58971     -110.20916     -2.3699633      0.099999998    8213.5863    
     13700   286.55387      499.78622     -1.494067      -27.380514      32.260113      616.20309     -114.58971     -5.2126932      0.099999998    8213.5863    
     13800   265.51393      506.68888      1.8106328     -27.251598      38.750653      617.13021     -120.09136     -3.6596547      0.099999998    8213.5863    
     13900   322.5655       497.69807     -1.0849703     -26.048473      35.490338      595.35033     -101.10575     -4.903407       0.099999998    8213.5863    
     14000   265.47875      489.51528     -2.1047552     -30.746796      45.2317        597.65443     -117.5678      -2.9514968      0.099999998    8213.5863    
     14100   276.8704       486.20999     -0.29918584    -32.907432      37.125754      597.7096      -112.38261     -3.0361394      0.099999998    8213.5863    
     14200   384.29131      482.62891     -1.1682307     -27.775589      27.596434      598.65424     -109.46577     -5.2121781      0.099999998    8213.5863    
     14300   332.62346      502.8087      -4.1941547     -25.212285      36.393732      608.82965     -109.74054     -3.2677062      0.099999998    8213.5863    
     14400   308.78109      510.28724      0.53451211    -24.283453      39.887201      615.04001     -115.82208     -5.0689478      0.099999998    8213.5863    
     14500   325.51744      491.26135     -1.9838787     -26.524967      32.937797      599.50219     -109.76862     -2.9011677      0.099999998    8213.5863    
     14600   386.66083      501.81907      0.42225866    -24.114354      39.041464      603.24297     -112.03055     -4.7427132      0.099999998    8213.5863    
     14700   295.63661      495.79105     -1.9336528     -31.103939      36.016966      621.00014     -123.491       -4.6974526      0.099999998    8213.5863    
     14800   305.79432      490.14118     -2.7145783     -30.066493      28.972237      604.35115     -107.64186     -2.7592778      0.099999998    8213.5863    
     14900   308.68921      494.77033      1.7535815     -27.67488       38.120324      594.94089     -109.01249     -3.357095       0.099999998    8213.5863    
     15000   298.92301      491.88732      2.6630781     -32.234872      31.072424      624.58758     -128.39113     -5.8097535      0.099999998    8213.5863    
     15100   325.92683      497.05528     -0.45724888    -23.807622      35.360532      611.63911     -122.2795      -3.4000008      0.099999998    8213.5863    
     15200   308.20349      494.85079     -2.2451358     -23.804112      39.112871      589.70337     -104.40226     -3.5139444      0.099999998    8213.5863    
     15300   307.69468      506.36344     -2.1346259     -23.472039      41.474031      600.85462     -107.79688     -2.5616674      0.099999998    8213.5863    
     15400   316.33395      498.1963       2.0151365     -28.220707      34.925121      607.80563     -112.4044      -5.9244819      0.099999998    8213.5863    
     15500   297.86811      505.27085      0.16285157    -23.578136      33.802997      614.07187     -114.78421     -4.4045267      0.099999998    8213.5863    
     15600   328.80572      509.59427      1.6099341     -25.584987      32.757721      617.97637     -111.48518     -5.6795905      0.099999998    8213.5863    
     15700   274.68092      500.1167      -2.6145993     -28.737974      36.699652      615.13197     -116.44823     -3.9141179      0.099999998    8213.5863    
     15800   271.06721      501.01101     -0.76708894    -29.699741      40.514526      615.06658     -118.87218     -5.2310737      0.099999998    8213.5863    
     15900   266.61049      494.9369       5.8749585     -31.485924      30.369617      599.89413     -106.02645     -3.6894255      0.099999998    8213.5863    
     16000   285.96759      484.94001      0.41522386    -34.534079      37.753361      600.16934     -115.55759     -3.3062488      0.099999998    8213.5863    
     16100   275.53359      488.17105      2.4607904     -37.800156      38.892872      607.67993     -119.55839     -3.5039894      0.099999998    8213.5863    
     16200   274.19808      492.2033      -1.0959311     -31.057938      32.421904      614.57749     -117.43762     -5.2046011      0.099999998    8213.5863    
     16300   296.39612      479.79659      2.0416358     -35.380577      26.706749      615.26561     -123.63347     -5.2033538      0.099999998    8213.5863    
     16400   314.44925      490.02806      2.0102661     -36.972461      36.341875      613.85307     -119.71922     -5.4854661      0.099999998    8213.5863    
     16500   240.97772      493.02467      4.3604231     -33.592968      34.182897      609.05613     -115.67858     -5.3032231      0.099999998    8213.5863    
     16600   324.59426      505.83638      3.3608172     -28.67779       41.631996      620.6354      -125.60318     -5.5108617      0.099999998    8213.5863    
     16700   318.99106      494.73296      1.4777153     -28.243609      29.756003      610.92865     -113.86855     -5.3172529      0.099999998    8213.5863    
     16800   303.24179      506.11785      1.3441962     -27.94721       41.039319      614.14173     -118.18052     -4.2796525      0.099999998    8213.5863    
     16900   315.33262      494.93205      1.4125281     -30.100592      41.68463       599.96149     -113.62636     -4.3996422      0.099999998    8213.5863    
     17000   304.34677      486.55077      0.39066646    -30.112589      29.888603      599.90796     -109.91146     -3.6124019      0.099999998    8213.5863    
     17100   338.17935      495.85045     -1.7423427     -27.687828      38.137154      609.37281     -117.79752     -4.4318122      0.099999998    8213.5863    
     17200   405.85457      492.09508      4.9827267     -32.977537      28.58364       612.85284     -117.80455     -3.5420381      0.099999998    8213.5863    
     17300   343.28599      489.37466      1.9722815     -36.405371      32.888538      602.51582     -108.34578     -3.2508239      0.099999998    8213.5863    
     17400   305.57989      495.16236      6.307106      -32.828005      35.808337      598.62518     -108.313       -4.437254       0.099999998    8213.5863    
     17500   305.69572      503.61297      3.0449277     -29.731056      39.117218      612.83404     -117.46734     -4.1848222      0.099999998    8213.5863    
     17600   287.43525      500.28381      0.72092074    -29.408148      38.531243      596.71731     -102.85593     -3.4215912      0.099999998    8213.5863    
     17700   258.49897      495.77748      4.6873077     -25.525284      37.944722      614.90895     -129.85082     -6.3874001      0.099999998    8213.5863    
     17800   248.26054      498.06998      0.97696923    -25.735798      30.694161      616.71615     -119.29881     -5.2826881      0.099999998    8213.5863    
     17900   263.25645      498.56145      0.68139752    -27.950278      32.862573      610.53013     -113.37041     -4.1919637      0.099999998    8213.5863    
     18000   292.26297      486.14619     -1.2497527     -29.420181      36.502859      601.10578     -117.27295     -3.5195607      0.099999998    8213.5863    
     18100   366.42967      489.27627      0.67273588    -28.103149      29.187071      609.36979     -116.42511     -5.4250614      0.099999998    8213.5863    
     18200   285.83339      497.77085     -1.162185      -28.683097      35.521618      604.90847     -109.05933     -3.7546279      0.099999998    8213.5863    
     18300   283.04687      483.55651      0.9311712     -28.603547      30.718343      595.19304     -111.03532     -3.6471662      0.099999998    8213.5863    
     18400   309.52284      489.71265      0.70443223    -27.417217      30.677931      606.47242     -116.55993     -4.1649807      0.099999998    8213.5863    
     18500   313.4817       491.24686      2.8873349     -31.187558      36.686458      603.24987     -116.85513     -3.5341134      0.099999998    8213.5863    
     18600   313.52807      495.80937      0.22151376    -22.384344      29.538209      606.64316     -112.3818      -5.8273713      0.099999998    8213.5863    
     18700   325.32616      503.67557      0.57761579    -29.054456      46.50989       607.77844     -117.74138     -4.3945403      0.099999998    8213.5863    
     18800   334.09546      483.92293      3.8335371     -28.926556      20.814129      605.91928     -113.74697     -3.9704971      0.099999998    8213.5863    
     18900   336.93386      495.21658     -1.1479368     -22.214491      30.962106      625.08858     -133.09091     -4.3807701      0.099999998    8213.5863    
     19000   270.97674      511.62075     -2.0198866     -21.915647      35.896049      606.72363     -102.89265     -4.1707438      0.099999998    8213.5863    
     19100   289.23544      500.90634      1.7109521     -27.561996      37.454029      607.03561     -114.05231     -3.6799521      0.099999998    8213.5863    
     19200   367.95056      490.50625     -2.0575461     -30.706217      31.394707      608.45811     -112.51823     -4.0645788      0.099999998    8213.5863    
     19300   333.6957       500.67385      0.8247325     -28.179644      34.123031      614.54635     -117.00178     -3.638839       0.099999998    8213.5863    
     19400   314.67446      495.51479      2.1926159     -31.320076      37.57036       599.66112     -107.92033     -4.6688955      0.099999998    8213.5863    
     19500   267.06787      503.54245     -3.162548      -25.583106      29.321773      614.66864     -107.6744      -4.0279058      0.099999998    8213.5863    
     19600   259.62238      503.8033       2.0566169     -20.527555      42.029442      607.39394     -122.71417     -4.4349745      0.099999998    8213.5863    
     19700   281.90275      507.21261     -2.7209865     -15.170045      33.229787      619.70381     -121.56152     -6.2684283      0.099999998    8213.5863    
     19800   261.27493      506.13968     -0.80537361    -24.968806      44.650718      602.82448     -109.63206     -5.9292804      0.099999998    8213.5863    
     19900   296.27025      498.67326      1.632771      -22.963649      31.900196      610.40074     -117.93555     -4.3612421      0.099999998    8213.5863    
     20000   269.71722      506.5308      -2.7318318     -18.986662      43.030433      603.7784      -115.64942     -2.910123       0.099999998    8213.5863    
     20030   295.09901      508.40655      0.95783783    -18.68581       28.548796      616.6741      -114.40191     -4.6864604      0.099999998    8213.5863    
Loop time of 2.49822 on 6 procs for 20000 steps with 74 atoms

Performance: 691.693 ns/day, 0.035 hours/ns, 8005.708 timesteps/s, 592.422 katom-step/s
98.1% CPU use with 6 MPI tasks x no OpenMP threads

MPI task timing breakdown:
Section |  min time  |  avg time  |  max time  |%varavg| %total
---------------------------------------------------------------
Pair    | 0.0035136  | 0.07435    | 0.14921    |  22.0 |  2.98
Bond    | 0.0066425  | 0.52465    | 1.543      |  75.3 | 21.00
Neigh   | 0.009191   | 0.0095115  | 0.0097172  |   0.2 |  0.38
Comm    | 0.6959     | 1.6088     | 2.1532     |  39.0 | 64.40
Output  | 0.0053673  | 0.0089343  | 0.015292   |   4.1 |  0.36
Modify  | 0.0043647  | 0.016893   | 0.038243   |   9.0 |  0.68
Other   |            | 0.2551     |            |       | 10.21

Nlocal:        12.3333 ave          40 max           0 min
Histogram: 2 0 1 2 0 0 0 0 0 1
Nghost:        490.667 ave         714 max         328 min
Histogram: 1 2 0 1 0 0 0 1 0 1
Neighs:        415.167 ave         779 max           0 min
Histogram: 2 0 1 0 0 0 0 0 0 3

Total # of neighbors = 2491
Ave neighs/atom = 33.662162
Ave special neighs/atom = 13.972973
Neighbor list builds = 153
Dangerous builds = 0
unfix Langevin
unfix moveLimit



fix 		relax all npt temp 300.0 300.0 100 iso 1.0 1.0 1000
run 1000
Generated 28 of 28 mixed pair_coeff terms from sixthpower/geometric mixing rule
Per MPI rank memory allocation (min/avg/max) = 27.73 | 28.06 | 28.39 Mbytes
   Step          Temp          PotEng         E_vdwl         E_coul         E_bond        E_angle        E_dihed        E_impro        Density         Volume    
     20030   295.09901      508.40655      0.95783783    -18.68581       28.548796      616.6741      -114.40191     -4.6864604      0.099999998    8213.5863    
     20100   301.18415      502.75494      0.10781943    -24.882345      31.84189       605.63317     -105.91271     -4.0328893      0.099797706    8230.2354    
     20200   289.07693      504.40629     -0.95247983    -24.327834      44.453955      602.02232     -112.39467     -4.3949955      0.098868056    8307.6238    
     20300   281.05509      500.21089      2.5945278     -18.526317      24.597893      600.40893     -103.83775     -5.0263948      0.098649453    8326.0331    
     20400   268.27162      494.3986      -0.11906104    -23.258086      31.848391      612.51329     -122.11342     -4.4725199      0.097675876    8409.0222    
     20500   297.2326       506.46889      1.0356292     -16.011305      33.697279      617.72721     -124.15081     -5.8291144      0.097713544    8405.7806    
     20600   304.93839      508.63277     -4.4252904     -21.539131      42.281492      601.47609     -104.53467     -4.6257189      0.09688729     8477.465     
     20700   306.76415      499.84549      1.8886625     -28.639235      39.14674       605.47962     -113.76115     -4.2691486      0.097147036    8454.7984    
     20800   300.54266      494.35812      0.35114952    -27.432625      30.683897      619.08758     -122.92293     -5.4089539      0.09694903     8472.0663    
     20900   291.93349      487.4502      -2.2684101     -26.516019      37.008293      597.93907     -112.83323     -5.8795036      0.09696692     8470.5033    
     21000   266.2352       488.05339      1.4543553     -26.18099       29.444819      591.87243     -104.37667     -4.1605501      0.097363956    8435.9618    
     21030   238.42253      489.39723      0.067633411   -28.964732      38.659583      594.04319     -109.84526     -4.5631924      0.097471939    8426.6161    
Loop time of 0.150384 on 6 procs for 1000 steps with 74 atoms

Performance: 574.529 ns/day, 0.042 hours/ns, 6649.645 timesteps/s, 492.074 katom-step/s
99.9% CPU use with 6 MPI tasks x no OpenMP threads

MPI task timing breakdown:
Section |  min time  |  avg time  |  max time  |%varavg| %total
---------------------------------------------------------------
Pair    | 0.0015179  | 0.0054545  | 0.0088875  |   4.3 |  3.63
Bond    | 0.00022196 | 0.028201   | 0.095704   |  19.8 | 18.75
Neigh   | 0.0006074  | 0.00061928 | 0.00063451 |   0.0 |  0.41
Comm    | 0.030275   | 0.086645   | 0.1227     |  10.8 | 57.62
Output  | 0.00026306 | 0.0003396  | 0.00071825 |   0.0 |  0.23
Modify  | 0.012674   | 0.026113   | 0.075135   |  13.7 | 17.36
Other   |            | 0.003011   |            |       |  2.00

Nlocal:        12.3333 ave          39 max           0 min
Histogram: 2 1 0 1 1 0 0 0 0 1
Nghost:        513.333 ave         758 max         336 min
Histogram: 1 1 1 0 1 0 1 0 0 1
Neighs:          408.5 ave        1010 max           0 min
Histogram: 2 1 0 0 0 1 0 1 0 1

Total # of neighbors = 2451
Ave neighs/atom = 33.121622
Ave special neighs/atom = 13.972973
Neighbor list builds = 9
Dangerous builds = 0
unfix relax


molecule 	pre cleaned_pre-mol
Read molecule template pre:
  1 molecules
  0 fragments
  33 atoms with max type 7
  35 bonds with max type 13
  70 angles with max type 35
  112 dihedrals with max type 66
  44 impropers with max type 38
molecule	post cleaned_post-mol
Read molecule template post:
  1 molecules
  0 fragments
  33 atoms with max type 7
  35 bonds with max type 9
  70 angles with max type 33
  115 dihedrals with max type 67
  44 impropers with max type 31

fix		fxrct all bond/react stabilization yes statted_grp .03 		 react rxn1 all 100 0.0 10.0 pre post semi.map stabilize_steps 2000 molecule inter
dynamic group bond_react_MASTER_group defined
dynamic group statted_grp_REACT defined
fix 		npt statted_grp_REACT npt temp 300.0 300.0 100 iso 1.0 1.0 1000
fix 		reacted bond_react_MASTER_group temp/rescale 1 300.0 300.0 1 1


thermo_style custom step temp pe evdwl ecoul ebond eangle edihed eimp density vol f_fxrct[1]
thermo          100


compute 1 all property/local btype batom1 batom2

compute 2 all stress/atom NULL
fix 5 all ave/atom 1 500 1000 c_2[*]

dump DumpPos all custom 1000 dump.pos id type x y z mol  f_5[*]
dump DumpBond all local 1000 bonds.dump index c_1[*]

run 10000

CITE-CITE-CITE-CITE-CITE-CITE-CITE-CITE-CITE-CITE-CITE-CITE-CITE

Your simulation uses code contributions which should be cited:

- fix bond/react: reacter.org doi:10.1016/j.polymer.2017.09.038, doi:10.1021/acs.macromol.0c02012

@Article{Gissinger17,
 author = {J. R. Gissinger and B. D. Jensen and K. E. Wise},
 title = {Modeling Chemical Reactions in Classical Molecular Dynamics Simulations},
 journal = {Polymer},
 year =    2017,
 volume =  128,
 pages =   {211--217}
}

@Article{Gissinger20,
 author = {J. R. Gissinger, B. D. Jensen, K. E. Wise},
 title = {{REACTER}: A Heuristic Method for Reactive Molecular Dynamics},
 journal = {Macromolecules},
 year =    2020,
 volume =  53,
 number =  22,
 pages =   {9953--9961}
}

CITE-CITE-CITE-CITE-CITE-CITE-CITE-CITE-CITE-CITE-CITE-CITE-CITE

Generated 28 of 28 mixed pair_coeff terms from sixthpower/geometric mixing rule
Neighbor list info ...
  update: every = 1 steps, delay = 0 steps, check = yes
  max neighbors/atom: 2000, page size: 100000
  master list distance cutoff = 12
  ghost atom cutoff = 12
  binsize = 6, bins = 4 4 4
  2 neighbor lists, perpetual/occasional/extra = 1 1 0
  (1) pair lj/class2/coul/cut, perpetual
      attributes: half, newton on
      pair build: half/bin/newton
      stencil: half/bin/3d
      bin: standard
  (2) fix bond/react, occasional, copy from (1)
      attributes: half, newton on
      pair build: copy
      stencil: none
      bin: none
Per MPI rank memory allocation (min/avg/max) = 32.69 | 33.25 | 33.71 Mbytes
   Step          Temp          PotEng         E_vdwl         E_coul         E_bond        E_angle        E_dihed        E_impro        Density         Volume       f_fxrct[1]  
     21030   238.42253      489.39723      0.067633411   -28.964732      38.659583      594.04319     -109.84526     -4.5631924      0.097471939    8426.6161      0            
     21100   251.0232       491.80209     -1.2189582     -28.080222      26.466806      602.9473      -104.7462      -3.5666267      0.097534222    8421.2351      0            
     21200   316.7078       492.5655      -3.2749564     -27.919577      40.148196      609.52681     -120.38678     -5.5281842      0.097723876    8404.8918      0            
     21300   311.83356      496.53377     -1.34064       -29.462817      38.323389      615.57344     -121.06609     -5.4935062      0.097464681    8427.2436      0            
     21400   272.18005      504.67764     -1.4542666     -26.270706      31.042814      609.97796     -104.66946     -3.9487076      0.098001792    8381.0571      0            
     21500   299.87486      495.05927      0.39761062    -28.131026      42.086936      602.16917     -116.69607     -4.7673485      0.098239574    8360.7713      0            
     21600   277.63574      488.70738     -4.0442307     -27.149089      35.340404      604.20938     -114.99978     -4.6493052      0.099207712    8279.1811      0            
     21700   275.73592      483.34551     -2.7388465     -26.302199      25.918521      602.04872     -111.59979     -3.9809001      0.10036794     8183.4762      0            
     21800   288.04641      493.23666     -1.9153821     -27.059224      41.391035      599.38522     -113.68059     -4.8843943      0.101538       8089.1745      0            
     21900   316.09514      498.63901      0.38410232    -26.449348      33.579387      604.40815     -110.46521     -2.8180771      0.10301709     7973.0325      0            
     22000   354.00642      489.37537     -3.6738552     -28.041042      36.575336      600.02421     -111.02445     -4.4848255      0.10214272     8041.284       0            
     22100   310.5406       485.56875     -3.289448      -28.308019      37.828262      594.61694     -111.46263     -3.8163581      0.10139844     8100.3078      0            
     22200   266.95921      491.83815     -4.1602541     -28.295293      26.239396      603.77823     -103.56554     -2.1583915      0.10029284     8189.6033      0            
     22300   311.66394      487.05809     -0.045764028   -28.551461      34.16841       599.81503     -113.83976     -4.4883711      0.098715244    8320.484       0            
     22400   320.5192       490.93386     -0.0026124391  -27.260468      38.672544      596.29249     -112.20282     -4.5652722      0.097134641    8455.8773      0            
     22500   322.46021      495.89541     -4.6915228     -22.83436       34.018747      595.14266     -101.35397     -4.3861379      0.094664489    8676.5229      0            
     22600   300.13699      495.80223     -0.22628767    -27.173323      29.461305      610.99289     -113.17019     -4.082162       0.093508569    8783.7791      0            
     22700   289.69088      480.14149     -2.3105971     -28.91259       38.949752      579.70534     -103.45414     -3.8362737      0.091553956    8971.3066      0            
     22800   257.65527      487.34464     -0.83887416    -27.560026      28.092869      603.84435     -111.61625     -4.5774399      0.089898141    9136.5472      0            
     22900   301.16253      491.49195     -1.8830379     -26.778262      28.895163      606.64016     -111.33285     -4.0492282      0.088012286    9332.3176      0            
     23000   375.65223      484.26857      0.92331901    -26.558799      34.710795      589.71326     -110.69386     -3.826157       0.085956685    9555.4942      0            
     23100   296.55362      496.99955     -2.7336792     -29.782341      34.544719      615.34783     -117.28603     -3.0909477      0.083712984    9811.6035      0            
     23200   297.76389      491.98922      1.8588457     -31.219968      29.438262      609.25762     -113.70779     -3.637743       0.081297865    10103.077      0            
     23300   299.48629      476.7579       0.38374683    -28.186409      23.881912      598.58994     -113.31124     -4.6000536      0.078830349    10419.32       0            
     23400   278.16529      484.77135     -2.9874044     -25.047309      35.712846      592.55672     -111.43988     -4.023625       0.076009881    10805.945      0            
     23500   276.64086      494.15783     -3.298946      -27.370052      31.045712      601.78351     -104.48679     -3.515599       0.073550134    11167.33       0            
     23600   284.52484      502.0372      -0.52941759    -24.135571      29.902715      606.61354     -106.0048      -3.8092645      0.07060785     11632.681      0            
     23700   325.75868      496.66354     -4.3743467     -22.770168      36.074583      594.03465     -101.65238     -4.6488007      0.067097201    12241.325      0            
     23800   330.31264      494.95636     -2.2642182     -26.983497      35.069566      614.56107     -120.32538     -5.1011779      0.063935052    12846.765      0            
     23900   311.40431      495.16333      2.3969666     -21.688903      32.020491      608.06739     -121.79482     -3.8377934      0.061457983    13364.555      0            
     24000   257.28684      488.49939     -3.1742932     -28.865437      35.896442      598.47099     -108.65075     -5.1775587      0.059063936    13906.263      0            
     24100   215.94843      503.0869       2.7220039     -25.794531      29.823372      625.83703     -124.35074     -5.1502315      0.057877444    14191.342      0            
     24200   287.8917       495.01564     -1.1921477     -30.986382      36.796386      612.30351     -116.63476     -5.2709655      0.056234111    14606.057      0            
     24300   322.733        492.44309     -2.9085508     -28.653945      37.785622      603.50715     -114.08883     -3.1983521      0.055112243    14903.378      0            
     24400   257.59379      508.50975     -2.0255458     -23.262121      39.999333      605.13754     -107.24093     -4.0985184      0.053981023    15215.692      0            
     24500   288.43625      498.21852     -4.1518256     -25.386642      34.536914      606.46794     -109.91875     -3.3291193      0.052387097    15678.643      0            
     24600   285.84152      494.986       -3.1982416     -23.854891      33.816367      599.37476     -106.36225     -4.7897412      0.051284905    16015.602      0            
     24700   267.1759       499.97434     -0.13924499    -24.786585      37.823544      590.06391     -99.931839     -3.0554414      0.050016983    16421.594      0            
     24800   315.02675      505.28703      0.50255375    -21.79988       38.323751      611.41771     -117.21121     -5.945888       0.049137302    16715.582      0            
     24900   318.34773      509.08837      0.13067101    -23.505512      35.090434      615.475       -113.59164     -4.5105789      0.048541257    16920.835      0            
     25000   322.01431      500.10682     -1.9832001     -25.054755      31.024931      605.3557      -105.41534     -3.820519       0.047893993    17149.512      0            
     25100   287.28119      491.81771     -0.46410717    -24.305172      25.425267      601.22991     -107.69483     -2.3733596      0.047482354    17298.186      0            
     25200   282.10072      490.07895      1.2938593     -26.802935      35.980567      600.54415     -117.68594     -3.2507519      0.047429791    17317.357      0            
     25300   295.56812      493.09253     -9.3526038     -25.132564      39.164237      605.69902     -114.74283     -2.5427269      0.047135882    17425.336      0            
     25400   344.62788      493.27896     -2.7819182     -25.559475      38.560724      610.33402     -123.91198     -3.36241        0.046746839    17570.356      0            
     25500   290.9733       504.81069     -1.4673152     -25.859571      36.221075      615.35771     -115.49916     -3.9420511      0.046155098    17795.621      0            
     25600   266.36124      492.2454      -2.7441144     -26.235659      31.600865      605.9828      -113.36139     -2.9971035      0.044851764    18312.738      0            
     25700   252.63176      486.47852     -2.3793913     -29.638192      36.571782      613.10732     -126.57452     -4.6084803      0.043668952    18808.755      0            
     25800   277.18579      490.02265     -3.9766581     -27.742218      31.629241      600.98739     -106.60099     -4.2741132      0.042626614    19268.681      0            
     25900   359.76254      482.76022     -1.8400095     -24.855199      25.316424      596.53087     -107.88399     -4.507879       0.041933862    19587.001      0            
     26000   339.68599      492.50809     -4.9665425     -23.716483      33.661536      590.00484     -99.588899     -2.8863533      0.041108627    19980.201      0            
     26100   298.34479      499.93969     -1.0113379     -25.362581      37.962413      602.14075     -110.84527     -2.9442838      0.040763901    20149.166      0            
     26200   304.79373      497.1583      -6.3926056     -25.286689      32.147938      605.6904      -104.40601     -4.5947272      0.040034786    20516.124      0            
     26300   273.5988       498.56633     -1.815905      -27.945186      39.5827        598.47716     -105.96416     -3.7682832      0.039913261    20578.589      0            
     26400   250.60916      500.91402     -1.6521527     -25.757694      35.547304      613.23163     -117.05704     -3.3980281      0.039910496    20580.015      0            
     26500   293.23171      488.56267     -3.6533794     -26.186536      32.733518      590.01745     -100.3951      -3.9532827      0.039865741    20603.119      0            
     26600   273.11425      488.42031     -6.2852204     -27.032402      33.726103      603.7091      -111.94427     -3.7530053      0.039714146    20681.764      0            
     26700   312.72777      479.64827     -1.6337722     -28.511864      30.768407      588.66209     -106.17289     -3.4637101      0.039675894    20701.704      0            
     26800   302.50871      489.74665     -2.4225206     -28.790755      30.896444      608.38725     -114.16334     -4.1604245      0.039325829    20885.983      0            
     26900   297.59326      503.42038     -0.091620438   -25.779079      37.192934      619.5208      -121.75079     -5.671858       0.03898329     21069.504      0            
     27000   325.83931      498.97262     -3.5325102     -23.010109      30.434623      602.5953      -103.2785      -4.2361887      0.03831267     21438.302      0            
     27100   265.38608      497.03856     -7.2654104     -25.289163      34.969088      604.87907     -107.32379     -2.9312292      0.037894762    21674.727      0            
     27200   297.88634      480.60772     -4.2716554     -23.404676      26.058371      603.68548     -117.28017     -4.1796192      0.037278251    22033.185      0            
     27300   284.78059      488.90352     -0.18092977    -26.25344       31.331797      612.95172     -123.56881     -5.3768116      0.036645266    22413.771      0            
     27400   298.97154      496.15554     -1.0247303     -25.552473      34.10027       599.0279      -106.15419     -4.2412464      0.035940088    22853.55       0            
     27500   312.14162      496.76004      1.1790141     -28.003178      34.629413      598.42678     -106.15695     -3.3150353      0.03498759     23475.712      0            
     27600   289.42262      496.35231     -2.2705034     -29.675276      39.268984      601.03028     -108.1992      -3.8019741      0.034081715    24099.686      0            
     27700   278.43021      497.63481     -1.8545707     -29.868512      44.081735      604.51969     -113.95585     -5.2876777      0.03313503     24788.226      0            
     27800   271.10125      503.72112      4.4859758     -29.07043       37.309476      617.29279     -120.60136     -5.6953333      0.032489493    25280.746      0            
     27900   298.80072      494.44129      4.2598928     -30.375964      42.636769      594.41532     -111.09742     -5.3973094      0.031427218    26135.263      0            
     28000   319.74828      493.43631     -0.1552538     -27.854122      38.996792      600.81062     -114.28753     -4.0741929      0.030393426    27024.22       0            
     28100   286.39814      496.78692     -0.58946997    -29.255584      35.565412      618.42039     -121.88577     -5.4680578      0.028999529    28323.171      0            
     28200   326.87188      495.24536     -1.2087638     -26.328899      42.306886      607.76815     -122.47893     -4.8130851      0.027549079    29814.377      0            
     28300   312.83585      498.79524      5.265417      -25.88565       37.492804      601.91818     -115.22362     -4.7718866      0.026244452    31296.466      0            
     28400   319.6556       501.07966     -2.6392185     -24.564869      36.49215       610.10935     -114.5932      -3.7245514      0.024972772    32890.166      0            
     28500   341.92718      489.918        0.40371469    -27.107372      30.675499      604.34591     -113.87959     -4.5201655      0.024007023    34213.264      0            
     28600   286.70343      499.32932      4.1552444     -24.626331      42.262655      588.0201      -107.64342     -2.838932       0.023146402    35485.368      0            
     28700   275.19794      499.701        1.4432781     -23.497986      37.043693      607.22253     -118.11644     -4.3940764      0.022567273    36396.007      0            
     28800   292.52009      496.18481     -0.57944283    -23.840817      36.858414      598.71192     -111.31932     -3.6459391      0.021996854    37339.822      0            
     28900   309.23773      504.80909      2.9625936     -23.81462       45.799289      602.38528     -118.87482     -3.6486243      0.02170543     37841.158      0            
     29000   317.57047      507.99983      0.38015633    -24.084044      38.064504      611.69482     -115.1256      -2.9300075      0.021300328    38560.843      0            
     29100   321.73679      501.04079     -2.0935759     -23.258912      39.059215      606.73778     -114.44473     -4.9589823      0.021028939    39058.491      0            
     29200   311.46587      485.46044     -0.50526644    -26.815707      30.586598      606.75017     -120.44677     -4.1085853      0.020757102    39570.004      0            
     29300   266.41279      494.09283     -0.70533075    -27.177116      34.799883      595.03958     -102.90427     -4.9599198      0.020422143    40219.021      0            
     29400   321.75136      487.35924      3.7090475     -28.516054      33.011398      592.29044     -110.37035     -2.7652292      0.0203763      40309.507      0            
     29500   318.01772      494.17861     -0.001208979   -32.435072      28.80999       604.07628     -103.09677     -3.1746073      0.020096319    40871.097      0            
     29600   325.92805      504.73878      2.2753494     -29.7077        33.544219      627.19847     -122.88954     -5.682015       0.019869392    41337.883      0            
     29700   383.02448      504.83793     -3.1693899     -27.725836      43.524893      610.38786     -115.71398     -2.4656198      0.019518661    42080.684      0            
     29800   318.94895      499.96419     -1.5686112     -30.563662      41.774031      600.0287      -106.38491     -3.3213554      0.018992462    43246.557      0            
     29900   310.88918      489.95907     -2.9449285     -28.823607      40.565677      608.26193     -123.98838     -3.1116234      0.01865757     44022.807      0            
     30000   281.09512      488.11243      2.5471409     -30.913613      26.985446      600.70332     -108.30873     -2.9011366      0.018261282    44978.146      0            
     30100   282.37831      491.97866      0.78725229    -32.229083      33.438008      608.36491     -114.7917      -3.5907309      0.017860836    45986.572      0            
     30200   291.50118      505.0123      -0.80214897    -26.65916       37.475289      613.35351     -114.66754     -3.6876591      0.017438566    47100.122      0            
     30300   329.10024      499.58207      3.5976477     -29.434457      33.224894      616.48267     -119.66265     -4.6260384      0.017145204    47906.028      0            
     30400   317.45711      495.09831      1.1264777     -30.941502      41.996003      602.06279     -114.63166     -4.513802       0.016695384    49196.75       0            
     30500   253.14889      490.7114       5.7167215     -33.750345      37.415043      603.19834     -116.90398     -4.9643781      0.016497202    49787.753      0            
     30600   295.96142      478.35647      1.9784401     -33.442983      35.427163      593.04412     -115.57818     -3.0720892      0.016293813    50409.234      0            
     30700   274.11473      497.53808     -0.62032543    -24.416042      28.90469       609.84375     -113.16373     -3.0102602      0.016129173    50923.789      0            
     30800   310.94414      501.34885      6.2547824     -24.592596      32.30049       602.37563     -110.80284     -4.1866113      0.016069049    51114.325      0            
     30900   281.41403      509.27802      6.5767494     -28.92168       28.347538      617.41412     -109.92224     -4.2164647      0.015887331    51698.968      0            
     31000   333.83362      500.86763      5.7175719     -26.535219      35.44514       609.64568     -119.48347     -3.9220768      0.015772639    52074.9        0            
     31030   305.87912      504.71965      3.7749645     -25.204653      29.113633      615.55758     -113.76632     -4.7555538      0.015734561    52200.923      0            
Loop time of 2.1087 on 6 procs for 10000 steps with 74 atoms

Performance: 409.730 ns/day, 0.059 hours/ns, 4742.249 timesteps/s, 350.926 katom-step/s
99.1% CPU use with 6 MPI tasks x no OpenMP threads

MPI task timing breakdown:
Section |  min time  |  avg time  |  max time  |%varavg| %total
---------------------------------------------------------------
Pair    | 0.0083749  | 0.066707   | 0.1794     |  29.3 |  3.16
Bond    | 0.0074619  | 0.30433    | 1.2119     |  81.8 | 14.43
Neigh   | 0.010529   | 0.010846   | 0.011143   |   0.2 |  0.51
Comm    | 0.18974    | 0.86377    | 1.5342     |  58.3 | 40.96
Output  | 0.0067757  | 0.0080182  | 0.013332   |   2.7 |  0.38
Modify  | 0.4819     | 0.82815    | 1.8374     |  55.3 | 39.27
Other   |            | 0.02688    |            |       |  1.27

Nlocal:        12.3333 ave          51 max           0 min
Histogram: 4 0 0 0 1 0 0 0 0 1
Nghost:        152.167 ave         208 max          72 min
Histogram: 1 0 1 1 0 0 0 0 0 3
Neighs:          279.5 ave         908 max           0 min
Histogram: 4 0 0 0 0 0 0 0 1 1

Total # of neighbors = 1677
Ave neighs/atom = 22.662162
Ave special neighs/atom = 13.972973
Neighbor list builds = 132
Dangerous builds = 0

unfix reacted
unfix npt
unfix fxrct


fix		fxrct all bond/react stabilization yes statted_grp .03 		 react rxn1 all 100 0.0 5.0 pre post semi.map stabilize_steps 2000
dynamic group bond_react_MASTER_group defined
dynamic group statted_grp_REACT defined
fix 		npt statted_grp_REACT npt temp 300.0 300.0 100 iso 1.0 1.0 1000
fix 		reacted bond_react_MASTER_group temp/rescale 1 300.0 300.0 1 1

run 20000
Generated 28 of 28 mixed pair_coeff terms from sixthpower/geometric mixing rule
Neighbor list info ...
  update: every = 1 steps, delay = 0 steps, check = yes
  max neighbors/atom: 2000, page size: 100000
  master list distance cutoff = 12
  ghost atom cutoff = 12
  binsize = 6, bins = 7 7 7
  2 neighbor lists, perpetual/occasional/extra = 1 1 0
  (1) pair lj/class2/coul/cut, perpetual
      attributes: half, newton on
      pair build: half/bin/newton
      stencil: half/bin/3d
      bin: standard
  (2) fix bond/react, occasional, copy from (1)
      attributes: half, newton on
      pair build: copy
      stencil: none
      bin: none
Per MPI rank memory allocation (min/avg/max) = 33.68 | 35.24 | 36.66 Mbytes
   Step          Temp          PotEng         E_vdwl         E_coul         E_bond        E_angle        E_dihed        E_impro        Density         Volume       f_fxrct[1]  
     31030   305.87912      504.71965      3.7749645     -25.204653      29.113633      615.55758     -113.76632     -4.7555538      0.015734561    52200.923      0            
     31100   265.723        511.14901      3.7019303     -26.192377      32.755808      613.22754     -107.8766      -4.4672911      0.015742149    52175.763      0            
     31200   324.83997      496.27555     -0.70540966    -25.848143      31.706998      605.21806     -110.99282     -3.1031441      0.015828391    51891.479      0            
     31300   300.28762      490.63409      1.9231418     -26.035013      30.049321      601.44822     -112.96537     -3.7862101      0.015832924    51876.622      0            
     31400   248.3038       498.80985      7.4576776     -22.621542      31.944971      606.49761     -120.90013     -3.5687419      0.01593172     51554.925      0            
     31500   324.93206      494.61069      2.0769438     -25.860969      31.607583      594.90113     -103.5234      -4.5905977      0.015949142    51498.607      0            
     31600   289.14495      508.32069      0.38309427    -24.613692      36.153173      621.22929     -120.48648     -4.3446918      0.016046792    51185.221      0            
     31700   310.49178      502.40104      4.5021358     -26.611708      35.651078      611.5122      -118.34164     -4.3110302      0.016181277    50759.815      0            
     31800   275.76558      502.81923      3.3339671     -29.820091      37.639617      612.48053     -116.14844     -4.6663543      0.016210256    50669.07       0            
     31900   282.7934       490.3257       5.5177193     -29.186677      35.50557       596.92308     -115.16833     -3.2656614      0.016410384    50051.152      0            
     32000   225.89165      493.37338      0.41568937    -28.990577      34.069111      598.69333     -107.09678     -3.7173977      0.016486544    49819.939      0            
     32100   234.63681      500.31365      9.1993123     -31.109114      40.261327      599.98738     -113.76432     -4.2609422      0.016740284    49064.796      0            
     32200   294.37424      502.83982      4.5164434     -29.012924      31.758298      609.49362     -109.87244     -4.0431762      0.016972247    48394.216      0            
     32300   312.98085      505.21165      2.6113874     -27.116187      46.034295      614.89156     -125.53455     -5.6748484      0.01725472     47601.967      0            
     32400   321.6588       504.78395      4.207436      -27.815982      41.996564      602.75772     -111.18849     -5.1733001      0.017657405    46516.382      0            
     32500   281.47057      505.10476     -0.30864641    -26.842683      35.471065      614.88792     -115.03494     -3.0679617      0.018142358    45272.981      0            
     32600   274.03469      497.98389      3.1815639     -28.453951      31.394701      610.89956     -114.59649     -4.4414924      0.018743411    43821.191      0            
     32700   279.20142      492.70083      1.7161987     -25.255667      35.913408      607.42107     -122.9689      -4.1252876      0.019346026    42456.193      0            
     32800   318.68891      500.1024       7.9805814     -26.01759       37.219922      598.56706     -113.02813     -4.6194449      0.020290372    40480.215      0            
     32900   294.90681      512.30884      3.9920185     -26.615721      35.513615      609.87145     -106.78525     -3.6672706      0.021255776    38641.666      0            
     33000   314.89557      506.69588      3.2381313     -25.699565      37.304735      614.36125     -117.00966     -5.4990222      0.022463488    36564.163      0            
     33100   271.83924      503.97373      5.8837156     -26.791484      45.195525      598.31707     -112.04506     -6.5860429      0.023772069    34551.414      0            
     33200   265.8111       500.18844      0.14748202    -25.157621      38.113385      598.0493      -106.90637     -4.0577432      0.024944929    32926.877      0            
     33300   295.96955      497.61362      5.2476016     -26.458878      39.14735       597.59633     -113.6068      -4.3119901      0.026263082    31274.266      0            
     33400   333.2133       499.01958      8.3523635     -25.743815      39.385549      599.75224     -118.5404      -4.1863551      0.027277554    30111.154      0            
     33500   341.27292      514.97703      4.3230865     -26.285719      37.742869      618.03242     -113.86598     -4.9696394      0.028170682    29156.505      0            
     33600   407.29944      515.34898      4.5782576     -26.854632      40.416531      621.43343     -119.44987     -4.7747349      0.028911833    28409.081      0            
     33700   357.74039      508.10771      1.7232698     -23.39842       38.228965      625.72871     -129.09221     -5.082609       0.029384883    27951.74       0            
     33800   317.89337      501.61235      6.4298493     -24.927334      31.515361      604.88062     -112.29562     -3.9905208      0.029766642    27593.257      0            
     33900   315.05703      493.22709      4.0313816     -25.058878      28.219846      596.43502     -107.4311      -2.9691751      0.030073281    27311.905      0            
     34000   241.54359      507.34026      4.2470524     -25.503832      35.640973      611.9905      -115.51642     -3.5180163      0.030408305    27010.996      0            
     34100   312.54438      500.67215      1.6271714     -26.018115      31.042159      601.49576     -104.23142     -3.2434062      0.030503539    26926.666      0            
     34200   348.0497       503.72361      3.8473279     -25.932536      36.57545       600.75548     -108.43051     -3.0915971      0.030970937    26520.303      0            
     34300   311.87547      510.72969      1.448457      -24.929972      40.868326      614.49813     -117.41601     -3.739241       0.031115045    26397.474      0            
     34400   298.45564      503.26757      3.3094664     -25.220834      28.790562      604.48776     -103.66819     -4.4311915      0.031540777    26041.166      0            
     34500   319.82234      492.5465       6.2721938     -32.144619      31.4425        618.51247     -126.0498      -5.4862381      0.031980938    25682.756      0            
     34600   292.37632      500.32854      2.7380638     -29.218089      34.137948      611.48658     -115.86068     -2.9552751      0.032106173    25582.576      0            
     34700   292.56846      503.09947      9.6771615     -32.091509      40.933206      616.86852     -126.4083      -5.8796005      0.032728942    25095.788      0            
     34800   308.00564      500.80667      5.3499884     -28.59808       31.536325      601.57363     -104.47749     -4.5777076      0.033022176    24872.94       0            
     34900   313.27372      496.60839      3.367366      -26.470049      38.519792      595.73068     -110.99493     -3.5444716      0.0336328      24421.357      0            
     35000   274.30549      499.69768      4.190241      -27.715552      31.559145      613.70011     -118.31496     -3.7213032      0.034287097    23955.327      0            
     35100   282.44826      495.49257      1.6685722     -26.783592      35.79607       607.46341     -118.86413     -3.7877572      0.034791973    23607.704      0            
     35200   301.19091      499.92892      6.8009142     -27.307107      34.469031      600.92071     -109.74143     -5.2131998      0.035534068    23114.68       0            
     35300   347.67991      503.71769      5.7908378     -25.003258      39.03996       609.57846     -122.53274     -3.1555669      0.036103759    22749.947      0            
     35400   335.67652      504.90431      3.0901989     -25.652894      28.805315      640.69732     -136.40769     -5.6279353      0.03677492     22334.749      0            
     35500   320.32545      500.53768      7.3291406     -26.03564       27.515054      600.28762     -105.37601     -3.1824799      0.037304091    22017.923      0            
     35600   260.90183      504.15528      4.8885137     -24.999255      30.06069       612.56179     -114.44109     -3.9153721      0.037832499    21710.398      0            
     35700   220.46916      513.33597      3.7588918     -27.290998      38.05773       624.78976     -120.09954     -5.8798722      0.038366439    21408.257      0            
     35800   295.59102      500.67239      2.3047921     -25.666803      39.0398        597.41204     -108.15617     -4.2612685      0.038937528    21094.267      0            
     35900   300.96672      506.85015      5.4138563     -26.930906      39.520276      599.35001     -106.62875     -3.8743455      0.03954632     20769.533      0            
     36000   365.98474      497.90373      1.4158724     -26.762942      30.893316      614.5312      -117.44174     -4.7319784      0.040230645    20416.243      0            
     36100   314.56053      503.26461      7.0980702     -27.201445      35.331151      612.11389     -118.82516     -5.251894       0.041075746    19996.195      0            
     36200   263.93416      499.14727      8.7248291     -27.529755      34.604485      614.76245     -124.08017     -7.3345726      0.041906721    19599.687      0            
     36300   283.30032      494.7559       2.0620932     -26.040142      32.717583      603.93488     -113.47427     -4.4442357      0.042794217    19193.215      0            
     36400   265.41754      508.34474      2.5147599     -28.893375      36.588764      612.51859     -111.99392     -2.390083       0.043875822    18720.073      0            
     36500   340.12399      499.29218      5.5110242     -28.638093      39.455109      603.35311     -115.90372     -4.4852502      0.04478948     18338.204      0            
     36600   306.41362      506.37765      7.830942      -25.681968      37.703819      611.10773     -120.17437     -4.4085059      0.046063301    17831.085      0            
     36700   283.18686      508.20463      1.9957803     -24.484461      44.151577      597.46196     -107.20427     -3.7159623      0.047157916    17417.195      0            
     36800   313.22669      499.44813      4.2108931     -25.331072      35.228684      600.04425     -110.62686     -4.0777587      0.048578294    16907.934      0            
     36900   336.92155      496.62547      2.9814405     -24.063326      30.241042      615.62954     -122.67637     -5.4868608      0.049963544    16439.158      0            
     37000   320.99793      508.37813      2.6331702     -21.633503      31.072793      609.59926     -109.5493      -3.7442887      0.051252976    16025.579      0            
     37100   356.44286      504.51599      5.885593      -23.434444      31.23764       604.8729      -109.82624     -4.2194573      0.052560545    15626.905      0            
     37200   305.04437      501.68363      4.5337644     -28.300961      27.133596      606.89627     -107.05727     -1.5217687      0.053829667    15258.475      0            
     37300   264.50687      503.95833     -1.1607256     -23.332563      30.722794      621.58765     -121.75716     -2.1016603      0.055158092    14890.99       0            
     37400   288.11676      500.13131      7.1323647     -28.113305      39.174045      599.72255     -113.78423     -4.0001112      0.056295876    14590.032      0            
     37500   297.25266      505.17025      7.7954495     -27.428397      31.751876      599.52929     -102.96359     -3.5143782      0.057760738    14220.016      0            
     37600   314.76654      520.35261      2.1465166     -21.91432       41.565345      608.14549     -106.65867     -2.9317483      0.059092886    13899.45       0            
     37700   333.44613      516.92627      6.9117322     -22.351427      32.193139      602.53028     -99.196651     -3.1608066      0.060448313    13587.784      0            
     37800   306.34881      510.50671      1.0521077     -26.325332      38.42135       604.56496     -102.98729     -4.2190767      0.062014907    13244.535      0            
     37900   316.83271      500.48976      4.1332133     -27.586495      26.877463      607.92777     -107.07374     -3.7884435      0.063394263    12956.356      0            
     38000   297.95073      497.95375      3.7205138     -26.762731      33.739015      595.98698     -107.02908     -1.7009418      0.064974825    12641.182      0            
     38100   258.5729       502.18337     -0.7196119     -24.354944      34.289017      600.15276     -105.40049     -1.7833672      0.066296176    12389.231      0            
     38200   289.55829      500.1037       0.050778124   -22.959681      28.202655      610.17655     -112.55234     -2.8142623      0.068097111    12061.578      0            
     38300   333.38804      508.15134      1.1135703     -24.646883      37.08469       618.6055      -119.40757     -4.5979718      0.0693327      11846.627      0            
     38400   312.59931      513.65216      9.9797142     -26.668027      35.441535      623.35135     -124.90033     -3.5520839      0.070846679    11593.467      0            
     38500   305.03661      502.55635      7.1834455     -25.905909      25.049317      615.04484     -115.76243     -3.0529036      0.071750973    11447.352      0            
     38600   335.72759      491.09715      1.7818559     -20.092096      26.269284      596.29733     -108.24711     -4.9121199      0.072683557    11300.474      0            
     38700   295.74245      502.744        2.9550216     -26.040782      33.560954      613.52378     -116.73531     -4.519667       0.073396882    11190.647      0            
     38800   325.21505      498.95046      7.0513587     -28.366418      33.987779      617.35684     -125.84611     -5.2329986      0.073751556    11136.831      0            
     38900   334.64719      491.60519      5.6527772     -31.750488      32.097989      609.58321     -119.4856      -4.4926989      0.074553083    11017.098      0            
     39000   260.56517      494.25025     -0.27515874    -26.431636      29.892414      604.1711      -109.86095     -3.2455156      0.074872304    10970.126      0            
     39100   256.0049       494.67815      2.3918041     -27.798658      33.036211      602.51424     -110.04535     -5.4201003      0.075684044    10852.467      0            
     39200   301.10496      502.9169       5.355626      -21.495528      33.559476      617.78446     -126.77106     -5.516086       0.076049378    10800.333      0            
     39300   338.71205      502.36184      4.5107163     -21.44657       24.707111      613.27405     -113.1802      -5.5032774      0.076839252    10689.31       0            
     39400   314.6183       502.99951     -0.31562025    -24.804114      34.318031      606.16162     -108.12078     -4.2396204      0.077244403    10633.244      0            
     39500   265.32054      510.17893      4.9199423     -21.998477      31.075654      609.06564     -107.438       -5.4458278      0.077911295    10542.228      0            
     39600   275.93517      486.31508      1.2461156     -30.011998      33.334663      602.53045     -116.33786     -4.4462847      0.07867512     10439.877      0            
     39700   241.72271      493.39877      2.0726252     -25.346558      30.267706      604.74708     -113.73206     -4.610027       0.079306719    10356.734      0            
     39800   252.70025      500.88652      2.4187022     -24.701401      36.591203      620.93395     -129.78601     -4.5699185      0.080319743    10226.111      0            
     39900   256.38675      502.80005      0.87394208    -26.210466      35.782655      602.67702     -106.71426     -3.6088505      0.081188339    10116.707      0            
     40000   324.9738       494.07977      2.1980809     -27.448246      31.532126      634.27707     -138.90689     -7.5723751      0.081935863    10024.409      0            
     40100   300.41819      503.48355     -1.0791715     -29.391725      35.615404      629.66416     -125.79118     -5.5339456      0.082232604    9988.2354      0            
     40200   331.15587      501.8          1.859984      -24.171138      40.39981       614.90927     -126.03969     -5.1582366      0.082203971    9991.7145      0            
     40300   310.16968      491.74491     -0.56639545    -23.172203      32.141094      607.43027     -120.88293     -3.2049257      0.081821676    10038.399      0            
     40400   283.90357      489.99322     -0.27119995    -25.18026       35.663634      596.35888     -112.94223     -3.6356029      0.081810301    10039.795      0            
     40500   306.61177      489.67533     -1.7372621     -25.011292      28.736217      610.12978     -118.72046     -3.7216535      0.081468904    10081.866      0            
     40600   314.64963      501.51226     -1.2473168     -26.75596       33.466772      616.26394     -116.96045     -3.2547274      0.081454254    10083.68       0            
     40700   355.14103      497.38283      0.14669683    -25.613356      36.233161      598.75412     -109.03626     -3.1015312      0.081275186    10105.896      0            
     40800   311.84828      498.50516     -3.0796051     -23.409615      32.055822      600.74699     -104.88359     -2.9248348      0.080451843    10209.32       0            
     40900   314.57864      493.43585     -0.30655704    -25.674172      24.573516      612.7301      -113.72842     -4.1586156      0.079567976    10322.728      0            
     41000   297.34809      493.96459     -1.6605104     -25.288922      32.512293      609.70666     -115.72968     -5.5752491      0.077786815    10559.098      0            
     41100   259.96843      494.63035     -4.6648756     -27.275103      34.54404       601.0099      -103.63412     -5.3494956      0.076940867    10675.193      0            
     41200   258.58936      495.68184      1.934906      -26.278994      36.745107      597.08487     -109.42707     -4.3769823      0.076101837    10792.888      0            
     41300   282.53178      503.14373     -1.266354      -25.170736      28.311655      611.7548      -105.8996      -4.5860363      0.07525795     10913.912      0            
     41400   278.40961      121770.14      2528.8424     -32.345274      118826.77      567.94558     -118.57338     -2.4952209      0.075106571    10935.909      1            
     41500   757.00543      422.03599     -3.2654274     -34.908254      35.723476      544.34898     -119.05164     -0.81115166     0.15298258     5368.9683      1            
     41600   397.42686      407.49286     -2.2489469     -26.779376      34.401852      493.61737     -91.272245     -0.22579559     0.15568588     5275.7423      1            
     41700   334.05114      371.18921      7.8243625     -38.835825      26.04473       516.26218     -137.03976     -3.066481       0.15603831     5263.8266      1            
     41800   324.03856      387.04595     -4.9962317     -26.708846      26.586516      503.90085     -111.4002      -0.33613983     0.15499819     5299.1497      1            
     41900   265.51894      375.59222      12.47751      -34.504141      20.337736      493.7175      -113.11752     -3.3188685      0.15536992     5286.4714      1            
     42000   304.11826      368.32285     -3.5213933     -33.397445      14.633674      513.74537     -122.51011     -0.6272505      0.15430625     5322.9123      1            
     42100   317.65292      363.87144     -1.8946076     -30.698401      17.22119       492.7437      -111.67865     -1.8217942      0.15446927     5317.2945      1            
     42200   276.3357       368.49729      1.9417128     -32.575124      25.000082      490.23196     -114.56608     -1.5352685      0.15452359     5315.4255      1            
     42300   283.75111      382.59232      3.4718441     -28.608912      18.85324       502.99498     -111.68438     -2.43445        0.15360985     5347.044       1            
     42400   277.96626      365.42626      8.6327943     -35.035732      18.876053      480.1617      -105.0598      -2.1487594      0.15418381     5327.139       1            
     42500   356.90888      374.13847      4.9619456     -34.977753      26.826063      501.3393      -122.1186      -1.8924902      0.15354608     5349.2645      1            
     42600   298.30701      364.21253     -3.7625307     -33.095481      26.03701       500.84244     -123.93161     -1.8772938      0.15365253     5345.5585      1            
     42700   318.91268      372.36069      9.2861943     -31.645233      25.342183      486.10958     -115.0872      -1.6448411      0.15394294     5335.4745      1            
     42800   299.16201      376.39121      0.1872824     -31.292845      24.304144      513.89223     -128.29207     -2.4075277      0.1520423      5402.1717      1            
     42900   279.90835      384.51866      8.8401865     -33.253711      22.902113      502.49963     -114.9879      -1.4816492      0.1532527      5359.5049      1            
     43000   276.40879      373.45211      5.1852473     -30.867537      26.13223       486.52436     -112.93687     -0.58532449     0.15099572     5439.6152      1            
     43100   280.00116      361.5772       8.8548426     -36.344878      22.012567      485.38816     -115.72555     -2.6079369      0.1522993      5393.0557      1            
     43200   315.49505      366.05603      0.18882107    -24.983645      14.538979      489.89936     -112.32906     -1.2584262      0.15061518     5453.3586      1            
     43300   296.18942      363.8247       4.408609      -31.062217      20.756545      488.12038     -116.49615     -1.9024651      0.15221477     5396.0505      1            
     43400   277.88105      365.58199     -0.83918293    -37.593456      22.864701      513.80733     -130.62946     -2.0279443      0.15037656     5462.0122      1            
     43500   335.57304      370.41213      4.1878511     -35.925431      24.705985      505.15791     -125.54269     -2.1715021      0.15124913     5430.5014      1            
     43600   394.93512      356.49588      4.6419208     -38.897249      21.942339      488.73528     -117.50656     -2.4198534      0.14977745     5483.8604      1            
     43700   307.61192      367.51371     -0.30319684    -30.368176      20.111149      509.08736     -128.36285     -2.6505801      0.14866558     5524.8741      1            
     43800   258.63315      368.15805      5.1752432     -29.923413      19.386425      489.31142     -115.84079      0.049167776    0.14941083     5497.3163      1            
     43900   296.27704      362.59364     -1.8300865     -29.481859      15.5626        513.78586     -132.10652     -3.3363487      0.1472553      5577.7864      1            
     44000   286.63793      374.9412       2.638527      -31.199137      22.716019      499.43341     -117.16413     -1.483483       0.14789063     5553.8246      1            
     44100   356.47857      369.58591      0.50191166    -32.253352      23.778428      504.7512      -125.87124     -1.321045       0.1477021      5560.9134      1            
     44200   294.2365       371.45156     -2.0580088     -29.732068      25.229246      485.46936     -106.90691     -0.55006015     0.14698565     5588.0189      1            
     44300   269.68168      366.90324      1.4703709     -29.241287      23.336609      485.28978     -111.46427     -2.4879679      0.14760855     5564.4379      1            
     44400   317.04685      351.08846      0.15204054    -34.72179       20.368484      481.36512     -114.28542     -1.789975       0.14685288     5593.071       1            
     44500   263.18141      367.22752      5.5005116     -29.496386      16.133738      490.73588     -114.81991     -0.82631579     0.14723136     5578.6933      1            
     44600   340.69315      369.50417      4.9311335     -27.262637      21.036706      492.90095     -119.62453     -2.4774566      0.14634728     5612.3941      1            
     44700   294.42477      386.74479      7.1579663     -24.840448      23.364441      508.36536     -124.71411     -2.588416       0.14494708     5666.6101      1            
     44800   312.06234      366.58754      4.0740115     -31.951698      25.22187       502.73239     -131.01985     -2.4691889      0.14424722     5694.1036      1            
     44900   281.07283      366.70348      0.61807079    -26.274125      24.046272      474.39675     -105.95407     -0.12941703     0.14273302     5754.51        1            
     45000   323.16165      358.10096      3.5955839     -29.644347      18.059656      470.86867     -103.57863     -1.1999724      0.14119625     5817.1418      1            
     45100   288.99947      369.79555      6.9818144     -33.284688      19.319279      501.68657     -121.58266     -3.3247682      0.14066452     5839.1313      1            
     45200   373.70256      366.3693       5.2842617     -32.137977      22.212837      493.58635     -118.94938     -3.6268007      0.14030586     5854.0577      1            
     45300   401.65889      373.94786     -4.0925004     -31.296029      29.525237      488.57889     -105.48443     -3.2833141      0.13946298     5889.4383      1            
     45400   284.78626      394.20022     -2.6854792     -20.39885       29.817118      505.8671      -117.57854     -0.821126       0.13854237     5928.5733      1            
     45500   322.60388      371.43088      2.4361994     -29.916153      26.323897      498.72983     -125.5942      -0.54868753     0.13850985     5929.9653      1            
     45600   305.5052       368.70217      0.54439408    -28.43768       33.320256      483.24935     -116.72043     -3.2537218      0.13822982     5941.9786      1            
     45700   246.57577      374.67487     -0.071670209   -28.988821      27.798889      492.64902     -113.99815     -2.7143933      0.13758948     5969.6323      1            
     45800   256.95079      368.2565       2.4708459     -32.944376      21.202255      486.85699     -106.4169      -2.9123119      0.13781269     5959.9636      1            
     45900   334.72469      370.27064      0.82550858    -32.16008       24.830378      493.37111     -115.20889     -1.3873968      0.13672797     6007.2465      1            
     46000   321.09556      374.69599     -3.6750258     -30.558686      37.65376       488.48785     -115.10861     -2.1032949      0.13625842     6027.9476      1            
     46100   300.21009      370.39218     -0.80508566    -32.069287      32.399647      488.89708     -115.27546     -2.7547223      0.13586704     6045.3117      1            
     46200   298.53667      363.48211     -2.3344337     -36.520861      19.150467      510.44713     -124.22653     -3.0336646      0.13599639     6039.5618      1            
     46300   289.87222      363.74302      4.3000171     -33.293088      27.527798      489.94967     -122.07249     -2.6688902      0.13585099     6046.0261      1            
     46400   314.69778      359.90604      1.1249043     -34.9698        22.011636      486.7132      -113.64451     -1.3293874      0.13471821     6096.8641      1            
     46500   327.22627      372.36844     -3.161607      -31.495033      23.714896      497.99504     -112.96054     -1.7243058      0.13299474     6175.873       1            
     46600   337.60781      380.57037      0.61890968    -32.922969      28.441098      504.81707     -118.50615     -1.877583       0.13148632     6246.723       1            
     46700   312.11793      374.12261      2.4144014     -29.526026      23.069572      494.84756     -115.72304     -0.95985596     0.13047613     6295.087       1            
     46800   289.62286      370.18397     -3.0278548     -30.794274      22.309445      486.6283      -105.38329      0.45163956     0.13122957     6258.9447      1            
     46900   272.68021      372.68267     -1.0902859     -28.988937      27.354882      492.19776     -115.82817     -0.96257724     0.13164989     6238.9615      1            
     47000   263.89405      373.17043      2.785756      -29.221913      28.177956      494.34447     -121.24182     -1.6740246      0.13052044     6292.9499      1            
     47100   295.04453      375.87611      2.2848945     -30.098093      26.653083      505.64647     -124.71111     -3.8991384      0.12932783     6350.9811      1            
     47200   359.91107      369.79084     -1.5630085     -30.180787      26.398542      492.7998      -116.53704     -1.1266725      0.12900084     6367.0796      1            
     47300   317.82263      373.05964      0.6649336     -27.962552      32.94115       472.04573     -103.57243     -1.0572004      0.12839288     6397.2285      1            
     47400   322.37932      358.44517     -4.4308956     -28.689793      28.491701      480.12291     -115.74225     -1.3064991      0.12805628     6414.0438      1            
     47500   263.05575      371.32512      0.30750934    -25.956364      27.038956      492.07109     -119.20219     -2.9338826      0.12722888     6455.7561      1            
     47600   287.11717      372.43387     -5.1108221     -26.133862      24.926235      495.00237     -113.88702     -2.3630311      0.1261136      6512.8472      1            
     47700   277.07006      384.2615       2.6849201     -28.636184      29.748808      487.88169     -105.67723     -1.7404962      0.12470535     6586.3942      1            
     47800   306.43976      372.53245     -2.5207191     -32.988655      31.742462      487.69927     -109.29402     -2.105882       0.12247886     6706.1253      1            
     47900   262.18847      365.36219      1.7989702     -34.261617      23.736493      502.53612     -124.78161     -3.6661581      0.12185183     6740.6344      1            
     48000   279.48724      355.27148      0.53747628    -33.679288      20.867634      480.5535      -111.78636     -1.2214787      0.12029475     6827.884       1            
     48100   274.6758       365.09649      2.9198476     -32.734057      25.465492      479.5164      -107.99231     -2.078879       0.1200627      6841.0805      1            
     48200   307.52589      366.59579     -0.14703087    -31.945286      35.986286      473.14421     -109.52965     -0.91273845     0.11834347     6940.4643      1            
     48300   332.29005      366.86433      2.5383099     -31.291189      24.583464      504.24088     -129.6637      -3.5434283      0.11822574     6947.3753      1            
     48400   325.86566      364.55457      3.7469348     -32.135231      28.336695      482.73461     -116.91265     -1.2157875      0.11794668     6963.8129      1            
     48500   241.76067      366.71653     -3.1051862     -30.227049      29.362015      489.85908     -119.19259      0.020255501    0.11784062     6970.0804      1            
     48600   263.91135      359.48848     -4.3437863     -31.829816      26.125448      489.37382     -119.0069      -0.83028502     0.11740401     6996.0011      1            
     48700   256.51973      369.72008     -0.14460905    -32.724049      25.845982      512.26514     -134.09904     -1.4233392      0.11691719     7025.1313      1            
     48800   292.78987      371.7654       2.6834209     -33.122161      21.605474      515.18935     -132.22414     -2.3665424      0.11653839     7047.9658      1            
     48900   339.88473      365.39213      1.1570006     -32.975162      24.215672      493.88106     -120.5258      -0.36064327     0.11557038     7106.9995      1            
     49000   335.44192      363.88665     -2.0151915     -31.671103      24.620721      494.73698     -121.04441     -0.7403437      0.11366494     7226.1387      1            
     49100   260.79271      360.57139      5.1145792     -33.196697      21.355903      507.01919     -135.80692     -3.9146572      0.1119629      7335.9892      1            
     49200   250.3996       358.44837     -0.83721765    -32.366679      25.33748       489.19952     -120.7556      -2.1291321      0.11042892     7437.8938      1            
     49300   293.25076      359.0447       2.378295      -32.923271      21.61043       483.94406     -114.65098     -1.313828       0.10944252     7504.9314      1            
     49400   285.79768      369.73012      1.0653233     -30.511254      23.948412      489.30119     -113.14252     -0.93102604     0.10853128     7567.9438      1            
     49500   283.57591      370.20032     -2.1696458     -35.770981      26.509145      496.52714     -113.34846     -1.5468745      0.10693409     7680.9801      1            
     49600   282.29774      375.52006      7.9725475     -34.535984      27.193935      494.74541     -117.12294     -2.7329141      0.10646611     7714.7425      1            
     49700   309.40303      364.63842     -1.086914      -34.751024      28.982341      489.46685     -115.69037     -2.2824642      0.1056423      7774.9027      1            
     49800   300.23254      364.43366     -1.4952813     -31.579584      24.479655      487.61051     -112.4486      -2.133037       0.1050455      7819.0747      1            
     49900   262.90839      366.75748     -3.8833436     -31.801757      27.815699      489.09867     -112.20559     -2.2662044      0.10435054     7871.1483      1            
     50000   235.8455       377.4723       1.0091845     -31.549491      34.914158      490.58176     -113.47814     -4.0051727      0.10383867     7909.9494      1            
     50100   329.61388      370.79131     -1.1226762     -29.15247       26.295843      503.93317     -126.22106     -2.9414881      0.10287592     7983.9733      1            
     50200   325.56044      376.15383     -1.0398998     -24.126309      35.86954       493.88753     -126.09258     -2.3444469      0.1020314      8050.0573      1            
     50300   260.00126      373.37835     -6.7569993     -30.087974      30.759646      483.0258      -103.47183     -0.090294244    0.099878088    8223.6117      1            
     50400   278.67074      365.20228     -1.5371979     -29.117966      18.706567      495.62146     -115.18733     -3.2832502      0.098828567    8310.9432      1            
     50500   311.20159      359.14117     -0.22797607    -32.605458      24.965555      494.04245     -124.61969     -2.4137061      0.096970112    8470.2244      1            
     50600   317.85514      364.70562      1.782518      -32.438971      21.800025      489.06598     -114.04839     -1.455537       0.09606394     8550.1241      1            
     50700   308.95871      372.47291      1.1659326     -30.382642      34.134025      487.72449     -118.74759     -1.421307       0.09387103     8749.8626      1            
     50800   283.61733      380.01793     -0.97186556    -30.62906       31.738437      500.19983     -117.62555     -2.6938666      0.091807801    8946.5013      1            
     50900   300.40472      369.35803      0.25712331    -32.878449      27.492894      491.48144     -114.93029     -2.0646812      0.091251005    9001.0912      1            
     51000   242.57572      373.26963      0.99337352    -27.41617       28.364749      492.93935     -120.15887     -1.452796       0.090367836    9089.0592      1            
     51030   258.90429      368.79933      0.810945      -29.288766      24.68339       489.69195     -114.97728     -2.1209198      0.090056282    9120.5033      1            
Loop time of 3.87785 on 6 procs for 20000 steps with 74 atoms

Performance: 445.608 ns/day, 0.054 hours/ns, 5157.496 timesteps/s, 381.655 katom-step/s
98.7% CPU use with 6 MPI tasks x no OpenMP threads

MPI task timing breakdown:
Section |  min time  |  avg time  |  max time  |%varavg| %total
---------------------------------------------------------------
Pair    | 0.032503   | 0.12534    | 0.19252    |  15.5 |  3.23
Bond    | 0.079306   | 0.59834    | 1.117      |  50.1 | 15.43
Neigh   | 0.020534   | 0.021815   | 0.023095   |   0.8 |  0.56
Comm    | 1.4203     | 1.7274     | 2.1687     |  17.8 | 44.55
Output  | 0.014374   | 0.016377   | 0.026222   |   3.4 |  0.42
Modify  | 1.0594     | 1.3391     | 1.8866     |  26.6 | 34.53
Other   |            | 0.04946    |            |       |  1.28

Nlocal:        12.3333 ave          41 max           0 min
Histogram: 3 1 0 0 0 0 1 0 0 1
Nghost:        360.667 ave         544 max         205 min
Histogram: 1 1 0 0 2 0 1 0 0 1
Neighs:        376.333 ave        1798 max           0 min
Histogram: 3 2 0 0 0 0 0 0 0 1

Total # of neighbors = 2258
Ave neighs/atom = 30.513514
Ave special neighs/atom = 14.432432
Neighbor list builds = 308
Dangerous builds = 0
Total wall time: 0:00:08
