LAMMPS (22 Dec 2022)
# PREREQUISITES:
#
#     You must use moltemplate.sh to create 3 files:
#        system.data  system.in.init  system.in.settings
#     (Follow the instructions in README_setup.sh,
#      or run the file as a script using ./README_setup.sh)

# ------------------------------- Initialization Section --------------------

units real
atom_style full
pair_style lj/class2/coul/long 10.0 10.0
bond_style class2
angle_style class2
dihedral_style class2
improper_style class2
kspace_style pppm/cg 0.001

pair_modify     mix sixthpower tail yes
special_bonds   lj/coul 0 0 1


# ------------------------------- Atom Definition Section -------------------

read_data       "reacted_lmp.data"
Reading data file ...
  orthogonal box = (4.6950134 4.6950134 4.6950134) to (44.041964 44.041964 44.041964)
  2 by 3 by 4 MPI processor grid
  reading atoms ...
  5032 atoms
  reading velocities ...
  5032 velocities
  scanning bonds ...
  4 = max bonds/atom
  scanning angles ...
  6 = max angles/atom
  scanning dihedrals ...
  36 = max dihedrals/atom
  scanning impropers ...
  4 = max impropers/atom
  reading bonds ...
  5176 bonds
  reading angles ...
  9424 angles
  reading dihedrals ...
  13200 dihedrals
  reading impropers ...
  5168 impropers
Finding 1-2 1-3 1-4 neighbors ...
  special bond factors lj:    0        0        1       
  special bond factors coul:  0        0        1       
     4 = max # of 1-2 neighbors
    12 = max # of 1-3 neighbors
    16 = max # of special neighbors
  special bonds CPU = 0.004 seconds
  read_data CPU = 0.361 seconds

include calc.pram

# Masses

mass		1    12.01115  # c
mass		2    12.01115  # cp
mass		3     1.00797  # h
mass		4     1.00797  # hc
mass		5    15.99940  # o4e
mass		6    15.99940  # oc
mass		7    15.99940  # oh

# Potentials

pair_coeff	 1  1    0.05400    4.01000  # c,c
pair_coeff	 2  2    0.06400    4.01000  # cp,cp
pair_coeff	 3  3    0.02000    2.99500  # h,h
pair_coeff	 4  4    0.02000    2.99500  # hc,hc
pair_coeff	 5  5    0.24000    3.53500  # o4e,o4e
pair_coeff	 6  6    0.24000    3.53500  # oc,oc
pair_coeff	 7  7    0.24000    3.53500  # oh,oh

# Bond Coeffs

bond_coeff	1    1.53000  299.67000 -501.77000  679.81000  # c,c
bond_coeff	2    1.50100  321.90210 -521.82080  572.16280  # c,cp
bond_coeff	3    1.10100  345.00000 -691.89000  844.60000  # c,hc
bond_coeff	4    1.42000  400.39540 -835.19510 1313.01420  # c,o4e
bond_coeff	5    1.42000  400.39540 -835.19510 1313.01420  # c,oc
bond_coeff	6    1.42000  400.39540 -835.19510 1313.01420  # c,oh
bond_coeff	7    1.41700  470.83610 -627.61790 1327.63450  # cp,cp
bond_coeff	8    1.09820  372.82510 -803.45260  894.31730  # cp,hc
bond_coeff	9    0.96000  493.84800    0.00000    0.00000  # h,oh

# Angle Coeffs

angle_coeff	 1  112.67000   39.51600   -7.44300   -9.55830  # c,c,c
angle_coeff	 2  110.77000   41.45300  -10.60400    5.12900  # c,c,hc
angle_coeff	 3  111.27000   54.53810   -8.36420  -13.08380  # c,c,o4e
angle_coeff	 4  111.27000   54.53810   -8.36420  -13.08380  # c,c,oc
angle_coeff	 5  111.27000   54.53810   -8.36420  -13.08380  # c,c,oh
angle_coeff	 6  120.05000   44.71480  -22.73520    0.00000  # c,cp,cp
angle_coeff	 7  104.50000   35.74540  -10.00670   -6.27290  # c,o4e,c
angle_coeff	 8  104.50000   35.74540  -10.00670   -6.27290  # c,oc,c
angle_coeff	 9  109.00000   58.50000    0.00000    0.00000  # c,oh,h
angle_coeff	10  111.00000   44.32340   -9.44540    0.00000  # cp,c,hc
angle_coeff	11  110.50000   46.00000    0.00000    0.00000  # cp,c,oc
angle_coeff	12  118.90000   61.02260  -34.99310    0.00000  # cp,cp,cp
angle_coeff	13  117.94000   35.15580  -12.46820    0.00000  # cp,cp,hc
angle_coeff	14  107.66000   39.64100  -12.92100   -2.43180  # hc,c,hc
angle_coeff	15  108.72800   58.54460  -10.80880  -12.40060  # hc,c,o4e
angle_coeff	16  108.72800   58.54460  -10.80880  -12.40060  # hc,c,oc
angle_coeff	17  108.72800   58.54460  -10.80880  -12.40060  # hc,c,oh

# BondBond Coeffs

angle_coeff	 1 bb    0.00000    1.53000    1.53000  # c,c,c
angle_coeff	 2 bb    3.38720    1.53000    1.10100  # c,c,hc
angle_coeff	 3 bb   11.43180    1.53000    1.42000  # c,c,o4e
angle_coeff	 4 bb   11.43180    1.53000    1.42000  # c,c,oc
angle_coeff	 5 bb   11.43180    1.53000    1.42000  # c,c,oh
angle_coeff	 6 bb   12.06760    1.50100    1.41700  # c,cp,cp
angle_coeff	 7 bb   -7.11310    1.42000    1.42000  # c,o4e,c
angle_coeff	 8 bb   -7.11310    1.42000    1.42000  # c,oc,c
angle_coeff	 9 bb    0.00000    1.42000    0.96000  # c,oh,h
angle_coeff	10 bb    2.91680    1.50100    1.10100  # cp,c,hc
angle_coeff	11 bb    0.00000    1.50100    1.42000  # cp,c,oc
angle_coeff	12 bb   68.28560    1.41700    1.41700  # cp,cp,cp
angle_coeff	13 bb    1.07950    1.41700    1.09820  # cp,cp,hc
angle_coeff	14 bb    5.33160    1.10100    1.10100  # hc,c,hc
angle_coeff	15 bb   23.19790    1.10100    1.42000  # hc,c,o4e
angle_coeff	16 bb   23.19790    1.10100    1.42000  # hc,c,oc
angle_coeff	17 bb   23.19790    1.10100    1.42000  # hc,c,oh

# BondAngle Coeffs

angle_coeff	 1 ba    8.01600    8.01600    1.53000    1.53000  # c,c,c
angle_coeff	 2 ba   20.75400   11.42100    1.53000    1.10100  # c,c,hc
angle_coeff	 3 ba    2.68680   20.40330    1.53000    1.42000  # c,c,o4e
angle_coeff	 4 ba    2.68680   20.40330    1.53000    1.42000  # c,c,oc
angle_coeff	 5 ba    2.68680   20.40330    1.53000    1.42000  # c,c,oh
angle_coeff	 6 ba   47.05790   31.07710    1.50100    1.41700  # c,cp,cp
angle_coeff	 7 ba   -2.81120   -2.81120    1.42000    1.42000  # c,o4e,c
angle_coeff	 8 ba   -2.81120   -2.81120    1.42000    1.42000  # c,oc,c
angle_coeff	 9 ba    0.00000    0.00000    1.42000    0.96000  # c,oh,h
angle_coeff	10 ba   11.77170   26.46080    1.50100    1.10100  # cp,c,hc
angle_coeff	11 ba    0.00000    0.00000    1.50100    1.42000  # cp,c,oc
angle_coeff	12 ba   28.87080   28.87080    1.41700    1.41700  # cp,cp,cp
angle_coeff	13 ba   24.21830   20.00330    1.41700    1.09820  # cp,cp,hc
angle_coeff	14 ba   18.10300   18.10300    1.10100    1.10100  # hc,c,hc
angle_coeff	15 ba    4.61890   55.32700    1.10100    1.42000  # hc,c,o4e
angle_coeff	16 ba    4.61890   55.32700    1.10100    1.42000  # hc,c,oc
angle_coeff	17 ba    4.61890   55.32700    1.10100    1.42000  # hc,c,oh

# Dihedral Coeffs

dihedral_coeff	 1    0.00000    0.00000    0.05140    0.00000   -0.14300    0.00000  # c,c,c,c
dihedral_coeff	 2    0.00000    0.00000    0.03160    0.00000   -0.16810    0.00000  # c,c,c,hc
dihedral_coeff	 3    0.71370    0.00000    0.26600    0.00000   -0.25450    0.00000  # c,c,c,o4e
dihedral_coeff	 4    0.71370    0.00000    0.26600    0.00000   -0.25450    0.00000  # c,c,c,oc
dihedral_coeff	 5    0.71370    0.00000    0.26600    0.00000   -0.25450    0.00000  # c,c,c,oh
dihedral_coeff	 6   -0.52030    0.00000   -0.30280    0.00000   -0.34500    0.00000  # c,c,o4e,c
dihedral_coeff	 7   -0.52030    0.00000   -0.30280    0.00000   -0.34500    0.00000  # c,c,oc,c
dihedral_coeff	 8    0.00000    0.00000    0.00000    0.00000    0.13000  180.00000  # c,c,oh,h
dihedral_coeff	 9    0.00000    0.00000    4.40720    0.00000    0.00000    0.00000  # c,cp,cp,cp
dihedral_coeff	10    0.00000    0.00000    1.55900    0.00000    0.00000    0.00000  # c,cp,cp,hc
dihedral_coeff	11    0.53020    0.00000    0.00000    0.00000   -0.39660    0.00000  # c,o4e,c,hc
dihedral_coeff	12    0.00000    0.00000    0.00000    0.00000    0.13000  180.00000  # c,oc,c,cp
dihedral_coeff	13    0.53020    0.00000    0.00000    0.00000   -0.39660    0.00000  # c,oc,c,hc
dihedral_coeff	14   -0.28010    0.00000   -0.06780    0.00000   -0.01220    0.00000  # cp,cp,c,hc
dihedral_coeff	15    0.00000  180.00000    0.00000    0.00000    0.00000    0.00000  # cp,cp,c,oc
dihedral_coeff	16    8.36670    0.00000    1.19320    0.00000    0.00000    0.00000  # cp,cp,cp,cp
dihedral_coeff	17    0.00000    0.00000    3.96610    0.00000    0.00000    0.00000  # cp,cp,cp,hc
dihedral_coeff	18    0.00000    0.00000    0.00000    0.00000    0.13000  180.00000  # h,oh,c,hc
dihedral_coeff	19   -0.14320    0.00000    0.06170    0.00000   -0.10830    0.00000  # hc,c,c,hc
dihedral_coeff	20    0.00000    0.00000    1.87690    0.00000    0.00000    0.00000  # hc,cp,cp,hc

# MiddleBondTorsion Coeffs

dihedral_coeff	 1 mbt  -17.78700   -7.18770    0.00000    1.53000  # c,c,c,c
dihedral_coeff	 2 mbt  -14.87900   -3.65810   -0.31380    1.53000  # c,c,c,hc
dihedral_coeff	 3 mbt  -21.88420   -7.67640   -0.68680    1.53000  # c,c,c,o4e
dihedral_coeff	 4 mbt  -21.88420   -7.67640   -0.68680    1.53000  # c,c,c,oc
dihedral_coeff	 5 mbt  -21.88420   -7.67640   -0.68680    1.53000  # c,c,c,oh
dihedral_coeff	 6 mbt   -5.92880   -2.70070   -0.31750    1.42000  # c,c,o4e,c
dihedral_coeff	 7 mbt   -5.92880   -2.70070   -0.31750    1.42000  # c,c,oc,c
dihedral_coeff	 8 mbt    0.00000    0.00000    0.00000    1.42000  # c,c,oh,h
dihedral_coeff	 9 mbt    0.00000    9.17920    0.00000    1.41700  # c,cp,cp,cp
dihedral_coeff	10 mbt    0.00000    3.94210    0.00000    1.41700  # c,cp,cp,hc
dihedral_coeff	11 mbt   -6.80070   -4.65460   -1.41010    1.42000  # c,o4e,c,hc
dihedral_coeff	12 mbt    0.00000    0.00000    0.00000    1.42000  # c,oc,c,cp
dihedral_coeff	13 mbt   -6.80070   -4.65460   -1.41010    1.42000  # c,oc,c,hc
dihedral_coeff	14 mbt   -5.56790    1.40830    0.30100    1.50100  # cp,cp,c,hc
dihedral_coeff	15 mbt    0.00000    0.00000    0.00000    1.50100  # cp,cp,c,oc
dihedral_coeff	16 mbt   27.59890   -2.31200    0.00000    1.41700  # cp,cp,cp,cp
dihedral_coeff	17 mbt    0.00000   -1.15210    0.00000    1.41700  # cp,cp,cp,hc
dihedral_coeff	18 mbt    0.00000    0.00000    0.00000    1.42000  # h,oh,c,hc
dihedral_coeff	19 mbt  -14.26100   -0.53220   -0.48640    1.53000  # hc,c,c,hc
dihedral_coeff	20 mbt    0.00000    4.82280    0.00000    1.41700  # hc,cp,cp,hc

# EndBondTorsion Coeffs

dihedral_coeff	 1 ebt   -0.07320    0.00000    0.00000   -0.07320    0.00000    0.00000    1.53000    1.53000  # c,c,c,c
dihedral_coeff	 2 ebt    0.24860    0.24220   -0.09250    0.08140    0.05910    0.22190    1.53000    1.10100  # c,c,c,hc
dihedral_coeff	 3 ebt   -0.31900    0.44110   -0.71740    1.15380    0.84090   -0.91380    1.53000    1.42000  # c,c,c,o4e
dihedral_coeff	 4 ebt   -0.31900    0.44110   -0.71740    1.15380    0.84090   -0.91380    1.53000    1.42000  # c,c,c,oc
dihedral_coeff	 5 ebt   -0.31900    0.44110   -0.71740    1.15380    0.84090   -0.91380    1.53000    1.42000  # c,c,c,oh
dihedral_coeff	 6 ebt   -0.24560    1.05170   -0.77950    0.47410    1.26350    0.55760    1.53000    1.42000  # c,c,o4e,c
dihedral_coeff	 7 ebt   -0.24560    1.05170   -0.77950    0.47410    1.26350    0.55760    1.53000    1.42000  # c,c,oc,c
dihedral_coeff	 8 ebt    0.00000    0.00000    0.00000    0.00000    0.00000    0.00000    1.53000    0.96000  # c,c,oh,h
dihedral_coeff	 9 ebt    0.00000    0.24210    0.00000    0.00000   -0.69180    0.00000    1.50100    1.41700  # c,cp,cp,cp
dihedral_coeff	10 ebt    0.00000   -1.79700    0.00000    0.00000   -0.48790    0.00000    1.50100    1.09820  # c,cp,cp,hc
dihedral_coeff	11 ebt   -0.16200    0.15640   -1.14080   -0.60540    1.33390    0.96480    1.42000    1.10100  # c,o4e,c,hc
dihedral_coeff	12 ebt    0.00000    0.00000    0.00000    0.00000    0.00000    0.00000    1.42000    1.50100  # c,oc,c,cp
dihedral_coeff	13 ebt   -0.16200    0.15640   -1.14080   -0.60540    1.33390    0.96480    1.42000    1.10100  # c,oc,c,hc
dihedral_coeff	14 ebt    1.39970    0.77560    0.00000   -0.58350    1.12200    0.39780    1.41700    1.10100  # cp,cp,c,hc
dihedral_coeff	15 ebt    0.00000    0.00000    0.00000    0.00000    0.00000    0.00000    1.41700    1.42000  # cp,cp,c,oc
dihedral_coeff	16 ebt   -0.11850    6.32040    0.00000   -0.11850    6.32040    0.00000    1.41700    1.41700  # cp,cp,cp,cp
dihedral_coeff	17 ebt    0.00000   -0.46690    0.00000    0.00000   -6.89580    0.00000    1.41700    1.09820  # cp,cp,cp,hc
dihedral_coeff	18 ebt    0.00000    0.00000    0.00000    0.00000    0.00000    0.00000    0.96000    1.10100  # h,oh,c,hc
dihedral_coeff	19 ebt    0.21300    0.31200    0.07770    0.21300    0.31200    0.07770    1.10100    1.10100  # hc,c,c,hc
dihedral_coeff	20 ebt    0.00000   -0.68900    0.00000    0.00000   -0.68900    0.00000    1.09820    1.09820  # hc,cp,cp,hc

# AngleTorsion Coeffs

dihedral_coeff	 1 at    0.38860   -0.31390    0.13890    0.38860   -0.31390    0.13890  112.67000  112.67000  # c,c,c,c
dihedral_coeff	 2 at   -0.24540    0.00000   -0.11360    0.31130    0.45160   -0.19880  112.67000  110.77000  # c,c,c,hc
dihedral_coeff	 3 at    0.56230   -0.30410   -0.40150    0.96720   -0.75660   -1.23310  112.67000  111.27000  # c,c,c,o4e
dihedral_coeff	 4 at    0.56230   -0.30410   -0.40150    0.96720   -0.75660   -1.23310  112.67000  111.27000  # c,c,c,oc
dihedral_coeff	 5 at    0.56230   -0.30410   -0.40150    0.96720   -0.75660   -1.23310  112.67000  111.27000  # c,c,c,oh
dihedral_coeff	 6 at   -2.74660    1.48770   -0.89550    0.56760    0.94500    0.07030  111.27000  104.50000  # c,c,o4e,c
dihedral_coeff	 7 at   -2.74660    1.48770   -0.89550    0.56760    0.94500    0.07030  111.27000  104.50000  # c,c,oc,c
dihedral_coeff	 8 at    0.00000    0.00000    0.00000    0.00000    0.00000    0.00000  111.27000  109.00000  # c,c,oh,h
dihedral_coeff	 9 at    0.00000   -4.46830    0.00000    0.00000    3.89870    0.00000  120.05000  118.90000  # c,cp,cp,cp
dihedral_coeff	10 at    0.00000   -0.12420    0.00000    0.00000    3.46010    0.00000  120.05000  117.94000  # c,cp,cp,hc
dihedral_coeff	11 at   -0.77770    0.43400   -0.66530   -1.82340    1.63930    0.51440  104.50000  108.72800  # c,o4e,c,hc
dihedral_coeff	12 at    0.00000    0.00000    0.00000    0.00000    0.00000    0.00000  104.50000  110.50000  # c,oc,c,cp
dihedral_coeff	13 at   -0.77770    0.43400   -0.66530   -1.82340    1.63930    0.51440  104.50000  108.72800  # c,oc,c,hc
dihedral_coeff	14 at    4.62660    0.16320    0.04610    0.22510    0.65480    0.12370  120.05000  111.00000  # cp,cp,c,hc
dihedral_coeff	15 at    0.00000    0.00000    0.00000    0.00000    0.00000    0.00000  120.05000  110.50000  # cp,cp,c,oc
dihedral_coeff	16 at    1.97670    1.02390    0.00000    1.97670    1.02390    0.00000  118.90000  118.90000  # cp,cp,cp,cp
dihedral_coeff	17 at    0.00000    2.71470    0.00000    0.00000    2.50140    0.00000  118.90000  117.94000  # cp,cp,cp,hc
dihedral_coeff	18 at    0.00000    0.00000    0.00000    0.00000    0.00000    0.00000  109.00000  108.72800  # h,oh,c,hc
dihedral_coeff	19 at   -0.80850    0.55690   -0.24660   -0.80850    0.55690   -0.24660  110.77000  110.77000  # hc,c,c,hc
dihedral_coeff	20 at    0.00000    2.45010    0.00000    0.00000    2.45010    0.00000  117.94000  117.94000  # hc,cp,cp,hc

# AngleAngleTorsion Coeffs

dihedral_coeff	 1 aat  -22.04500  112.67000  112.67000  # c,c,c,c
dihedral_coeff	 2 aat  -16.16400  112.67000  110.77000  # c,c,c,hc
dihedral_coeff	 3 aat  -29.04200  112.67000  111.27000  # c,c,c,o4e
dihedral_coeff	 4 aat  -29.04200  112.67000  111.27000  # c,c,c,oc
dihedral_coeff	 5 aat  -29.04200  112.67000  111.27000  # c,c,c,oh
dihedral_coeff	 6 aat  -19.00590  111.27000  104.50000  # c,c,o4e,c
dihedral_coeff	 7 aat  -19.00590  111.27000  104.50000  # c,c,oc,c
dihedral_coeff	 8 aat    0.00000  111.27000  109.00000  # c,c,oh,h
dihedral_coeff	 9 aat  -14.40970  120.05000  118.90000  # c,cp,cp,cp
dihedral_coeff	10 aat    4.44440  120.05000  117.94000  # c,cp,cp,hc
dihedral_coeff	11 aat  -16.44380  104.50000  108.72800  # c,o4e,c,hc
dihedral_coeff	12 aat    0.00000  104.50000  110.50000  # c,oc,c,cp
dihedral_coeff	13 aat  -16.44380  104.50000  108.72800  # c,oc,c,hc
dihedral_coeff	14 aat   -5.88880  120.05000  111.00000  # cp,cp,c,hc
dihedral_coeff	15 aat    0.00000  120.05000  110.50000  # cp,cp,c,oc
dihedral_coeff	16 aat    0.00000  118.90000  118.90000  # cp,cp,cp,cp
dihedral_coeff	17 aat   -4.81410  118.90000  117.94000  # cp,cp,cp,hc
dihedral_coeff	18 aat    0.00000  109.00000  108.72800  # h,oh,c,hc
dihedral_coeff	19 aat  -12.56400  110.77000  110.77000  # hc,c,c,hc
dihedral_coeff	20 aat    0.35980  117.94000  117.94000  # hc,cp,cp,hc

# BondBond13 Coeffs

dihedral_coeff	 1 bb13    0.00000    1.53000    1.53000  # c,c,c,c
dihedral_coeff	 2 bb13    0.00000    1.53000    1.10100  # c,c,c,hc
dihedral_coeff	 3 bb13    0.00000    1.53000    1.42000  # c,c,c,o4e
dihedral_coeff	 4 bb13    0.00000    1.53000    1.42000  # c,c,c,oc
dihedral_coeff	 5 bb13    0.00000    1.53000    1.42000  # c,c,c,oh
dihedral_coeff	 6 bb13    0.00000    1.53000    1.42000  # c,c,o4e,c
dihedral_coeff	 7 bb13    0.00000    1.53000    1.42000  # c,c,oc,c
dihedral_coeff	 8 bb13    0.00000    1.53000    0.96000  # c,c,oh,h
dihedral_coeff	 9 bb13    2.50850    1.50100    1.41700  # c,cp,cp,cp
dihedral_coeff	10 bb13    0.87430    1.50100    1.09820  # c,cp,cp,hc
dihedral_coeff	11 bb13    0.00000    1.42000    1.10100  # c,o4e,c,hc
dihedral_coeff	12 bb13    0.00000    1.42000    1.50100  # c,oc,c,cp
dihedral_coeff	13 bb13    0.00000    1.42000    1.10100  # c,oc,c,hc
dihedral_coeff	14 bb13   -3.48260    1.41700    1.10100  # cp,cp,c,hc
dihedral_coeff	15 bb13    0.00000    1.41700    1.42000  # cp,cp,c,oc
dihedral_coeff	16 bb13   53.00000    1.41700    1.41700  # cp,cp,cp,cp
dihedral_coeff	17 bb13   -6.27410    1.41700    1.09820  # cp,cp,cp,hc
dihedral_coeff	18 bb13    0.00000    0.96000    1.10100  # h,oh,c,hc
dihedral_coeff	19 bb13    0.00000    1.10100    1.10100  # hc,c,c,hc
dihedral_coeff	20 bb13   -1.70770    1.09820    1.09820  # hc,cp,cp,hc

# Improper Coeffs

improper_coeff	 1    0.00000    0.00000  # c,c,c,c
improper_coeff	 2    0.00000    0.00000  # c,c,c,hc
improper_coeff	 3    0.00000    0.00000  # c,c,hc,hc
improper_coeff	 4    0.00000    0.00000  # c,c,hc,o4e
improper_coeff	 5    0.00000    0.00000  # c,c,hc,oc
improper_coeff	 6    0.00000    0.00000  # c,c,o4e,hc
improper_coeff	 7    0.00000    0.00000  # c,c,oc,hc
improper_coeff	 8    0.00000    0.00000  # c,c,oh,hc
improper_coeff	 9    0.00000    0.00000  # c,cp,hc,hc
improper_coeff	10    0.00000    0.00000  # c,cp,hc,oc
improper_coeff	11    0.00000    0.00000  # c,hc,hc,hc
improper_coeff	12    0.00000    0.00000  # c,hc,hc,o4e
improper_coeff	13    0.00000    0.00000  # c,hc,hc,oc
improper_coeff	14    0.00000    0.00000  # c,hc,hc,oh
improper_coeff	15    7.81530    0.00000  # cp,c,cp,cp
improper_coeff	16    4.89120    0.00000  # cp,cp,cp,hc

# AngleAngle Coeffs

improper_coeff	 1 aa   -0.17290   -0.17290   -0.17290  112.67000  112.67000  112.67000  # c,c,c,c
improper_coeff	 2 aa   -1.31990   -1.31990    0.11840  112.67000  110.77000  110.77000  # c,c,c,hc
improper_coeff	 3 aa    0.27380   -0.48250    0.27380  110.77000  110.77000  107.66000  # c,c,hc,hc
improper_coeff	 4 aa    3.91770    2.59260    0.16890  110.77000  111.27000  108.72800  # c,c,hc,o4e
improper_coeff	 5 aa    3.91770    2.59260    0.16890  110.77000  111.27000  108.72800  # c,c,hc,oc
improper_coeff	 6 aa    0.16890    2.59260    3.91770  111.27000  110.77000  108.72800  # c,c,o4e,hc
improper_coeff	 7 aa    0.16890    2.59260    3.91770  111.27000  110.77000  108.72800  # c,c,oc,hc
improper_coeff	 8 aa    0.16890    2.59260    3.91770  111.27000  110.77000  108.72800  # c,c,oh,hc
improper_coeff	 9 aa    0.00000    3.01180    0.00000  111.00000  111.00000  107.66000  # c,cp,hc,hc
improper_coeff	10 aa    0.00000    0.00000    0.00000  111.00000  110.50000  108.72800  # c,cp,hc,oc
improper_coeff	11 aa   -0.31570   -0.31570   -0.31570  107.66000  107.66000  107.66000  # c,hc,hc,hc
improper_coeff	12 aa    2.42590    2.42590    2.12830  107.66000  108.72800  108.72800  # c,hc,hc,o4e
improper_coeff	13 aa    2.42590    2.42590    2.12830  107.66000  108.72800  108.72800  # c,hc,hc,oc
improper_coeff	14 aa    2.42590    2.42590    2.12830  107.66000  108.72800  108.72800  # c,hc,hc,oh
improper_coeff	15 aa    0.00000    0.00000    0.00000  120.05000  120.05000  118.90000  # cp,c,cp,cp
improper_coeff	16 aa    0.00000    0.00000    0.00000  118.90000  117.94000  117.94000  # cp,cp,cp,hc

# ------------------------------- OPT Section -------------------------------
minimize 1.0e-5 1.0e-7 100000 400000
PPPM initialization ...
  using 12-bit tables for long-range coulomb (../kspace.cpp:342)
  G vector (1/distance) = 0.11353295
  grid = 4 4 4
  stencil order = 5
  estimated absolute RMS force accuracy = 0.2854615
  estimated relative force accuracy = 0.00085965884
  using double precision KISS FFT
  3d grid and FFT values/proc = 294 4
Generated 21 of 21 mixed pair_coeff terms from sixthpower/sixthpower mixing rule
Neighbor list info ...
  update: every = 1 steps, delay = 0 steps, check = yes
  max neighbors/atom: 2000, page size: 100000
  master list distance cutoff = 12
  ghost atom cutoff = 12
  binsize = 6, bins = 7 7 7
  1 neighbor lists, perpetual/occasional/extra = 1 0 0
  (1) pair lj/class2/coul/long, perpetual
      attributes: half, newton on
      pair build: half/bin/newton
      stencil: half/bin/3d
      bin: standard
WARNING: Inconsistent image flags (../domain.cpp:815)
  PPPM/cg optimization cutoff: 1e-05
  Total charged atoms: 94.0%
  Min/max charged atoms/proc: 92.9% 95.1%
Per MPI rank memory allocation (min/avg/max) = 23.34 | 23.35 | 23.36 Mbytes
   Step          Temp          E_pair         E_mol          TotEng         Press     
         0   613.80584      2034.4913      6632.7163      17872.119      1070.9874    
        91   613.80584      1295.6324     -1547.1477      8953.3966      4253.2162    
Loop time of 1.03915 on 24 procs for 91 steps with 5032 atoms

99.3% CPU use with 24 MPI tasks x no OpenMP threads

Minimization stats:
  Stopping criterion = linesearch alpha is zero
  Energy initial, next-to-last, final = 
      8667.20763499674  -251.515247992996  -251.515247992996
  Force two-norm initial, final = 3411.6474 68.561654
  Force max component initial, final = 172.97552 5.9412446
  Final line search alpha, max atom move = 1.7425444e-12 1.0352882e-11
  Iterations, force evaluations = 91 252

MPI task timing breakdown:
Section |  min time  |  avg time  |  max time  |%varavg| %total
---------------------------------------------------------------
Pair    | 0.45084    | 0.58791    | 0.75904    |   9.8 | 56.58
Bond    | 0.12454    | 0.15014    | 0.18623    |   4.4 | 14.45
Kspace  | 0.052991   | 0.25259    | 0.40545    |  17.0 | 24.31
Neigh   | 0.0086414  | 0.0086547  | 0.0086734  |   0.0 |  0.83
Comm    | 0.032105   | 0.033317   | 0.035342   |   0.5 |  3.21
Output  | 0          | 0          | 0          |   0.0 |  0.00
Modify  | 0          | 0          | 0          |   0.0 |  0.00
Other   |            | 0.006538   |            |       |  0.63

Nlocal:        209.667 ave         237 max         172 min
Histogram: 1 1 1 3 4 4 2 2 1 5
Nghost:        4323.42 ave        4424 max        4243 min
Histogram: 1 4 2 4 4 2 4 1 0 2
Neighs:        62714.3 ave       79357 max       48211 min
Histogram: 1 1 5 5 2 2 3 1 3 1

Total # of neighbors = 1505143
Ave neighs/atom = 299.11427
Ave special neighs/atom = 5.8028617
Neighbor list builds = 3
Dangerous builds = 0
# ------------------------------- Run Section -------------------------------
#

timestep 0.25
neighbor        2.0 bin
neigh_modify    delay 0 every 1 check yes

thermo_style custom step temp pe evdwl ecoul ebond eangle edihed eimp density vol
thermo 20000

variable        Rho equal density
variable        Temp equal temp
variable        Volume equal vol
fix             fDENS all ave/time 100 100 300000 v_Temp v_Rho v_Volume file temp_vs_density.txt
fix def1 all print 100 "${Temp} ${Rho} ${Volume} " file press.dat screen no

label           loop
variable        a loop 26
variable        b equal 600-20*($a-1)
variable        b equal 600-20*(1-1)
fix             fMOM all momentum 100 linear 1 1 1 angular
fix             fNPT all npt temp $b $b $(100.0*dt) iso 1 1 $(100.0*dt)
fix             fNPT all npt temp 600 $b $(100.0*dt) iso 1 1 $(100.0*dt)
fix             fNPT all npt temp 600 600 $(100.0*dt) iso 1 1 $(100.0*dt)
fix             fNPT all npt temp 600 600 25 iso 1 1 $(100.0*dt)
fix             fNPT all npt temp 600 600 25 iso 1 1 25
run             1200000
PPPM initialization ...
  using 12-bit tables for long-range coulomb (../kspace.cpp:342)
  G vector (1/distance) = 0.11353295
  grid = 4 4 4
  stencil order = 5
  estimated absolute RMS force accuracy = 0.2854615
  estimated relative force accuracy = 0.00085965884
  using double precision KISS FFT
  3d grid and FFT values/proc = 294 4
Generated 21 of 21 mixed pair_coeff terms from sixthpower/sixthpower mixing rule
WARNING: Inconsistent image flags (../domain.cpp:815)
Per MPI rank memory allocation (min/avg/max) = 22.22 | 22.23 | 22.24 Mbytes
   Step          Temp          PotEng         E_vdwl         E_coul         E_bond        E_angle        E_dihed        E_impro        Density         Volume    
        91   613.80584     -251.51525     -16.525297      2609.4807      703.09573      996.93312     -3248.3377      1.1611634      0.85517509     60916.259    
     20000   598.18371      8708.8151      795.3703       2622.5081      3908.3762      4594.6119     -2039.9071      124.80945      0.81562844     63869.851    
     40000   600.39156      8508.3353      697.91396      2613.0303      3908.6928      4650.2609     -2178.0525      113.57751      0.85210141     61135.995    
     60000   594.06936      8568.7908      602.59827      2587.3706      4068.136       4600.8903     -2098.5372      104.8556       0.87338672     59646.049    
     80000   587.29726      8506.2822      588.02169      2599.2755      4036.8249      4530.1615     -2063.9604      113.17213      0.86521262     60209.556    
    100000   583.13889      8621.5996      550.55465      2600.4327      4153.9289      4480.5386     -1997.7615      130.5294       0.84963786     61313.26     
    120000   592.34463      8583.0585      657.53814      2610.0227      4172.2047      4358.3695     -2041.2139      123.13301      0.85206545     61138.575    
    140000   605.40409      8583.9921      547.12808      2596.7704      4104.3334      4626.507      -2123.0958      129.13593      0.86667883     60107.696    
    160000   599.10665      8422.8526      568.50245      2613.1255      4019.2089      4570.5824     -2170.3052      119.01524      0.88018432     59185.407    
    180000   601.02659      8505.0376      604.86052      2597.0999      4099.4872      4550.1185     -2163.6962      114.52267      0.87580764     59481.175    
    200000   601.97788      8461.9532      678.17755      2628.1235      4060.5287      4423.2355     -2140.0877      108.99009      0.86481188     60237.456    
    220000   596.6471       8450.6289      506.53355      2581.1776      4070.7002      4525.8086     -2064.0689      127.83333      0.87873481     59283.036    
    240000   604.6352       8621.5478      661.2496       2611.7847      4071.5178      4581.6804     -2128.1197      120.76339      0.86777321     60031.891    
    260000   588.93639      8423.9891      515.035        2635.7412      4108.7384      4468.6347     -2125.9887      119.04358      0.84772783     61451.406    
    280000   607.8273       8383.0313      532.60649      2600.0164      4166.6659      4443.207      -2181.5699      119.98228      0.86307577     60358.626    
    300000   595.59161      8617.556       608.06828      2610.202       4089.5736      4516.6122     -2048.2057      138.69844      0.87906007     59261.101    
    320000   588.58097      8527.6215      608.28735      2595.491       4203.7123      4402.2149     -2106.6834      121.81981      0.85821348     60700.593    
    340000   587.90918      8472.5703      635.0125       2587.1932      4099.9564      4326.3173     -2006.237       128.13254      0.87283036     59684.069    
    360000   600.71603      8509.8491      628.08356      2597.4623      4207.0313      4316.1147     -2066.108       124.0302       0.8653096      60202.808    
    380000   606.52561      8529.9148      586.09135      2606.968       4323.0428      4459.009      -2270.9614      123.13042      0.85278136     61087.249    
    400000   592.84693      8615.1953      631.31893      2596.5915      4282.6194      4494.5118     -2206.0517      112.97479      0.85391812     61005.928    
    420000   597.67603      8348.6853      606.24948      2567.9037      4016.288       4375.0811     -2048.4866      128.5556       0.85249838     61107.527    
    440000   600.84051      8649.7521      630.00891      2599.9264      4091.7446      4584.6309     -2083.3983      122.90997      0.85390461     61006.893    
    460000   603.14981      8457.1459      636.63145      2596.9107      3976.1459      4544.9974     -2116.6549      116.54504      0.87024886     59861.116    
    480000   598.07483      8479.7513      655.85999      2582.2258      4035.6412      4443.7127     -2070.8436      129.52529      0.87030506     59857.25     
    500000   592.19551      8393.5984      651.416        2594.6917      4045.4698      4375.9924     -2096.6851      120.03441      0.86033566     60550.864    
    520000   592.83902      8477.3354      587.75712      2603.7838      4175.4277      4401.6742     -2125.3093      131.30316      0.86039123     60546.953    
    540000   601.99679      8471.9381      631.23233      2585.9274      4056.3344      4433.5544     -2070.2527      132.40089      0.87134867     59785.559    
    560000   586.7399       8543.4808      693.44565      2612.58        4084.7439      4551.6029     -2233.0218      131.10125      0.84722951     61487.551    
    580000   611.77211      8377.1428      617.09316      2610.3347      4035.0815      4386.8826     -2097.6705      122.90633      0.84959899     61316.065    
    600000   615.45652      8424.8414      589.58215      2579.9338      4185.5165      4388.2784     -2142.8203      121.79009      0.88414841     58920.049    
    620000   603.55309      8459.8186      641.32641      2606.9426      4221.2857      4416.7537     -2239.6029      110.51803      0.86883723     59958.374    
    640000   591.12696      8536.0091      562.57865      2600.8555      4139.7833      4552.2446     -2134.9529      113.08362      0.8679272      60021.241    
    660000   589.67467      8442.2148      605.50447      2576.5688      4112.9165      4398.1684     -2075.3247      121.61875      0.86386956     60303.164    
    680000   596.0279       8436.7681      625.99391      2578.9816      4155.3699      4380.1354     -2131.2713      124.86133      0.87165045     59764.86     
    700000   608.83148      8594.709       575.06173      2585.4296      4138.8913      4513.9202     -2060.6636      137.93755      0.86974256     59895.962    
    720000   599.5396       8214.1611      602.55583      2602.0945      3972.3533      4352.9238     -2143.9945      125.76616      0.87483308     59547.437    
    740000   599.17612      8125.2688      634.9721       2598.7136      3776.2494      4406.2335     -2121.703       127.70673      0.86634706     60130.714    
    760000   610.89423      8351.798       665.31427      2611.7476      3965.2905      4370.1779     -2088.2559      124.58672      0.87753898     59363.822    
    780000   597.99133      8449.8943      516.4704       2582.1893      4148.213       4421.3472     -2046.6718      125.52367      0.86232663     60411.062    
    800000   592.85135      8621.8362      605.65253      2566.1589      4212.0411      4539.2829     -2121.3009      117.05003      0.87629433     59448.14     
    820000   601.89849      8455.6007      541.93558      2558.3259      4126.2239      4538.8596     -2140.1346      128.3543       0.88168472     59084.689    
    840000   590.82925      8396.2594      591.38834      2571.1011      4125.4451      4443.783      -2147.4727      108.51525      0.86215261     60423.255    
    860000   593.3496       8590.9531      551.77519      2612.281       4087.6372      4529.3841     -2021.7396      128.25492      0.86498874     60225.139    
    880000   584.72814      8457.6707      628.89007      2614.4642      4055.4576      4518.2985     -2171.4356      109.14284      0.83389897     62470.478    
    900000   600.61181      8462.5498      636.975        2602.4754      4068.0875      4507.7136     -2173.6206      118.00023      0.8558456      60868.534    
    920000   592.85883      8548.2847      672.76111      2589.7527      4117.3223      4481.4695     -2137.7637      120.28546      0.86267669     60386.548    
    940000   607.83455      8518.0373      694.91963      2580.7883      4055.9586      4511.0238     -2148.1167      120.62722      0.86234649     60409.671    
    960000   607.43105      8602.579       670.08178      2559.7989      4171.7956      4540.3162     -2162.2779      119.48853      0.86708112     60079.808    
    980000   605.92077      8605.5397      649.90921      2630.1685      4076.8841      4501.8595     -2089.1932      132.0746       0.85411245     60992.048    
   1000000   600.53596      8349.1719      580.09448      2608.8555      4000.523       4353.8586     -2024.3405      127.13771      0.86423905     60277.382    
   1020000   599.02168      8490.2104      654.70547      2580.1657      4100.1909      4471.7986     -2142.1029      120.91661      0.8448177      61663.087    
   1040000   597.586        8551.8954      631.8989       2613.0505      4092.4892      4493.3242     -2102.5062      120.06361      0.87185912     59750.556    
   1060000   589.68083      8413.3754      564.1593       2604.8181      4102.8867      4505.1044     -2180.5468      113.02824      0.86625543     60137.074    
   1080000   602.92859      8435.2511      605.18696      2584.0644      4058.2225      4472.5759     -2112.0858      123.88537      0.86159333     60462.478    
   1100000   596.8613       8478.3663      554.48017      2615.1225      4045.3514      4499.5315     -2060.4468      120.99094      0.87168613     59762.414    
   1120000   605.47638      8562.9192      683.64143      2620.4385      4101.7339      4500.9247     -2170.6277      123.17768      0.84785618     61442.104    
   1140000   604.22271      8468.9541      617.91263      2601.1153      4007.6157      4533.8001     -2115.4908      120.30886      0.87523398     59520.161    
   1160000   599.53011      8376.0823      533.84459      2611.0132      4073.2609      4421.2369     -2089.936       124.11465      0.87787581     59341.045    
   1180000   602.58673      8504.9318      631.37767      2584.9792      4096.89        4505.0341     -2145.8476      128.95404      0.86160779     60461.463    
   1200000   607.59621      8701.3555      568.06117      2616.3109      4107.8196      4658.2294     -2083.6984      131.38559      0.85085491     61225.559    
   1200091   609.36587      8836.166       634.91672      2619.6652      4246.9645      4610.0401     -2117.2906      139.38279      0.85325373     61053.43     
Loop time of 3664.66 on 24 procs for 1200000 steps with 5032 atoms

Performance: 7.073 ns/day, 3.393 hours/ns, 327.452 timesteps/s, 1.648 Matom-step/s
99.5% CPU use with 24 MPI tasks x no OpenMP threads

MPI task timing breakdown:
Section |  min time  |  avg time  |  max time  |%varavg| %total
---------------------------------------------------------------
Pair    | 1675       | 1884.8     | 2073.1     | 282.1 | 51.43
Bond    | 557.5      | 638.62     | 721.1      | 152.0 | 17.43
Kspace  | 678.42     | 916.99     | 1152.1     | 476.7 | 25.02
Neigh   | 55.386     | 55.422     | 55.453     |   0.2 |  1.51
Comm    | 120.15     | 122.51     | 124.96     |  12.1 |  3.34
Output  | 0.0030044  | 0.0048667  | 0.046719   |  12.5 |  0.00
Modify  | 32.328     | 33.949     | 35.537     |  16.5 |  0.93
Other   |            | 12.35      |            |       |  0.34

Nlocal:        209.667 ave         242 max         175 min
Histogram: 1 1 2 5 3 2 3 4 2 1
Nghost:        4282.38 ave        4350 max        4214 min
Histogram: 1 4 2 2 2 1 8 2 0 2
Neighs:        62307.5 ave       77797 max       50128 min
Histogram: 3 4 1 2 4 4 1 2 1 2

Total # of neighbors = 1495379
Ave neighs/atom = 297.17389
Ave special neighs/atom = 5.8028617
Neighbor list builds = 19254
Dangerous builds = 0
unfix           fNPT
unfix           fMOM
next            a
jump            SELF loop
variable        a loop 26
variable        b equal 600-20*($a-1)
variable        b equal 600-20*(2-1)
fix             fMOM all momentum 100 linear 1 1 1 angular
fix             fNPT all npt temp $b $b $(100.0*dt) iso 1 1 $(100.0*dt)
fix             fNPT all npt temp 580 $b $(100.0*dt) iso 1 1 $(100.0*dt)
fix             fNPT all npt temp 580 580 $(100.0*dt) iso 1 1 $(100.0*dt)
fix             fNPT all npt temp 580 580 25 iso 1 1 $(100.0*dt)
fix             fNPT all npt temp 580 580 25 iso 1 1 25
run             1200000
PPPM initialization ...
  using 12-bit tables for long-range coulomb (../kspace.cpp:342)
  G vector (1/distance) = 0.11347049
  grid = 4 4 4
  stencil order = 5
  estimated absolute RMS force accuracy = 0.28554522
  estimated relative force accuracy = 0.00085991095
  using double precision KISS FFT
  3d grid and FFT values/proc = 294 4
Generated 21 of 21 mixed pair_coeff terms from sixthpower/sixthpower mixing rule
WARNING: Inconsistent image flags (../domain.cpp:815)
Per MPI rank memory allocation (min/avg/max) = 22.22 | 22.25 | 22.61 Mbytes
   Step          Temp          PotEng         E_vdwl         E_coul         E_bond        E_angle        E_dihed        E_impro        Density         Volume    
   1200091   609.36587      8836.1828      634.91672      2618.969       4246.9645      4610.0401     -2117.2906      139.38279      0.85325373     61053.43     
   1220000   580.96987      8268.2515      590.23258      2588.9419      4112.5097      4265.7862     -2111.8815      119.15902      0.87597314     59469.937    
   1240000   576.79119      8378.7873      657.90271      2605.9088      4033.2082      4400.2907     -2158.7932      136.47477      0.85465232     60953.52     
   1260000   577.23877      8089.0264      651.39174      2603.6282      3917.445       4279.4313     -2180.1295      114.14256      0.87618941     59455.258    
   1280000   584.40839      8112.51        554.30464      2602.3964      4085.2227      4284.5753     -2231.5927      114.09116      0.8806395      59154.816    
   1300000   569.07704      8243.4064      493.98554      2552.2574      4081.2628      4396.5662     -2115.179       130.5511       0.89521086     58191.952    
   1320000   584.90584      8033.9978      499.32693      2603.4871      3997.4631      4329.2521     -2220.2582      120.4881       0.87654001     59431.477    
   1340000   572.44424      8193.2249      427.09647      2618.4283      4009.3354      4405.4643     -2090.5206      119.62316      0.88320338     58983.093    
   1360000   571.60643      8229.6762      549.27344      2616.2005      3885.8098      4416.8095     -2059.7518      115.84106      0.86611026     60147.154    
   1380000   580.69668      8068.2268      491.8035       2618.2375      3950.9796      4344.2941     -2164.7542      123.54729      0.88646947     58765.777    
   1400000   581.20055      8202.9336      616.47496      2604.462       4003.7899      4272.0678     -2119.5222      122.42501      0.87756296     59362.2      
   1420000   582.85584      8453.345       639.22986      2598.6636      4066.7808      4419.7411     -2104.9034      130.31559      0.87969681     59218.207    
   1440000   586.44496      8148.16        537.82999      2577.2164      4001.8842      4381.1782     -2160.969       107.87732      0.88243511     59034.446    
   1460000   585.10043      8014.1437      486.29827      2583.8498      4055.392       4223.9662     -2154.367       115.63386      0.888436       58635.701    
   1480000   581.75149      8074.4333      623.47886      2580.9146      3951.2023      4298.6691     -2183.5445      100.79419      0.88460786     58889.447    
   1500000   587.33867      8206.515       570.778        2612.8558      4043.8432      4282.9867     -2124.8311      117.30064      0.86905125     59943.608    
   1520000   577.63238      8131.5871      582.07787      2612.5567      3892.3451      4354.511      -2121.1464      107.97309      0.88200644     59063.137    
   1540000   574.78086      8099.6886      506.1644       2604.8555      3866.6044      4536.6042     -2226.2342      108.35943      0.88163391     59088.094    
   1560000   577.76909      8146.0921      548.82922      2589.5659      4117.1171      4263.2565     -2192.7065      116.26549      0.87461142     59562.528    
   1580000   579.82502      8261.6011      604.06975      2595.952       4043.7963      4325.6923     -2121.0445      107.63506      0.87218777     59728.041    
   1600000   581.68236      8070.3056      685.1677       2618.197       3835.0876      4256.7921     -2142.2055      113.77581      0.85546405     60895.683    
   1620000   586.92371      8212.9666      589.36848      2586.9937      4000.2809      4344.6696     -2135.9112      123.97114      0.86187794     60442.512    
   1640000   576.82416      8036.3386      603.42201      2613.58        3811.5086      4310.4818     -2127.2572      120.61809      0.86568418     60176.758    
   1660000   587.23917      8306.4787      612.25777      2591.4174      4129.4958      4385.2902     -2230.9923      115.48145      0.86094902     60507.726    
   1680000   576.91167      8355.6705      601.71327      2601.2815      4112.7975      4323.9388     -2105.5127      117.6129       0.84145709     61909.357    
   1700000   574.11806      8116.3429      625.74197      2594.2281      3958.7823      4289.4064     -2166.0491      109.3516       0.85535609     60903.369    
   1720000   569.45303      8242.28        613.78564      2582.5328      4026.6436      4402.0109     -2208.7809      122.5596       0.86386889     60303.21     
   1740000   569.91006      8181.5719      584.22688      2607.4159      3838.3418      4408.1599     -2078.5506      118.22988      0.86610368     60147.611    
   1760000   572.40482      8196.3248      635.66222      2601.929       4004.3763      4329.7696     -2190.3458      111.8956       0.86608421     60148.964    
   1780000   585.15201      8276.0299      562.47843      2583.7015      3862.8695      4480.1321     -2048.5234      131.64191      0.86446038     60261.949    
   1800000   583.9957       8440.651       626.22485      2602.424       4065.3722      4412.0424     -2101.5279      132.47545      0.86393589     60298.534    
   1820000   589.99438      8161.4267      606.73762      2560.4716      4081.4769      4325.7552     -2236.0647      119.30548      0.87451978     59568.77     
   1840000   572.30061      8270.8042      615.40166      2615.8733      4034.4645      4325.919      -2145.2502      120.85582      0.87475191     59552.962    
   1860000   572.56858      8057.1952      559.23906      2598.9515      4005.3492      4202.899      -2123.0823      110.60745      0.87431948     59582.416    
   1880000   576.38626      8222.8471      576.85771      2590.7438      4000.6289      4390.1474     -2154.1231      115.33965      0.88308649     58990.9      
   1900000   589.99674      8150.6103      642.6576       2623.4052      3868.6581      4367.2503     -2174.9934      120.02188      0.84085564     61953.639    
   1920000   574.21749      8175.367       662.31188      2600.0412      3989.1147      4282.693      -2175.0289      112.17913      0.87550466     59501.759    
   1940000   589.90057      8280.5015      566.94972      2605.4608      4109.3003      4443.293      -2261.7172      113.482        0.87280833     59685.576    
   1960000   574.93607      8150.9447      584.75105      2575.9767      3945.0233      4326.6633     -2102.8784      117.72711      0.86668737     60107.104    
   1980000   583.64353      8039.4476      697.43712      2560.0432      3870.7435      4206.8221     -2132.2629      132.72277      0.86950221     59912.519    
   2000000   580.22614      7930.7657      538.40046      2592.2898      3823.2035      4277.1861     -2113.8027      110.06191      0.8674914      60051.394    
   2020000   588.46566      8227.683       514.01378      2614.7186      3924.1845      4450.7776     -2098.0053      118.83338      0.87053708     59841.296    
   2040000   582.07261      8313.7835      662.41061      2596.7874      4054.5301      4295.4734     -2123.2653      124.72642      0.85008687     61280.875    
   2060000   580.4171       8337.8661      635.01187      2582.969       4125.6143      4281.2692     -2122.0438      131.41229      0.86229686     60413.148    
   2080000   580.83431      8114.7209      653.48642      2580.4836      3940.6321      4270.5265     -2155.5961      120.43001      0.85616101     60846.11     
   2100000   576.33575      8344.8825      617.18585      2584.0058      4027.1712      4418.272      -2130.7485      125.82345      0.87414092     59594.587    
   2120000   565.83363      8144.8939      599.2577       2597.9091      3875.6995      4389.9        -2145.963       123.85943      0.88623363     58781.416    
   2140000   582.24313      8456.7577      593.57265      2592.7449      3983.4161      4513.4284     -2069.2658      138.34169      0.86575551     60171.8      
   2160000   580.49295      8181.3431      582.55694      2571.1698      3941.6973      4344.1533     -2082.7676      121.16852      0.87899483     59265.5      
   2180000   581.57498      8177.4984      550.14809      2613.8844      3853.121       4539.1765     -2196.6529      114.64842      0.86442448     60264.452    
   2200000   579.19074      8271.2171      563.13099      2589.6642      4059.1208      4387.1193     -2156.754       124.89112      0.87016733     59866.724    
   2220000   578.77488      8227.9287      597.66243      2581.8262      4093.5777      4317.9929     -2190.075       123.41013      0.86171861     60453.687    
   2240000   575.22985      8255.2612      622.83549      2605.8262      3915.4012      4431.5362     -2142.2676      118.15347      0.85741009     60757.47     
   2260000   586.7186       7972.4705      471.62087      2571.9329      4064.6088      4292.0599     -2252.6598      120.67223      0.87461223     59562.473    
   2280000   577.04937      8127.3921      599.63446      2584.5399      3970.4187      4312.9004     -2163.173       119.71232      0.86764213     60040.962    
   2300000   576.77285      8116.1274      586.63976      2574.8411      3978.7864      4313.4368     -2146.7585      104.90072      0.86582783     60166.774    
   2320000   583.11949      8135.6572      516.81133      2595.9444      3960.2228      4437.1315     -2191.0413      113.1699       0.87059024     59837.643    
   2340000   577.25712      8238.707       560.50733      2580.2126      3978.7397      4418.3116     -2123.9871      120.80378      0.88123435     59114.885    
   2360000   583.94621      8294.9865      584.53305      2591.5172      4058.2546      4354.7695     -2127.6828      129.45983      0.87764437     59356.693    
   2380000   567.1419       8172.7168      537.79919      2586.8688      3917.4873      4329.4297     -2031.6316      129.11487      0.89678296     58089.939    
   2400000   589.91858      8029.6302      555.54986      2604.8153      4008.0554      4218.1153     -2162.7148      102.83236      0.87367321     59626.49     
   2400091   592.57269      7967.1318      582.31542      2575.7136      3853.5274      4265.681      -2121.949       108.82743      0.86977382     59893.81     
Loop time of 3717.08 on 24 procs for 1200000 steps with 5032 atoms

Performance: 6.973 ns/day, 3.442 hours/ns, 322.834 timesteps/s, 1.625 Matom-step/s
99.5% CPU use with 24 MPI tasks x no OpenMP threads

MPI task timing breakdown:
Section |  min time  |  avg time  |  max time  |%varavg| %total
---------------------------------------------------------------
Pair    | 1685.7     | 1913.3     | 2205       | 313.3 | 51.47
Bond    | 548.82     | 635.08     | 705.91     | 149.2 | 17.09
Kspace  | 591.76     | 946.53     | 1211.6     | 518.3 | 25.46
Neigh   | 52.703     | 52.733     | 52.759     |   0.2 |  1.42
Comm    | 121        | 123.09     | 125.41     |  12.3 |  3.31
Output  | 0.0040035  | 0.004522   | 0.015968   |   3.5 |  0.00
Modify  | 32.267     | 33.922     | 35.087     |  15.1 |  0.91
Other   |            | 12.39      |            |       |  0.33

Nlocal:        209.667 ave         243 max         169 min
Histogram: 1 0 0 4 6 2 7 1 2 1
Nghost:        4381.38 ave        4480 max        4311 min
Histogram: 1 4 3 4 3 4 3 1 0 1
Neighs:        63930.7 ave       73677 max       50300 min
Histogram: 1 1 1 4 4 0 4 2 4 3

Total # of neighbors = 1534336
Ave neighs/atom = 304.91574
Ave special neighs/atom = 5.8028617
Neighbor list builds = 18605
Dangerous builds = 0
unfix           fNPT
unfix           fMOM
next            a
jump            SELF loop
variable        a loop 26
variable        b equal 600-20*($a-1)
variable        b equal 600-20*(3-1)
fix             fMOM all momentum 100 linear 1 1 1 angular
fix             fNPT all npt temp $b $b $(100.0*dt) iso 1 1 $(100.0*dt)
fix             fNPT all npt temp 560 $b $(100.0*dt) iso 1 1 $(100.0*dt)
fix             fNPT all npt temp 560 560 $(100.0*dt) iso 1 1 $(100.0*dt)
fix             fNPT all npt temp 560 560 25 iso 1 1 $(100.0*dt)
fix             fNPT all npt temp 560 560 25 iso 1 1 25
run             1200000
PPPM initialization ...
  using 12-bit tables for long-range coulomb (../kspace.cpp:342)
  G vector (1/distance) = 0.11400359
  grid = 4 4 4
  stencil order = 5
  estimated absolute RMS force accuracy = 0.2848213
  estimated relative force accuracy = 0.00085773088
  using double precision KISS FFT
  3d grid and FFT values/proc = 294 4
Generated 21 of 21 mixed pair_coeff terms from sixthpower/sixthpower mixing rule
WARNING: Inconsistent image flags (../domain.cpp:815)
Per MPI rank memory allocation (min/avg/max) = 22.22 | 22.28 | 22.61 Mbytes
   Step          Temp          PotEng         E_vdwl         E_coul         E_bond        E_angle        E_dihed        E_impro        Density         Volume    
   2400091   592.57269      7967.386       582.31542      2582.0533      3853.5274      4265.681      -2121.949       108.82743      0.86977382     59893.81     
   2420000   549.82749      7861.9456      493.74265      2596.433       3894.7733      4276.6656     -2223.2932      125.81281      0.88485126     58873.247    
   2440000   569.02153      7818.188       562.49674      2605.2361      3862.4808      4150.4685     -2172.9641      113.13496      0.88202567     59061.85     
   2460000   546.75056      7769.4193      538.28415      2611.019       3784.2677      4274.961      -2247.0468      111.03195      0.86627612     60135.638    
   2480000   555.6722       7736.8737      578.25721      2588.7016      3776.5666      4236.4455     -2254.5062      113.83998      0.87733069     59377.915    
   2500000   559.86494      7681.6618      466.42194      2583.9797      3826.458       4169.838      -2164.951       102.51181      0.88182975     59074.971    
   2520000   562.47512      7684.9718      461.36008      2613.672       3711.4047      4232.0714     -2140.5662      109.86908      0.89357811     58298.281    
   2540000   573.68956      7896.854       539.71553      2611.1418      3921.9467      4164.4645     -2148.1342      110.55023      0.87100206     59809.35     
   2560000   553.79403      7840.3062      508.49153      2602.5722      3948.7243      4150.1968     -2188.4547      121.07704      0.88253614     59027.688    
   2580000   555.85478      7748.1115      575.67182      2610.8116      3695.7305      4214.9947     -2151.0649      105.14927      0.88634704     58773.895    
   2600000   564.61451      7718.4693      500.42308      2605.5568      3802.2171      4180.9646     -2181.8992      113.97961      0.87014797     59868.056    
   2620000   558.27695      7851.9042      633.92572      2607.3998      3740.9262      4222.4704     -2167.5003      117.62287      0.8840477      58926.761    
   2640000   554.91397      7879.9024      492.58117      2584.5237      3845.2077      4312.975      -2161.8812      108.84038      0.88641836     58769.166    
   2660000   556.07433      7821.9136      597.83375      2590.9789      3915.7748      4172.5866     -2268.3234      116.40616      0.87589943     59474.942    
   2680000   563.65952      7802.1295      564.40244      2601.8437      3829.0012      4183.2897     -2200.5458      126.60368      0.87988348     59205.643    
   2700000   564.43016      7886.408       517.18929      2597.606       3917.0718      4309.4206     -2261.94        109.40505      0.88678402     58744.932    
   2720000   560.00584      7888.6188      601.46126      2602.4048      3917.2863      4256.0591     -2302.6069      116.56941      0.86197705     60435.562    
   2740000   566.33808      7784.9322      543.41044      2591.5232      3780.1872      4228.2044     -2171.9462      116.48517      0.88599891     58796.988    
   2760000   551.48808      7820.9245      546.58293      2607.9005      3797.3922      4258.4034     -2198.559       111.62532      0.87901115     59264.399    
   2780000   561.61918      8019.2757      658.85464      2592.2957      3863.1519      4353.2925     -2262.7589      117.82425      0.84998216     61288.425    
   2800000   560.0838       7840.0249      485.83024      2611.8524      3878.2285      4300.8284     -2238.2399      103.89662      0.89187198     58409.804    
   2820000   557.98908      7674.2037      539.65367      2586.7742      3870.6935      4117.6937     -2258.5164      120.65506      0.8894698      58567.55     
   2840000   555.96374      7788.3182      474.53545      2565.5706      3889.7748      4315.1651     -2263.967       109.30377      0.89310401     58329.228    
   2860000   550.52509      7793.508       539.97301      2590.2697      3846.3792      4200.5877     -2194.2869      113.56393      0.88131987     59109.149    
   2880000   553.14338      7666.4946      541.25902      2579.2503      3768.2334      4163.3163     -2183.6742      100.96614      0.87746244     59369        
   2900000   561.23267      7678.8042      479.95194      2599.8669      3853.9467      4127.728      -2198.9959      118.36248      0.89410926     58263.648    
   2920000   555.96509      7686.3994      485.49944      2588.9431      3820.5095      4187.8371     -2203.2391      109.24281      0.88884187     58608.926    
   2940000   560.38384      7729.3562      580.00283      2602.1243      3827.8794      4202.2441     -2300.4577      119.88977      0.87987621     59206.132    
   2960000   565.46333      7890.9813      541.74801      2596.9573      3843.5555      4259.6802     -2160.3794      111.98201      0.88163806     59087.816    
   2980000   561.0893       7515.4942      528.64427      2569.2314      3762.4979      4075.1925     -2233.6238      115.55328      0.89290885     58341.977    
   3000000   558.66818      7934.3216      549.04332      2611.8488      3951.8477      4189.2497     -2170.7025      104.59705      0.86280926     60377.27     
   3020000   553.98384      7836.8297      603.61556      2578.1705      3863.2806      4174.5925     -2194.0172      114.65135      0.87301432     59671.492    
   3040000   567.21107      7719.2894      563.11256      2582.5173      3762.8793      4255.7711     -2248.2551      106.14326      0.87141256     59781.176    
   3060000   566.27133      7716.161       510.63658      2606.5701      3863.0776      4157.5451     -2225.7517      107.1651       0.8910462      58463.935    
   3080000   566.19796      7925.3949      475.7024       2566.1271      3875.0706      4333.8526     -2133.8451      110.52916      0.89391627     58276.227    
   3100000   564.13565      7791.9979      426.71847      2601.6711      3860.8464      4263.3538     -2169.0604      110.45964      0.89793067     58015.69     
   3120000   558.15912      7789.4069      493.34229      2614.0142      3789.1691      4228.6421     -2151.7708      118.61033      0.90386144     57635.015    
   3140000   559.37361      7770.8035      493.33883      2595.3747      3942.1983      4110.6372     -2197.7298      129.75628      0.90702123     57434.232    
   3160000   553.4656       7618.09        433.92202      2605.7979      3736.0969      4186.8822     -2160.0999      118.04009      0.89572909     58158.284    
   3180000   561.86713      7784.4586      570.08989      2596.3287      3790.9155      4182.6883     -2170.0358      116.88142      0.89658195     58102.962    
   3200000   557.90496      7616.523       509.13585      2580.3858      3766.4413      4082.302      -2131.6538      113.15637      0.87787655     59340.994    
   3220000   559.33562      8026.6621      486.14758      2608.7922      3951.8782      4326.0102     -2154.2052      109.63972      0.87518546     59523.461    
   3240000   565.87926      7869.2479      554.47854      2597.0638      3860.6934      4251.5792     -2213.5792      121.35972      0.88175635     59079.889    
   3260000   556.36365      7877.104       498.62073      2607.6981      3977.9926      4228.2274     -2249.4355      116.48051      0.88765038     58687.596    
   3280000   553.40372      7726.2187      437.40614      2567.6415      3813.2155      4308.6645     -2217.2301      118.98546      0.90226138     57737.224    
   3300000   568.36869      8016.4149      501.37898      2623.9833      3881.9217      4366.2635     -2164.7144      110.55628      0.87853446     59296.556    
   3320000   567.50541      7729.3688      494.0204       2599.23        3822.7649      4155.8406     -2150.2504      109.89414      0.8862519      58780.204    
   3340000   550.4947       7633.2642      575.12865      2581.7616      3765.607       4143.1004     -2240.5768      110.35174      0.8790409      59262.393    
   3360000   561.53951      7703.2634      358.97944      2569.1332      3800.4068      4267.884      -2115.7257      124.72784      0.88974475     58549.452    
   3380000   543.94193      7803.5122      482.53533      2572.316       3843.7567      4231.0638     -2143.1047      120.01349      0.89333144     58314.378    
   3400000   553.72202      7693.0523      475.16502      2599.941       3707.3568      4265.7074     -2168.6042      115.99774      0.87938027     59239.523    
   3420000   561.3083       7902.0451      540.55507      2599.84        3905.1226      4147.9776     -2097.0796      108.26688      0.87612936     59459.333    
   3440000   557.94452      7640.9368      609.93693      2601.1855      3790.0245      4136.1426     -2307.1859      113.30134      0.87648437     59435.25     
   3460000   557.86764      8216.7584      579.64495      2621.2658      3997.704       4350.1062     -2143.2136      114.29785      0.8645901      60252.908    
   3480000   556.28756      7728.997       534.83969      2603.585       3740.3104      4150.9189     -2117.9913      119.93381      0.86627506     60135.712    
   3500000   549.53556      7713.341       510.51405      2608.8979      3758.2355      4222.4863     -2208.1397      124.49093      0.88025824     59180.437    
   3520000   556.62181      7706.6196      537.51475      2572.408       3820.5608      4101.266      -2130.556       107.94667      0.8898779      58540.691    
   3540000   555.94115      7852.8607      560.26119      2596.8867      3864.8712      4221.39       -2203.4183      115.71518      0.85781663     60728.675    
   3560000   560.38368      7594.8519      533.59321      2593.2712      3912.8047      4028.4841     -2276.8031      105.76388      0.87298202     59673.7      
   3580000   567.45471      7867.8187      535.44066      2612.4131      3742.6903      4223.4994     -2065.639       122.0394       0.87048121     59845.137    
   3600000   567.53435      7889.0115      633.1345       2598.2401      3821.2029      4149.7282     -2123.2721      112.57769      0.87913566     59256.005    
   3600091   555.6231       7933.8427      601.12511      2598.8848      3736.0308      4243.2466     -2060.5431      117.6953       0.87235795     59716.39     
Loop time of 3657.52 on 24 procs for 1200000 steps with 5032 atoms

Performance: 7.087 ns/day, 3.387 hours/ns, 328.091 timesteps/s, 1.651 Matom-step/s
99.5% CPU use with 24 MPI tasks x no OpenMP threads

MPI task timing breakdown:
Section |  min time  |  avg time  |  max time  |%varavg| %total
---------------------------------------------------------------
Pair    | 1728.9     | 1937.9     | 2109.1     | 234.6 | 52.98
Bond    | 583.24     | 634.54     | 692.58     | 112.3 | 17.35
Kspace  | 679.91     | 865.04     | 1114.3     | 380.5 | 23.65
Neigh   | 50.585     | 50.633     | 50.683     |   0.5 |  1.38
Comm    | 120.82     | 123.4      | 126.47     |  13.2 |  3.37
Output  | 0.0029646  | 0.003493   | 0.015143   |   4.1 |  0.00
Modify  | 31.933     | 33.88      | 35.304     |  16.0 |  0.93
Other   |            | 12.14      |            |       |  0.33

Nlocal:        209.667 ave         240 max         178 min
Histogram: 2 1 2 5 1 3 3 3 2 2
Nghost:        4410.79 ave        4468 max        4348 min
Histogram: 1 1 3 2 1 7 4 2 2 1
Neighs:        64194.5 ave       80419 max       45701 min
Histogram: 1 0 2 2 4 7 5 1 1 1

Total # of neighbors = 1540668
Ave neighs/atom = 306.17409
Ave special neighs/atom = 5.8028617
Neighbor list builds = 17970
Dangerous builds = 0
unfix           fNPT
unfix           fMOM
next            a
jump            SELF loop
variable        a loop 26
variable        b equal 600-20*($a-1)
variable        b equal 600-20*(4-1)
fix             fMOM all momentum 100 linear 1 1 1 angular
fix             fNPT all npt temp $b $b $(100.0*dt) iso 1 1 $(100.0*dt)
fix             fNPT all npt temp 540 $b $(100.0*dt) iso 1 1 $(100.0*dt)
fix             fNPT all npt temp 540 540 $(100.0*dt) iso 1 1 $(100.0*dt)
fix             fNPT all npt temp 540 540 25 iso 1 1 $(100.0*dt)
fix             fNPT all npt temp 540 540 25 iso 1 1 25
run             1200000
PPPM initialization ...
  using 12-bit tables for long-range coulomb (../kspace.cpp:342)
  G vector (1/distance) = 0.11408618
  grid = 4 4 4
  stencil order = 5
  estimated absolute RMS force accuracy = 0.28470724
  estimated relative force accuracy = 0.0008573874
  using double precision KISS FFT
  3d grid and FFT values/proc = 294 4
Generated 21 of 21 mixed pair_coeff terms from sixthpower/sixthpower mixing rule
WARNING: Inconsistent image flags (../domain.cpp:815)
Per MPI rank memory allocation (min/avg/max) = 22.22 | 22.29 | 22.61 Mbytes
   Step          Temp          PotEng         E_vdwl         E_coul         E_bond        E_angle        E_dihed        E_impro        Density         Volume    
   3600091   555.6231       7933.8832      601.12511      2599.8675      3736.0308      4243.2466     -2060.5431      117.6953       0.87235795     59716.39     
   3620000   535.37298      7496.1337      634.61506      2569.7675      3617.1286      4050.3172     -2182.6731      109.66639      0.8698658      59887.476    
   3640000   529.54421      7517.0056      601.93631      2607.0559      3645.0499      4117.2972     -2252.0416      101.51214      0.85985286     60584.863    
   3660000   527.87699      7515.7939      494.71215      2575.8541      3723.2794      4125.5302     -2211.959       111.22121      0.8778221      59344.675    
   3680000   533.13564      7560.8969      573.77664      2612.0565      3710.7234      4041.2653     -2184.054       110.84685      0.90159759     57779.732    
   3700000   538.11823      7384.2025      442.18817      2585.6459      3717.934       4069.781      -2242.3004      113.97286      0.90347633     57659.582    
   3720000   541.89369      7401.7267      425.3431       2599.2247      3724.8165      3995.1319     -2153.4677      114.1201       0.90574085     57515.422    
   3740000   545.52037      7456.2435      467.86577      2609.6905      3676.8757      4083.9996     -2188.358       109.98685      0.88638328     58771.491    
   3760000   536.07385      7480.0468      369.24214      2582.5858      3850.9591      4025.7271     -2160.2699      114.89064      0.89345955     58306.017    
   3780000   530.57076      7400.0103      455.61377      2588.9757      3706.6807      4053.6442     -2227.1289      125.61641      0.9092799      57291.564    
   3800000   542.34695      7590.944       442.80981      2596.9854      3806.2897      4129.6411     -2184.1768      102.95697      0.89844198     57982.673    
   3820000   538.09141      7575.4985      546.83117      2611.6835      3607.8136      4160.3628     -2166.1658      118.50179      0.88215518     59053.178    
   3840000   551.81584      7471.545       463.98249      2568.8092      3715.2819      4091.1574     -2171.5713      107.40044      0.90674057     57452.009    
   3860000   530.79385      7370.9727      492.50426      2594.1617      3682.8886      4050.9109     -2252.8966      107.0234       0.88496021     58865.999    
   3880000   545.50045      7631.0013      494.27631      2578.8759      3803.4082      4106.4591     -2166.7953      118.27173      0.8912353      58451.531    
   3900000   550.91015      7671.6525      479.0854       2599.5063      3798.6732      4155.6475     -2179.7158      121.89587      0.89615713     58130.506    
   3920000   538.79596      7589.0773      455.80914      2605.9774      3640.3211      4223.1383     -2144.2459      111.64894      0.90753174     57401.923    
   3940000   546.34088      7479.3811      438.58855      2599.3644      3746.7755      4148.344      -2258.7037      108.87056      0.87603524     59465.722    
   3960000   542.40455      7391.585       566.02073      2589.7369      3569.7272      4123.5845     -2262.925       109.31348      0.89564043     58164.042    
   3980000   541.93648      7366.3341      454.75553      2609.365       3755.0883      3976.7281     -2229.3281      103.42425      0.90164778     57776.516    
   4000000   536.36521      7515.7999      487.0398       2569.4464      3739.6562      4083.7817     -2170.7578      110.37829      0.88592868     58801.649    
   4020000   538.68325      7407.3306      512.33537      2594.3009      3699.3415      4043.0123     -2243.6562      105.63886      0.89083399     58477.862    
   4040000   539.829        7450.5105      506.69753      2616.8215      3748.3381      4089.6507     -2314.4998      107.19948      0.91345911     57029.447    
   4060000   542.38201      7565.9503      479.71074      2602.918       3766.2079      4110.3078     -2193.675       103.81192      0.89823836     57995.817    
   4080000   545.23658      7460.0726      404.95427      2606.7796      3706.4965      4166.4222     -2223.5397      102.62356      0.89579266     58154.157    
   4100000   546.82107      7581.8801      504.58607      2575.8937      3827.1056      4137.4699     -2275.8465      115.35272      0.91133471     57162.387    
   4120000   540.20544      7386.4594      492.17346      2581.6874      3672.4971      4020.627      -2192.3569      115.61724      0.89303631     58333.65     
   4140000   547.88338      7464.3134      439.6887       2574.869       3854.8191      4118.4263     -2319.1887      99.413923      0.89643511     58112.48     
   4160000   540.56761      7383.9397      502.71968      2555.8508      3813.4808      4000.3098     -2296.5364      112.26808      0.8899193      58537.968    
   4180000   548.97869      7435.3744      471.29902      2614.0444      3649.3822      4190.4525     -2289.8793      103.90354      0.89564628     58163.662    
   4200000   537.40073      7512.6174      512.94889      2577.4342      3673.8792      4082.2669     -2145.3428      115.29845      0.8953674      58181.778    
   4220000   529.48118      7624.9309      503.77606      2590.424       3848.619       4217.0029     -2336.2102      103.89727      0.89759997     58037.064    
   4240000   551.07948      7459.8227      440.97938      2570.8746      3832.7015      4116.4826     -2304.6978      106.73305      0.89403563     58268.447    
   4260000   536.67411      7269.1941      418.83143      2581.5502      3706.3943      3992.8706     -2233.6559      107.3517       0.89899102     57947.261    
   4280000   539.04911      7255.7268      410.3729       2577.4         3701.7028      4072.4969     -2298.5047      95.864302      0.91340237     57032.989    
   4300000   536.76294      7392.4098      486.10849      2605.2242      3735.7643      3967.1179     -2215.6561      116.80885      0.90171018     57772.518    
   4320000   553.53028      7300.9313      466.13213      2572.9694      3687.4749      3981.2481     -2217.2231      113.64659      0.89260331     58361.947    
   4340000   542.32964      7478.9787      425.35831      2589.5483      3770.56        4112.9076     -2230.8594      114.56971      0.89444735     58241.625    
   4360000   543.52285      7544.6907      551.57506      2566.7528      3699.4024      4127.3817     -2205.7784      108.34306      0.87084325     59820.257    
   4380000   539.13274      7392.44        503.04802      2558.3791      3704.3991      4069.8648     -2255.7935      115.40647      0.88002683     59195.999    
   4400000   532.65508      7378.8056      530.26284      2567.5667      3603.0458      4106.8181     -2239.5956      113.72648      0.88473527     58880.966    
   4420000   545.1621       7527.7642      422.78856      2581.6781      3743.6289      4118.4318     -2154.1381      117.41373      0.89572734     58158.398    
   4440000   537.6212       7512.7169      470.81787      2570.6078      3811.1667      4145.0079     -2292.4109      110.67254      0.89340309     58309.701    
   4460000   552.78566      7487.9197      496.13608      2601.8537      3705.0433      4129.4269     -2247.4315      105.25248      0.89521521     58191.669    
   4480000   535.60306      7371.5391      553.14203      2580.5209      3588.7953      4010.7398     -2165.1094      106.78083      0.8880385      58661.947    
   4500000   547.52747      7375.3637      571.63238      2594.6431      3761.1044      3958.5588     -2312.7469      105.8757       0.88258599     59024.354    
   4520000   540.34662      7568.2687      448.33986      2611.6789      3677.6225      4159.4278     -2134.3826      109.36184      0.88789895     58671.167    
   4540000   536.91802      7430.5191      493.79303      2613.9062      3832.3301      4102.9403     -2412.7754      103.77546      0.88471551     58882.281    
   4560000   531.82584      7448.4633      525.00656      2602.3384      3714.1653      4026.0305     -2225.8844      110.39003      0.88459675     58890.186    
   4580000   529.95887      7649.0667      485.52769      2584.0884      3819.2521      4075.0768     -2129.107       118.46882      0.89991527     57887.747    
   4600000   546.76286      7531.741       415.9819       2582.6187      3777.4004      4143.7003     -2200.105       115.62013      0.90051001     57849.515    
   4620000   526.63962      7437.2637      511.16697      2590.5369      3680.149       4050.8331     -2202.8657      111.59178      0.8943848      58245.698    
   4640000   539.47819      7413.9314      445.56343      2587.4346      3765.3667      3911.8548     -2116.8672      124.4903       0.88620732     58783.161    
   4660000   539.82458      7462.2384      490.74454      2570.1388      3625.2003      4217.6309     -2241.7212      104.17586      0.90754811     57400.888    
   4680000   533.65844      7346.1757      375.24155      2553.0727      3689.4033      4117.8663     -2203.0985      117.20205      0.9025163      57720.916    
   4700000   542.15342      7481.7926      379.99328      2552.0223      3886.9042      4059.0832     -2201.769       109.28029      0.90899299     57309.647    
   4720000   546.37052      7462.2816      420.42133      2578.5938      3759.8028      4138.7355     -2245.7374      113.98309      0.90511        57555.51     
   4740000   539.56518      7316.3475      438.23387      2542.4615      3657.4315      4120.8923     -2260.1843      120.977        0.90584732     57508.662    
   4760000   533.52411      7408.9608      434.07212      2556.5316      3793.5032      4076.6636     -2255.5769      107.14238      0.90652549     57465.64     
   4780000   536.75665      7558.3226      456.81832      2598.7017      3789.003       4119.2313     -2220.1509      118.13357      0.89815761     58001.031    
   4800000   551.6444       7380.8242      484.85762      2570.7723      3619.9925      4048.9486     -2155.098       115.41562      0.89583642     58151.317    
   4800091   555.59307      7312.1235      378.0318       2577.3199      3632.6754      4145.0843     -2226.2677      109.20017      0.89266577     58357.864    
Loop time of 3686.62 on 24 procs for 1200000 steps with 5032 atoms

Performance: 7.031 ns/day, 3.414 hours/ns, 325.501 timesteps/s, 1.638 Matom-step/s
99.5% CPU use with 24 MPI tasks x no OpenMP threads

MPI task timing breakdown:
Section |  min time  |  avg time  |  max time  |%varavg| %total
---------------------------------------------------------------
Pair    | 1716.4     | 1966.8     | 2111.7     | 245.2 | 53.35
Bond    | 559.73     | 634.44     | 702.03     | 154.5 | 17.21
Kspace  | 682.91     | 866.42     | 1177.7     | 431.7 | 23.50
Neigh   | 48.494     | 48.582     | 48.657     |   0.8 |  1.32
Comm    | 121.77     | 124.43     | 127.16     |  12.3 |  3.38
Output  | 0.0052339  | 0.0056344  | 0.014208   |   2.4 |  0.00
Modify  | 31.61      | 33.838     | 35.391     |  17.2 |  0.92
Other   |            | 12.13      |            |       |  0.33

Nlocal:        209.667 ave         240 max         180 min
Histogram: 2 0 3 3 3 4 4 3 1 1
Nghost:        4474.04 ave        4564 max        4403 min
Histogram: 3 5 3 1 2 4 0 1 1 4
Neighs:        65420.8 ave       77000 max       58827 min
Histogram: 5 2 7 1 0 3 3 1 1 1

Total # of neighbors = 1570100
Ave neighs/atom = 312.02305
Ave special neighs/atom = 5.8028617
Neighbor list builds = 17255
Dangerous builds = 0
unfix           fNPT
unfix           fMOM
next            a
jump            SELF loop
variable        a loop 26
variable        b equal 600-20*($a-1)
variable        b equal 600-20*(5-1)
fix             fMOM all momentum 100 linear 1 1 1 angular
fix             fNPT all npt temp $b $b $(100.0*dt) iso 1 1 $(100.0*dt)
fix             fNPT all npt temp 520 $b $(100.0*dt) iso 1 1 $(100.0*dt)
fix             fNPT all npt temp 520 520 $(100.0*dt) iso 1 1 $(100.0*dt)
fix             fNPT all npt temp 520 520 25 iso 1 1 $(100.0*dt)
fix             fNPT all npt temp 520 520 25 iso 1 1 25
run             1200000
PPPM initialization ...
  using 12-bit tables for long-range coulomb (../kspace.cpp:342)
  G vector (1/distance) = 0.11472795
  grid = 4 4 4
  stencil order = 5
  estimated absolute RMS force accuracy = 0.2838038
  estimated relative force accuracy = 0.00085466671
  using double precision KISS FFT
  3d grid and FFT values/proc = 294 4
Generated 21 of 21 mixed pair_coeff terms from sixthpower/sixthpower mixing rule
WARNING: Inconsistent image flags (../domain.cpp:815)
Per MPI rank memory allocation (min/avg/max) = 22.22 | 22.29 | 22.61 Mbytes
   Step          Temp          PotEng         E_vdwl         E_coul         E_bond        E_angle        E_dihed        E_impro        Density         Volume    
   4800091   555.59307      7312.5969      378.0318       2585.1186      3632.6754      4145.0843     -2226.2677      109.20017      0.89266577     58357.864    
   4820000   517.72915      7214.5966      422.92163      2558.4884      3696.799       4088.6836     -2340.5369      99.527771      0.90382795     57637.15     
   4840000   514.56162      7030.7082      427.4277       2573.4161      3553.4019      3940.9865     -2259.2829      106.19934      0.90069953     57837.343    
   4860000   525.45761      7078.8596      462.22701      2567.9344      3590.7738      3891.0893     -2220.8727      98.48582       0.89619543     58128.022    
   4880000   519.59252      7117.927       408.41916      2609.1871      3543.9513      3963.5853     -2206.8769      111.30251      0.91078742     57196.736    
   4900000   524.19013      7080.5101      388.60611      2607.5764      3590.5803      3989.3944     -2289.0958      104.85483      0.9138169      57007.118    
   4920000   528.94175      7117.6004      379.8501       2571.9867      3582.4842      4062.8987     -2272.0303      103.66404      0.91777072     56761.527    
   4940000   530.29077      6960.9903      348.83994      2583.0845      3617.3671      3915.8666     -2296.2869      102.48191      0.91067882     57203.557    
   4960000   514.04999      6982.892       319.44843      2590.9741      3727.2289      3907.9809     -2353.1134      101.28048      0.9128802      57065.612    
   4980000   518.00116      6984.8357      358.56368      2596.9585      3671.1026      3887.8182     -2320.2758      100.97079      0.9106314      57206.535    
   5000000   508.63239      7144.3011      400.72794      2573.8581      3639.0057      3974.6707     -2235.3797      102.57192      0.90990219     57252.382    
   5020000   519.48917      6907.6412      403.56445      2570.8955      3519.0905      3873.2946     -2255.0338      106.95206      0.90415986     57615.992    
   5040000   519.91408      7196.6586      372.86664      2599.1835      3630.8511      3952.6878     -2154.1659      105.70058      0.90903218     57307.177    
   5060000   522.57401      6842.9329      437.22451      2584.5968      3470.9474      3771.6862     -2223.9017      113.60066      0.90662156     57459.551    
   5080000   520.7036       6928.8212      380.02218      2570.5172      3567.1788      3852.0894     -2233.1653      102.03134      0.89579735     58153.853    
   5100000   517.93894      7176.0197      446.88878      2602.8308      3587.617       3946.5747     -2221.3683      124.31795      0.91136791     57160.305    
   5120000   524.22619      7109.1501      369.81515      2558.1056      3652.9335      3972.9788     -2245.4169      111.62727      0.92511367     56310.991    
   5140000   520.58417      7222.965       395.08282      2563.4213      3632.0706      4109.454      -2272.5384      106.31594      0.90769291     57391.731    
   5160000   532.61547      7155.9303      418.25113      2594.0337      3593.9594      4019.9169     -2266.186       106.90864      0.91105296     57180.065    
   5180000   517.26969      7063.18        422.10794      2586.824       3513.8501      4037.6137     -2285.4453      98.672395      0.91018207     57234.777    
   5200000   505.76868      7294.306       490.18214      2583.7184      3680.5892      4036.0651     -2287.8676      102.96814      0.89887055     57955.027    
   5220000   525.47034      6999.4872      450.57497      2614.0007      3512.8139      3976.4253     -2337           92.873529      0.89990651     57888.311    
   5240000   518.68806      7043.5696      413.94823      2610.7462      3536.3882      3944.9859     -2269.648       117.52377      0.90482702     57573.51     
   5260000   523.3012       7148.8466      425.97263      2622.1334      3580.7031      4051.549      -2331.7588      110.80159      0.89607441     58135.872    
   5280000   514.97384      7246.206       412.01085      2593.7922      3712.6472      3991.7644     -2258.0379      104.90493      0.90983767     57256.442    
   5300000   517.80423      6998.8656      391.85961      2589.9192      3595.3892      3934.3928     -2304.3827      103.11679      0.90459692     57588.155    
   5320000   521.06265      7130.0254      350.53968      2593.3727      3653.7049      4010.0853     -2272.453       105.47295      0.92124541     56547.438    
   5340000   519.47785      7170.8014      375.99438      2571.3688      3653.8537      4036.2389     -2260.698       105.35187      0.91273058     57074.966    
   5360000   507.30214      7076.6039      458.97953      2600.0118      3577.2027      3922.7345     -2273.8582      102.58687      0.90536401     57539.362    
   5380000   509.90292      7061.2466      373.7049       2591.4721      3558.8717      3985.7318     -2238.1891      101.10056      0.91575994     56886.161    
   5400000   512.32387      6985.223       390.33215      2594.4826      3502.9994      3994.3652     -2288.0746      101.81535      0.89920942     57933.187    
   5420000   525.35977      7197.5608      373.15557      2567.0107      3678.0544      4093.8379     -2304.5174      100.50464      0.91204625     57117.792    
   5440000   508.04914      7100.9228      383.82579      2603.3455      3581.0602      3979.7686     -2247.0687      111.02131      0.90253455     57719.749    
   5460000   528.83958      7198.9257      416.43159      2553.8686      3750.5098      3944.295      -2261.2682      106.05536      0.9139485      56998.909    
   5480000   520.8316       7000.0484      422.68278      2580.3511      3664.2287      3877.2683     -2334.5433      100.75158      0.89351854     58302.168    
   5500000   509.57133      7241.381       470.88052      2610.9179      3583.654       3999.1306     -2219.7423      107.39766      0.89537009     58181.603    
   5520000   531.8208       7234.9835      410.34639      2596.1613      3616.0762      3983.0862     -2167.0348      107.50072      0.90248228     57723.092    
   5540000   530.14148      7127.0055      375.08311      2588.7949      3558.2663      3979.2554     -2178.8374      115.09166      0.90334899     57667.71     
   5560000   517.09813      7018.5171      444.87773      2605.4334      3525.6534      3967.8912     -2329.7285      115.89578      0.90237168     57730.167    
   5580000   518.38323      7213.5802      455.89261      2594.9136      3709.8925      3974.2882     -2320.1553      109.61066      0.89098899     58467.69     
   5600000   513.0215       7115.1234      421.01402      2616.4331      3552.6058      4031.5169     -2300.8678      105.01077      0.90284353     57699.995    
   5620000   526.54638      7190.5547      411.25497      2606.9135      3594.9498      4012.6313     -2230.6227      106.59455      0.89189275     58408.443    
   5640000   516.11675      7068.8006      511.57496      2595.5728      3499.5196      3963.009      -2302.3044      112.11549      0.90695295     57438.555    
   5660000   522.89038      7255.9075      412.69258      2578.866       3688.065       4079.3128     -2295.8021      104.32017      0.90885052     57318.631    
   5680000   532.95152      7214.3502      467.69647      2594.8887      3636.3627      3970.6793     -2246.9739      102.47785      0.90078304     57831.981    
   5700000   522.02817      7204.4265      427.26716      2575.2967      3603.0217      4058.1722     -2258.0969      110.27591      0.89506598     58201.371    
   5720000   518.80338      7255.4677      433.54138      2584.5031      3664.7005      4059.7845     -2285.2718      108.84728      0.91310625     57051.485    
   5740000   522.0087       7032.6793      434.55854      2580.6879      3491.2339      4025.0771     -2291.5355      103.83493      0.89997568     57883.861    
   5760000   527.09048      7075.5983      448.90869      2574.1797      3587.3621      3999.1584     -2326.2081      103.43326      0.89822961     57996.382    
   5780000   523.13514      6981.4156      389.01643      2595.532       3579.676       3870.7997     -2250.4919      107.76483      0.90531878     57542.236    
   5800000   515.20117      7120.7321      473.99281      2588.7341      3668.573       3895.1708     -2297.7887      102.58676      0.89814905     58001.584    
   5820000   519.31763      7227.1468      451.54603      2607.1815      3633.377       3981.4056     -2244.5115      108.96663      0.89578976     58154.346    
   5840000   519.2053       6997.798       460.96752      2581.8131      3575.0595      3906.3058     -2320.6781      105.74391      0.9052765      57544.924    
   5860000   521.81597      7008.8262      366.36106      2590.0194      3712.0904      3885.1057     -2332.5649      98.400249      0.91033076     57225.428    
   5880000   528.23432      6949.7551      365.92654      2587.525       3659.2442      3939.9016     -2387.4718      95.698265      0.92043712     56597.095    
   5900000   517.76104      7166.166       428.23945      2584.5992      3622.9115      4008.7068     -2270.4656      102.27822      0.9075991      57397.663    
   5920000   531.63878      6988.5115      413.43133      2578.5514      3626.8811      3948.4976     -2362.3425      94.571685      0.90508327     57557.21     
   5940000   519.7947       7230.8757      410.86082      2584.8742      3672.2592      4052.759      -2284.6172      105.45103      0.8981919      57998.817    
   5960000   532.30973      7149.4371      456.49         2574.4389      3674.3024      3931.2818     -2269.5454      93.619206      0.89293665     58340.16     
   5980000   529.04252      7073.3538      375.09266      2598.1271      3589.784       3928.8736     -2212.456       105.04231      0.9028317      57700.751    
   6000000   515.21936      7224.0207      403.92099      2602.8321      3645.9497      4017.1126     -2251.1904      116.58013      0.89154453     58431.257    
   6000091   515.68968      7264.3731      427.04152      2598.1085      3675.328       4071.026      -2309.0954      112.83309      0.89439351     58245.131    
Loop time of 3707.44 on 24 procs for 1200000 steps with 5032 atoms

Performance: 6.991 ns/day, 3.433 hours/ns, 323.673 timesteps/s, 1.629 Matom-step/s
99.5% CPU use with 24 MPI tasks x no OpenMP threads

MPI task timing breakdown:
Section |  min time  |  avg time  |  max time  |%varavg| %total
---------------------------------------------------------------
Pair    | 1760.1     | 1991.6     | 2152.3     | 212.1 | 53.72
Bond    | 582.47     | 634.09     | 712.13     | 162.4 | 17.10
Kspace  | 669.9      | 863.55     | 1146.6     | 386.5 | 23.29
Neigh   | 46.802     | 46.834     | 46.877     |   0.3 |  1.26
Comm    | 121.94     | 124.93     | 127.95     |  12.7 |  3.37
Output  | 0.0029771  | 0.0033052  | 0.010379   |   2.6 |  0.00
Modify  | 31.741     | 34.019     | 35.526     |  18.2 |  0.92
Other   |            | 12.4       |            |       |  0.33

Nlocal:        209.667 ave         238 max         171 min
Histogram: 1 0 1 1 8 2 5 1 4 1
Nghost:           4423 ave        4507 max        4328 min
Histogram: 2 1 3 3 3 4 0 2 1 5
Neighs:        65233.8 ave       74546 max       53323 min
Histogram: 1 0 1 3 3 5 3 6 0 2

Total # of neighbors = 1565611
Ave neighs/atom = 311.13096
Ave special neighs/atom = 5.8028617
Neighbor list builds = 16603
Dangerous builds = 0
unfix           fNPT
unfix           fMOM
next            a
jump            SELF loop
variable        a loop 26
variable        b equal 600-20*($a-1)
variable        b equal 600-20*(6-1)
fix             fMOM all momentum 100 linear 1 1 1 angular
fix             fNPT all npt temp $b $b $(100.0*dt) iso 1 1 $(100.0*dt)
fix             fNPT all npt temp 500 $b $(100.0*dt) iso 1 1 $(100.0*dt)
fix             fNPT all npt temp 500 500 $(100.0*dt) iso 1 1 $(100.0*dt)
fix             fNPT all npt temp 500 500 25 iso 1 1 $(100.0*dt)
fix             fNPT all npt temp 500 500 25 iso 1 1 25
run             1200000
PPPM initialization ...
  using 12-bit tables for long-range coulomb (../kspace.cpp:342)
  G vector (1/distance) = 0.11478196
  grid = 4 4 4
  stencil order = 5
  estimated absolute RMS force accuracy = 0.28372638
  estimated relative force accuracy = 0.00085443358
  using double precision KISS FFT
  3d grid and FFT values/proc = 294 4
Generated 21 of 21 mixed pair_coeff terms from sixthpower/sixthpower mixing rule
WARNING: Inconsistent image flags (../domain.cpp:815)
Per MPI rank memory allocation (min/avg/max) = 22.22 | 22.29 | 22.61 Mbytes
   Step          Temp          PotEng         E_vdwl         E_coul         E_bond        E_angle        E_dihed        E_impro        Density         Volume    
   6000091   515.68968      7264.3901      427.04152      2598.7418      3675.328       4071.026      -2309.0954      112.83309      0.89439351     58245.131    
   6020000   503.5607       6965.7847      368.38314      2620.9595      3613.793       3889.7113     -2313.2474      97.888669      0.90561801     57523.224    
   6040000   499.32308      6822.0358      475.24583      2588.9878      3463.9341      3847.2641     -2343.1469      101.39467      0.91934277     56664.466    
   6060000   507.86401      6645.4897      338.32668      2605.7228      3431.611       3795.6171     -2308.0442      93.929369      0.90300886     57689.431    
   6080000   500.37468      6692.6408      422.35819      2556.9663      3475.9879      3734.8949     -2292.5703      106.62174      0.91897342     56687.24     
   6100000   493.15339      6650.9311      360.16099      2582.1508      3465.2794      3792.31       -2344.5584      107.2064       0.91510148     56927.093    
   6120000   504.39776      6758.8532      285.79994      2576.9936      3533.76        3891.2381     -2332.0734      113.89276      0.91983171     56634.346    
   6140000   504.46078      6788.0126      395.89278      2592.8555      3476.1325      3899.1911     -2364.8504      100.57185      0.91360877     57020.104    
   6160000   505.91239      6723.8864      275.486        2588.1058      3581.208       3821.9647     -2323.0501      91.74279       0.9226575      56460.894    
   6180000   503.34056      6700.719       387.54471      2553.7552      3539.2591      3882.8881     -2439.1845      87.893687      0.92122682     56548.579    
   6200000   508.52797      6628.6415      374.08841      2571.6617      3521.1064      3776.9707     -2407.6176      104.17907      0.91553415     56900.19     
   6220000   498.92891      6857.8457      386.59945      2603.7623      3582.2947      3861.6013     -2363.8631      98.615376      0.91945655     56657.454    
   6240000   494.18973      6928.0831      388.3745       2575.0796      3595.0182      3824.0138     -2254.8308      112.13516      0.90412701     57618.086    
   6260000   496.59536      6685.6791      369.11956      2573.5367      3468.7892      3826.6153     -2343.1053      102.66328      0.91495734     56936.061    
   6280000   513.00678      6810.8764      389.88591      2610.4546      3470.0485      3863.5002     -2313.9942      102.20623      0.91420594     56982.858    
   6300000   502.08928      6707.9077      368.94882      2571.1661      3501.4451      3855.2931     -2382.4189      104.65135      0.90455007     57591.137    
   6320000   494.93776      6750.7592      348.76477      2568.2994      3549.5086      3914.0191     -2415.2633      95.786182      0.91593445     56875.323    
   6340000   500.41507      6735.0171      327.98069      2560.1567      3567.0565      3839.788      -2352.6981      104.18319      0.91789233     56754.006    
   6360000   491.07148      6733.1102      306.81354      2579.6686      3538.2421      3799.0643     -2284.8103      105.19416      0.92409673     56372.96     
   6380000   500.78482      6818.2225      347.24793      2587.0855      3592.7022      3849.6599     -2354.6308      107.08658      0.90872544     57326.52     
   6400000   494.59101      6741.6693      315.72204      2556.4445      3504.4047      3888.5968     -2313.7893      101.7143       0.92175585     56516.124    
   6420000   493.42876      6696.9754      358.71778      2600.7904      3451.3335      3800.082      -2291.1354      88.040232      0.91199441     57121.038    
   6440000   498.09095      6882.7348      358.4326       2595.1285      3535.9794      3841.2453     -2247.688       111.58624      0.92678542     56209.416    
   6460000   507.27445      6859.1124      363.80686      2601.4866      3559.5826      3867.9726     -2330.6644      108.11458      0.91428302     56978.054    
   6480000   506.93363      6792.1615      372.33992      2609.9399      3446.9532      3866.2128     -2301.9195      109.86485      0.90857996     57335.699    
   6500000   502.96255      6593.763       314.75427      2592.8656      3467.7603      3756.1973     -2317.2657      90.766522      0.91515549     56923.734    
   6520000   495.52481      6742.7618      300.08493      2578.0356      3472.4014      3906.531      -2302.1751      99.263487      0.92463665     56340.042    
   6540000   498.13738      6685.1778      271.41102      2578.625       3643.4637      3821.5365     -2420.0396      101.72026      0.92160949     56525.099    
   6560000   490.53908      6826.7088      448.3759       2577.3371      3386.1495      3959.8803     -2330.1523      97.010567      0.91198776     57121.454    
   6580000   509.28821      6673.992       249.16377      2582.411       3528.7837      3923.5244     -2391.3889      93.816252      0.93485967     55723.943    
   6600000   503.31206      6676.492       281.60457      2562.2896      3444.4646      3848.6365     -2252.173       103.65063      0.92197582     56502.64     
   6620000   494.73295      6834.9361      396.28029      2598.3845      3469.6582      3835.9038     -2263.148       109.78553      0.90995357     57249.149    
   6640000   500.73434      6839.8198      414.57535      2582.2495      3517.2942      3847.9347     -2299.625       89.129315      0.91342457     57031.603    
   6660000   501.84102      6776.0018      399.43805      2619.3095      3485.8892      3797.7118     -2305.6854      90.073942      0.90503166     57560.492    
   6680000   502.72147      6923.9498      458.16157      2611.7036      3511.4682      3844.9459     -2292.4445      101.47321      0.9008879      57825.249    
   6700000   494.98785      6808.166       337.6509       2585.9149      3536.1339      3887.3689     -2328.9797      101.88601      0.91482052     56944.577    
   6720000   502.41623      6838.1418      386.42207      2592.7517      3549.2794      3871.6993     -2348.8255      97.622465      0.90370985     57644.682    
   6740000   497.83506      6893.3973      391.112        2620.5936      3634.636       3873.0745     -2417.3002      101.66915      0.92611578     56250.059    
   6760000   494.30718      6710.7691      382.4623       2589.6243      3456.1239      3870.5682     -2376.5491      99.585752      0.916236       56856.604    
   6780000   508.71274      6722.3832      305.89541      2558.1503      3493.7756      3913.9404     -2337.6635      99.557303      0.92205433     56497.829    
   6800000   494.58232      6819.6896      355.45158      2600.4896      3463.1411      3935.2606     -2323.0838      99.113919      0.91815685     56737.656    
   6820000   497.37966      6833.7165      461.64394      2596.157       3510.0266      3862.0637     -2385.6067      99.929385      0.89539984     58179.67     
   6840000   507.68654      6864.3493      403.84016      2591.5468      3556.2415      3892.3047     -2363.2665      93.607796      0.90759466     57397.944    
   6860000   501.99044      6890.8937      414.58758      2588.7522      3503.17        3863.3409     -2265.6475      97.983028      0.91708569     56803.925    
   6880000   504.45385      6979.7658      397.94718      2579.9121      3536.1517      3885.3098     -2213.5763      105.35294      0.90747387     57405.584    
   6900000   502.50202      6761.5308      321.17008      2614.3077      3527.9624      3794.3047     -2289.1486      104.51543      0.91651776     56839.125    
   6920000   502.42967      6738.6351      377.90576      2588.8484      3539.8021      3838.0616     -2394.9505      100.01889      0.9062975      57480.096    
   6940000   495.48383      6644.4252      351.75166      2572.7642      3443.0434      3807.8286     -2316.666       97.278504      0.92122885     56548.454    
   6960000   492.07281      6776.8531      345.59463      2607.1955      3423.3728      3949.5498     -2337.8211      100.04954      0.91435615     56973.497    
   6980000   505.34614      6708.8104      328.62212      2624.7042      3484.5837      3778.6894     -2297.2368      100.17633      0.91766803     56767.878    
   7000000   500.41064      6879.1319      337.16328      2627.4373      3459.9051      3888.7833     -2224.0952      101.68798      0.91482981     56943.998    
   7020000   497.94549      6611.4052      368.48594      2591.4145      3373.0695      3813.9558     -2328.6582      104.09197      0.90620374     57486.043    
   7040000   502.49636      6690.6         311.59337      2589.3387      3482.3172      3836.7654     -2321.2995      102.0148       0.92630494     56238.573    
   7060000   493.72458      6637.9772      281.69868      2572.823       3551.6292      3870.0987     -2416.0966      88.148917      0.92558956     56282.038    
   7080000   495.801        6752.9729      312.40447      2595.6272      3495.4571      3818.4621     -2268.5235      109.78634      0.93004439     56012.453    
   7100000   494.17258      6666.3108      265.35324      2584.1514      3601.308       3756.757      -2332.0557      102.81885      0.92902454     56073.941    
   7120000   496.77327      6784.4691      328.19011      2602.4519      3493.7982      3916.1973     -2350.2202      104.9299       0.92032296     56604.116    
   7140000   507.85078      6549.238       230.16912      2600.5986      3552.4342      3729.3176     -2355.2476      103.18781      0.92739236     56172.63     
   7160000   512.32709      6741.6798      344.46246      2597.5448      3466.7572      3921.5369     -2379.5368      101.78056      0.92456571     56344.364    
   7180000   504.04949      6854.089       343.41623      2587.8734      3530.1225      3919.1478     -2326.0202      110.61025      0.9329914      55835.528    
   7200000   490.90378      6713.2492      282.89121      2571.7191      3632.0596      3717.8636     -2283.8306      104.09248      0.92056692     56589.115    
   7200091   501.75646      6771.5844      394.74843      2575.6597      3538.0861      3814.7746     -2345.4187      105.56347      0.92666758     56216.564    
Loop time of 3697.5 on 24 procs for 1200000 steps with 5032 atoms

Performance: 7.010 ns/day, 3.424 hours/ns, 324.544 timesteps/s, 1.633 Matom-step/s
99.5% CPU use with 24 MPI tasks x no OpenMP threads

MPI task timing breakdown:
Section |  min time  |  avg time  |  max time  |%varavg| %total
---------------------------------------------------------------
Pair    | 1768.7     | 2014.1     | 2207.2     | 239.9 | 54.47
Bond    | 554.39     | 633.69     | 716.86     | 137.4 | 17.14
Kspace  | 642.17     | 832.69     | 1126       | 410.2 | 22.52
Neigh   | 44.941     | 45.028     | 45.09      |   0.7 |  1.22
Comm    | 122.23     | 125.4      | 128.32     |  13.7 |  3.39
Output  | 0.0040342  | 0.0045416  | 0.015782   |   3.5 |  0.00
Modify  | 32.315     | 34.18      | 35.554     |  16.5 |  0.92
Other   |            | 12.4       |            |       |  0.34

Nlocal:        209.667 ave         229 max         186 min
Histogram: 2 1 2 2 2 2 5 3 2 3
Nghost:        4557.62 ave        4606 max        4506 min
Histogram: 1 2 1 5 2 4 4 1 2 2
Neighs:          67858 ave       79689 max       55939 min
Histogram: 2 3 1 1 4 3 5 2 1 2

Total # of neighbors = 1628593
Ave neighs/atom = 323.64726
Ave special neighs/atom = 5.8028617
Neighbor list builds = 15937
Dangerous builds = 0
unfix           fNPT
unfix           fMOM
next            a
jump            SELF loop
variable        a loop 26
variable        b equal 600-20*($a-1)
variable        b equal 600-20*(7-1)
fix             fMOM all momentum 100 linear 1 1 1 angular
fix             fNPT all npt temp $b $b $(100.0*dt) iso 1 1 $(100.0*dt)
fix             fNPT all npt temp 480 $b $(100.0*dt) iso 1 1 $(100.0*dt)
fix             fNPT all npt temp 480 480 $(100.0*dt) iso 1 1 $(100.0*dt)
fix             fNPT all npt temp 480 480 25 iso 1 1 $(100.0*dt)
fix             fNPT all npt temp 480 480 25 iso 1 1 25
run             1200000
PPPM initialization ...
  using 12-bit tables for long-range coulomb (../kspace.cpp:342)
  G vector (1/distance) = 0.11577455
  grid = 4 4 4
  stencil order = 5
  estimated absolute RMS force accuracy = 0.28226602
  estimated relative force accuracy = 0.00085003573
  using double precision KISS FFT
  3d grid and FFT values/proc = 294 4
Generated 21 of 21 mixed pair_coeff terms from sixthpower/sixthpower mixing rule
WARNING: Inconsistent image flags (../domain.cpp:815)
Per MPI rank memory allocation (min/avg/max) = 22.22 | 22.29 | 22.62 Mbytes
   Step          Temp          PotEng         E_vdwl         E_coul         E_bond        E_angle        E_dihed        E_impro        Density         Volume    
   7200091   501.75646      6772.3136      394.74843      2587.7154      3538.0861      3814.7746     -2345.4187      105.56347      0.92666758     56216.564    
   7220000   481.43922      6346.293       326.12534      2604.4217      3335.5022      3670.3481     -2362.4911      94.576117      0.92962547     56037.694    
   7240000   477.36742      6401.1993      379.7042       2587.4203      3359.1074      3628.3737     -2327.3549      96.857598      0.91836772     56724.628    
   7260000   495.80602      6497.193       347.26161      2597.6926      3371.9062      3770.1419     -2381.5696      114.6438       0.92174948     56516.514    
   7280000   486.7647       6289.0751      281.23791      2601.3628      3309.7264      3756.5237     -2433.1514      95.801063      0.92997601     56016.571    
   7300000   481.56815      6464.0052      376.20473      2562.6909      3473.9489      3708.9521     -2435.0641      100.00936      0.92396189     56381.186    
   7320000   481.06826      6335.6619      303.88293      2584.4549      3386.499       3743.5898     -2456.9057      96.128357      0.93204706     55892.1      
   7340000   473.51184      6338.5146      332.34534      2601.6987      3316.6426      3687.3945     -2362.9725      86.7089        0.91428629     56977.85     
   7360000   485.2435       6411.3969      308.50334      2602.8762      3386.5723      3632.4954     -2291.7261      95.251685      0.92029705     56605.71     
   7380000   492.75438      6473.5406      278.10248      2585.1698      3415.2356      3787.1711     -2370.6798      100.83504      0.91809607     56741.412    
   7400000   483.74748      6422.5268      188.77537      2609.8564      3438.3723      3724.74       -2307.9912      91.395881      0.91987941     56631.409    
   7420000   468.37438      6337.7514      335.8886       2597.3657      3278.07        3698.4727     -2351.242       102.61146      0.92796439     56138.003    
   7440000   480.16292      6339.1427      290.3935       2604.597       3349.7679      3673.9002     -2361.12        104.4079       0.91584918     56880.618    
   7460000   488.31033      6388.9077      318.50138      2579.5051      3300.4247      3707.6643     -2292.0436      97.244733      0.92188912     56507.953    
   7480000   486.25621      6413.1426      286.31525      2583.4751      3401.3997      3702.5872     -2341.4325      102.94005      0.91570853     56889.355    
   7500000   483.83637      6445.6015      353.35459      2593.525       3337.5112      3699.8929     -2319.9837      103.3601       0.93027882     55998.337    
   7520000   476.07221      6469.1704      336.6842       2597.3448      3440.9842      3660.5497     -2345.5572      101.37766      0.91425836     56979.591    
   7540000   480.99288      6437.8767      313.70312      2592.1856      3339.2347      3823.0517     -2399.8225      92.499362      0.91151575     57151.034    
   7560000   480.7928       6440.3423      308.93625      2581.8042      3427.9325      3745.7593     -2406.0236      104.80423      0.92604174     56254.557    
   7580000   484.84942      6292.7143      357.29224      2604.9128      3302.9332      3710.07       -2449.6173      89.748739      0.91588329     56878.5      
   7600000   480.62803      6324.7986      292.92491      2586.1481      3408.044       3759.8068     -2488.3608      89.34863       0.93859253     55502.325    
   7620000   483.00172      6411.938       264.64355      2609.4606      3449.1611      3772.6901     -2463.063       102.25411      0.93790529     55542.994    
   7640000   479.50696      6387.1182      338.4484       2597.6072      3407.9028      3689.3153     -2417.1396      94.282712      0.91993162     56628.196    
   7660000   483.99426      6384.5801      346.43405      2589.8265      3348.7139      3635.4538     -2316.028       102.40008      0.91228675     57102.734    
   7680000   484.36566      6372.4829      309.08773      2601.5483      3431.2156      3636.1353     -2372.9801      90.238873      0.92506483     56313.964    
   7700000   479.64656      6227.7775      289.12937      2582.9932      3245.0838      3640.4362     -2312.0118      104.26447      0.91087304     57191.36     
   7720000   485.11848      6443.2368      332.94981      2574.7712      3425.302       3730.185      -2396.6387      99.19774       0.91811229     56740.409    
   7740000   481.24721      6257.8416      299.67334      2592.5286      3382.3133      3587.1913     -2387.0328      104.81629      0.9194806      56655.972    
   7760000   477.90348      6545.5607      325.64041      2625.2756      3465.5289      3733.9815     -2383.6543      101.94315      0.94016262     55409.635    
   7780000   477.03281      6413.0352      352.31762      2612.1145      3296.3976      3649.2701     -2276.0338      101.65666      0.91539809     56908.647    
   7800000   482.74878      6379.4628      262.62068      2628.3674      3305.2443      3757.7315     -2344.51        92.738697      0.93519117     55704.191    
   7820000   475.87122      6338.2627      333.66958      2594.2731      3397.9178      3638.1465     -2400.7455      97.694142      0.93155917     55921.373    
   7840000   481.57492      6375.5894      331.54761      2583.1907      3323.8618      3651.6271     -2296.3786      104.35732      0.91595696     56873.925    
   7860000   475.18016      6289.3997      259.49632      2629.4038      3299.2049      3741.0465     -2412.2503      95.515832      0.93121983     55941.75     
   7880000   479.18861      6322.2468      333.30201      2605.4735      3305.5308      3783.9555     -2470.5408      86.758143      0.91682019     56820.375    
   7900000   485.88881      6435.2248      358.72734      2584.4582      3409.662       3591.275      -2302.3207      115.60065      0.92290714     56445.622    
   7920000   471.9608       6357.923       304.1088       2611.4335      3406.9922      3646.7272     -2393.266       104.45563      0.9316898      55913.532    
   7940000   475.94774      6308.4387      351.49555      2563.3934      3355.7701      3685.5577     -2408.8596      84.283383      0.91987921     56631.421    
   7960000   475.5647       6600.6293      353.31879      2605.0429      3441.7686      3760.435      -2339.3149      102.84719      0.93242683     55869.335    
   7980000   486.00185      6404.8722      309.70375      2605.4891      3391.7411      3749.1775     -2424.0057      95.84224       0.92341102     56414.821    
   8000000   486.51028      6321.8224      327.71864      2589.0463      3382.811       3477.1338     -2231.9989      100.08453      0.91907394     56681.041    
   8020000   479.24269      6341.9113      269.86354      2616.132       3350.7326      3653.8175     -2325.2277      98.960034      0.92079852     56574.882    
   8040000   486.32401      6441.3571      328.12079      2561.9226      3464.5373      3743.2037     -2432.3088      99.041402      0.93243614     55868.778    
   8060000   473.23728      6478.9696      240.98452      2605.0841      3470.8484      3699.0691     -2315.1538      100.307        0.93287759     55842.34     
   8080000   477.77644      6307.6361      297.71879      2599.3953      3389.1499      3694.2734     -2441.7594      91.032034      0.93676448     55610.635    
   8100000   484.37305      6385.8203      337.64531      2589.0556      3335.0347      3780.0938     -2422.0574      89.02059       0.93409827     55769.365    
   8120000   475.56299      6375.9122      288.5244       2582.2402      3398.8252      3738.6448     -2402.3109      92.798879      0.9279975      56136        
   8140000   483.15039      6213.6625      293.25336      2596.0957      3328.4745      3700.5721     -2478.5419      96.39663       0.92853353     56103.593    
   8160000   482.12516      6392.2153      263.2858       2576.7903      3402.032       3728.5952     -2362.6662      106.99354      0.93675032     55611.476    
   8180000   490.80047      6332.8788      270.73261      2601.5672      3365.6742      3748.6597     -2421.8945      90.275032      0.92922562     56061.807    
   8200000   478.2969       6454.696       323.05844      2580.2355      3376.0448      3831.728      -2429.1439      95.206044      0.92318113     56428.87     
   8220000   489.8313       6445.5314      305.21898      2593.0236      3423.7956      3732.5229     -2391.7096      105.45003      0.92614557     56248.25     
   8240000   475.20358      6379.9815      329.46804      2630.7168      3280.4537      3653.2654     -2289.6145      98.373975      0.92488603     56324.851    
   8260000   483.59836      6354.4856      365.88959      2619.9899      3305.4814      3741.3886     -2445.6956      89.882085      0.91266441     57079.105    
   8280000   475.85958      6423.1847      336.46191      2591.7799      3401.4811      3694.7754     -2379.0993      99.420381      0.92199462     56501.488    
   8300000   479.71425      6489.2144      305.80138      2588.0593      3480.4917      3754.8583     -2412.2273      93.158715      0.91599955     56871.28     
   8320000   483.17974      6267.5867      261.312        2616.0351      3378.7316      3627.7395     -2398.5298      103.93865      0.92759863     56160.138    
   8340000   486.8205       6280.3212      256.20536      2614.6677      3361.1718      3734.8464     -2461.0898      96.473659      0.94358188     55208.847    
   8360000   472.72431      6403.4329      285.51523      2609.9752      3382.2902      3755.3403     -2403.9739      96.521073      0.93048164     55986.132    
   8380000   483.07214      6196.8584      221.13686      2557.8184      3314.898       3718.767      -2385.0205      91.180883      0.93649046     55626.907    
   8400000   475.83222      6432.2199      318.53912      2596.2607      3409.7807      3704.4927     -2375.5045      100.84245      0.9261231      56249.615    
   8400091   481.12973      6390.0141      321.61927      2595.3916      3355.3487      3736.852      -2390.8862      93.935055      0.92788761     56142.648    
Loop time of 3730.81 on 24 procs for 1200000 steps with 5032 atoms

Performance: 6.948 ns/day, 3.454 hours/ns, 321.646 timesteps/s, 1.619 Matom-step/s
99.5% CPU use with 24 MPI tasks x no OpenMP threads

MPI task timing breakdown:
Section |  min time  |  avg time  |  max time  |%varavg| %total
---------------------------------------------------------------
Pair    | 1819.7     | 2041.1     | 2247.7     | 258.2 | 54.71
Bond    | 541.94     | 633.28     | 701.11     | 157.7 | 16.97
Kspace  | 631.57     | 841.16     | 1105       | 470.1 | 22.55
Neigh   | 42.87      | 42.912     | 42.959     |   0.4 |  1.15
Comm    | 123.17     | 126.15     | 128.81     |  12.8 |  3.38
Output  | 0.0034599  | 0.0037947  | 0.010969   |   2.4 |  0.00
Modify  | 31.865     | 33.976     | 35.441     |  16.5 |  0.91
Other   |            | 12.19      |            |       |  0.33

Nlocal:        209.667 ave         239 max         185 min
Histogram: 1 3 4 4 2 2 2 4 1 1
Nghost:        4565.54 ave        4644 max        4500 min
Histogram: 2 1 5 5 3 2 0 2 1 3
Neighs:        67925.8 ave       77459 max       59469 min
Histogram: 2 3 2 4 4 2 1 2 2 2

Total # of neighbors = 1630218
Ave neighs/atom = 323.97019
Ave special neighs/atom = 5.8028617
Neighbor list builds = 15151
Dangerous builds = 0
unfix           fNPT
unfix           fMOM
next            a
jump            SELF loop
variable        a loop 26
variable        b equal 600-20*($a-1)
variable        b equal 600-20*(8-1)
fix             fMOM all momentum 100 linear 1 1 1 angular
fix             fNPT all npt temp $b $b $(100.0*dt) iso 1 1 $(100.0*dt)
fix             fNPT all npt temp 460 $b $(100.0*dt) iso 1 1 $(100.0*dt)
fix             fNPT all npt temp 460 460 $(100.0*dt) iso 1 1 $(100.0*dt)
fix             fNPT all npt temp 460 460 25 iso 1 1 $(100.0*dt)
fix             fNPT all npt temp 460 460 25 iso 1 1 25
run             1200000
PPPM initialization ...
  using 12-bit tables for long-range coulomb (../kspace.cpp:342)
  G vector (1/distance) = 0.11581148
  grid = 4 4 4
  stencil order = 5
  estimated absolute RMS force accuracy = 0.28221032
  estimated relative force accuracy = 0.000849868
  using double precision KISS FFT
  3d grid and FFT values/proc = 294 4
Generated 21 of 21 mixed pair_coeff terms from sixthpower/sixthpower mixing rule
WARNING: Inconsistent image flags (../domain.cpp:815)
Per MPI rank memory allocation (min/avg/max) = 22.22 | 22.3 | 22.62 Mbytes
   Step          Temp          PotEng         E_vdwl         E_coul         E_bond        E_angle        E_dihed        E_impro        Density         Volume    
   8400091   481.12973      6390.0272      321.61927      2595.8256      3355.3487      3736.852      -2390.8862      93.935055      0.92788761     56142.648    
   8420000   463.71365      6118.5542      251.78362      2590.6618      3281.0532      3648.3489     -2427.7373      96.844449      0.93882835     55488.383    
   8440000   453.47989      6007.6525      269.21606      2601.3388      3270.1616      3532.3296     -2442.837       99.855853      0.92227383     56484.382    
   8460000   454.76445      6022.1934      301.41161      2587.1549      3192.6001      3582.8861     -2414.8946      96.403828      0.9299595      56017.566    
   8480000   462.51213      6119.4753      240.54775      2569.8025      3288.741       3693.8104     -2447.3127      96.596477      0.94172238     55317.861    
   8500000   458.827        6039.2495      319.2131       2614.755       3229.001       3512.1765     -2406.8295      94.547772      0.93198675     55895.717    
   8520000   461.46934      5972.1275      236.3731       2575.6193      3205.3471      3650.3247     -2458.4973      86.117069      0.94501234     55125.277    
   8540000   461.40923      5898.9436      252.78274      2588.2469      3260.5573      3538.0366     -2505.4189      87.493108      0.92465402     56338.984    
   8560000   460.27161      5950.8469      175.37822      2574.4331      3269.7898      3541.8573     -2386.6312      98.853303      0.94598299     55068.715    
   8580000   452.55392      6002.5573      245.82065      2565.9916      3224.8605      3666.7214     -2466.8306      88.965295      0.94233746     55281.754    
   8600000   462.84641      5876.8634      232.53737      2558.9708      3172.1937      3629.7192     -2488.8045      95.636296      0.94127541     55344.128    
   8620000   470.2348       5913.8753      163.33154      2579.235       3292.4434      3577.5065     -2464.5786      89.260649      0.9486463      54914.11     
   8640000   462.78233      5954.4436      206.38888      2603.1183      3261.2667      3534.4019     -2422.4265      94.589087      0.95185722     54728.867    
   8660000   451.45857      5927.0924      164.39263      2592.3975      3181.3574      3639.9404     -2420.0451      91.732535      0.95409556     54600.471    
   8680000   467.69062      5996.8395      318.45591      2577.2069      3243.5506      3539.4514     -2456.0151      97.615869      0.93441092     55750.705    
   8700000   458.74075      5993.7         165.29402      2614.5529      3216.2256      3640.1019     -2411.4563      92.460619      0.94695975     55011.913    
   8720000   455.39968      5995.3216      203.53154      2584.7427      3323.5896      3603.8698     -2488.7155      91.094079      0.94284167     55252.19     
   8740000   467.96863      6120.6325      196.49756      2581.7089      3325.7982      3687.9077     -2446.4426      98.431454      0.94136648     55338.775    
   8760000   463.51275      6066.8092      199.93247      2588.714       3251.649       3697.5857     -2440.5419      91.949161      0.94648449     55039.537    
   8780000   449.99638      5997.7195      198.83389      2575.3191      3279.8826      3614.0487     -2448.918       101.87708      0.95463341     54569.709    
   8800000   465.42855      5940.2563      206.67353      2568.7835      3249.9942      3614.797      -2465.9281      88.835676      0.9372447      55582.142    
   8820000   462.34252      5828.675       193.18464      2574.5022      3280.0663      3502.9609     -2496.7172      97.548803      0.94574182     55082.757    
   8840000   464.84828      5896.8884      256.68322      2593.3171      3293.8262      3517.0013     -2534.014       93.003782      0.93486906     55723.384    
   8860000   452.57587      6026.8966      216.63931      2588.0666      3258.2082      3668.9577     -2471.641       89.57123       0.94190876     55306.915    
   8880000   460.66321      6054.4341      232.81581      2574.7392      3364.3693      3567.6294     -2452.2841      90.705419      0.93055184     55981.908    
   8900000   458.66627      5981.5451      186.07185      2589.559       3283.0977      3557.2043     -2403.0938      92.218677      0.94875123     54908.037    
   8920000   458.15124      5959.2787      219.35032      2598.0754      3406.0544      3472.9662     -2502.1424      88.167267      0.95043886     54810.541    
   8940000   465.64378      6033.5363      276.2238       2586.4306      3222.6225      3564.1408     -2393.0363      100.80547      0.9464745      55040.117    
   8960000   457.0066       6061.3455      202.71258      2572.2592      3309.1992      3566.2045     -2367.2653      102.05209      0.9519449      54723.826    
   8980000   453.68767      5942.8092      321.53232      2575.5259      3241.5035      3513.2477     -2480.9336      95.498859      0.93877669     55491.437    
   9000000   456.88046      5966.4445      174.71714      2579.329       3256.5389      3570.6687     -2383.5847      92.098442      0.94529341     55108.887    
   9020000   465.33192      6180.277       187.70867      2588.4871      3381.7499      3645.2013     -2393.5364      93.813003      0.94799961     54951.57     
   9040000   452.31657      6093.5727      162.51425      2595.4001      3292.0148      3623.4658     -2353.0151      96.25095       0.93583747     55665.721    
   9060000   458.03108      5984.9917      249.77385      2587.4191      3188.2409      3627.1384     -2430.212       85.920556      0.9493895      54871.123    
   9080000   462.61706      6161.8768      259.03833      2580.4841      3322.2696      3681.1466     -2453.5845      95.732703      0.93041613     55990.073    
   9100000   454.79153      6153.2721      238.20119      2609.1269      3324.9696      3659.6062     -2454.6965      99.413309      0.93784745     55546.419    
   9120000   462.07535      5968.8637      185.08506      2575.9357      3312.8909      3611.2759     -2483.998       90.680178      0.94493828     55129.598    
   9140000   455.37061      6068.0331      316.39384      2590.3422      3287.5067      3597.1676     -2490.4282      90.182361      0.91100388     57183.146    
   9160000   461.58046      6024.4875      319.87257      2612.7378      3152.5825      3561.7146     -2394.0594      94.797642      0.91718925     56797.512    
   9180000   449.12639      5952.4222      283.15001      2609.676       3252.2235      3505.4172     -2471.3585      96.832509      0.93623496     55642.087    
   9200000   455.69609      5988.0614      318.61031      2566.9011      3302.9139      3587.7513     -2557.1039      91.717739      0.93048107     55986.166    
   9220000   467.78696      6054.0036      191.62367      2580.416       3343.6806      3607.2185     -2442.3581      96.44042       0.94374007     55199.592    
   9240000   461.22601      6092.8824      274.35813      2622.649       3307.2956      3572.2903     -2450.8351      90.878063      0.93541632     55690.783    
   9260000   456.86597      5861.7874      253.78323      2599.3492      3203.1513      3472.0824     -2442.1728      98.731245      0.94516007     55116.661    
   9280000   454.78517      5956.4795      220.91254      2622.6083      3195.1813      3604.6501     -2467.6464      104.40192      0.94620101     55056.026    
   9300000   463.18601      5990.0264      266.35657      2574.7785      3340.9151      3551.2881     -2501.3274      81.363815      0.92696946     56198.256    
   9320000   446.49248      6064.6033      334.0198       2580.9592      3293.6117      3544.9486     -2450.152       84.734437      0.93641835     55631.19     
   9340000   459.57342      5960.3943      218.71369      2588.5491      3259.7546      3656.2417     -2522.3626      82.841262      0.93046838     55986.93     
   9360000   451.41991      6071.216       285.19648      2611.2883      3301.1542      3585.7049     -2479.9592      91.24958       0.93912249     55471.004    
   9380000   455.54914      5969.0081      269.97837      2578.3419      3287.5318      3534.333      -2473.8002      96.24775       0.93445935     55747.816    
   9400000   470.51005      6033.9966      275.32717      2576.2425      3319.2548      3558.6386     -2462.6379      90.247344      0.93788667     55544.096    
   9420000   456.84115      6152.9811      240.22237      2562.2064      3390.0346      3667.5225     -2479.6862      95.461979      0.93511649     55708.639    
   9440000   451.52454      5975.8218      232.53179      2599.6989      3231.9183      3624.9113     -2482.209       92.549818      0.94356837     55209.637    
   9460000   467.00978      6031.6716      242.05515      2584.0215      3344.0851      3586.9719     -2494.4871      92.277459      0.93632233     55636.896    
   9480000   461.82601      5969.8823      165.3059       2589.8261      3288.4414      3525.9997     -2370.4253      94.137999      0.94944822     54867.729    
   9500000   461.68682      5996.1813      224.4669       2558.4826      3228.5927      3649.1566     -2436.9959      96.628312      0.95376127     54619.609    
   9520000   463.61798      5819.3518      144.94755      2584.5703      3204.6245      3544.7916     -2431.0475      94.622996      0.94543506     55100.63     
   9540000   458.37331      5915.5579      206.53519      2563.0698      3316.3111      3524.6404     -2465.2951      94.350153      0.93793599     55541.175    
   9560000   460.82886      5831.3836      225.79149      2590.0594      3214.7639      3480.2649     -2449.7855      93.468276      0.9472327      54996.061    
   9580000   462.16429      5961.5478      197.49337      2602.3936      3259.1871      3606.7222     -2476.532       96.177419      0.93661683     55619.401    
   9600000   462.71757      5957.3456      178.39322      2598.7036      3273.6912      3577.3962     -2444.9944      97.846925      0.94980604     54847.058    
   9600091   462.6971       6010.7127      187.06565      2606.6413      3203.2048      3636.0873     -2393.1417      94.219349      0.95131028     54760.333    
Loop time of 3773.01 on 24 procs for 1200000 steps with 5032 atoms

Performance: 6.870 ns/day, 3.494 hours/ns, 318.048 timesteps/s, 1.600 Matom-step/s
99.5% CPU use with 24 MPI tasks x no OpenMP threads

MPI task timing breakdown:
Section |  min time  |  avg time  |  max time  |%varavg| %total
---------------------------------------------------------------
Pair    | 1898.2     | 2075.6     | 2326.7     | 232.5 | 55.01
Bond    | 513.92     | 632.84     | 728.55     | 201.6 | 16.77
Kspace  | 531.79     | 849.04     | 1093.3     | 468.6 | 22.50
Neigh   | 41.825     | 41.864     | 41.892     |   0.3 |  1.11
Comm    | 124.12     | 127.2      | 130.15     |  12.5 |  3.37
Output  | 0.0051011  | 0.0055997  | 0.016542   |   3.0 |  0.00
Modify  | 31.805     | 34.297     | 35.921     |  18.9 |  0.91
Other   |            | 12.14      |            |       |  0.32

Nlocal:        209.667 ave         233 max         186 min
Histogram: 1 2 2 0 7 5 2 3 0 2
Nghost:        4625.71 ave        4707 max        4534 min
Histogram: 1 2 2 2 3 1 7 3 2 1
Neighs:        69773.6 ave       77447 max       60176 min
Histogram: 2 1 0 3 5 2 4 2 2 3

Total # of neighbors = 1674566
Ave neighs/atom = 332.78339
Ave special neighs/atom = 5.8028617
Neighbor list builds = 14596
Dangerous builds = 0
unfix           fNPT
unfix           fMOM
next            a
jump            SELF loop
variable        a loop 26
variable        b equal 600-20*($a-1)
variable        b equal 600-20*(9-1)
fix             fMOM all momentum 100 linear 1 1 1 angular
fix             fNPT all npt temp $b $b $(100.0*dt) iso 1 1 $(100.0*dt)
fix             fNPT all npt temp 440 $b $(100.0*dt) iso 1 1 $(100.0*dt)
fix             fNPT all npt temp 440 440 $(100.0*dt) iso 1 1 $(100.0*dt)
fix             fNPT all npt temp 440 440 25 iso 1 1 $(100.0*dt)
fix             fNPT all npt temp 440 440 25 iso 1 1 25
run             1200000
PPPM initialization ...
  using 12-bit tables for long-range coulomb (../kspace.cpp:342)
  G vector (1/distance) = 0.11651234
  grid = 4 4 4
  stencil order = 5
  estimated absolute RMS force accuracy = 0.28113495
  estimated relative force accuracy = 0.00084662954
  using double precision KISS FFT
  3d grid and FFT values/proc = 294 4
Generated 21 of 21 mixed pair_coeff terms from sixthpower/sixthpower mixing rule
WARNING: Inconsistent image flags (../domain.cpp:815)
Per MPI rank memory allocation (min/avg/max) = 22.22 | 22.3 | 22.62 Mbytes
   Step          Temp          PotEng         E_vdwl         E_coul         E_bond        E_angle        E_dihed        E_impro        Density         Volume    
   9600091   462.6971       6010.9863      187.06565      2614.9092      3203.2048      3636.0873     -2393.1417      94.219349      0.95131028     54760.333    
   9620000   439.54681      5617.145       208.13606      2608.0739      3156.1212      3402.181      -2519.8211      94.618633      0.95166644     54739.839    
   9640000   440.81162      5721.3437      220.20465      2585.5598      3214.7864      3441.3838     -2502.764       93.490171      0.94193375     55305.447    
   9660000   440.67687      5544.022       233.75258      2601.0433      3122.2957      3337.9388     -2504.4533      84.665805      0.94364738     55205.015    
   9680000   436.14701      5652.8292      209.81725      2599.1255      3261.5917      3374.4086     -2556.4538      95.615543      0.95369385     54623.47     
   9700000   448.99817      5670.9874      239.78869      2599.2459      3088.1927      3506.4341     -2507.9641      76.53465       0.94145289     55333.696    
   9720000   436.88191      5695.9955      228.60984      2599.2993      3135.8558      3525.7119     -2560.9318      97.932435      0.93162475     55917.436    
   9740000   437.98536      5554.6915      212.04996      2616.728       3129.2463      3367.1838     -2530.1918      89.86755       0.94239486     55278.387    
   9760000   445.4092       5758.9223      232.60845      2593.9545      3210.1043      3495.5509     -2532.4261      90.167749      0.93368455     55794.077    
   9780000   434.75189      5765.4892      341.483        2614.7099      3077.4777      3472.0429     -2498.8775      89.596083      0.92604121     56254.589    
   9800000   439.78861      5719.926       219.68707      2589.0839      3166.2399      3529.5308     -2545.2788      92.176109      0.94396511     55186.433    
   9820000   442.19803      5624.2146      198.65147      2612.0607      3172.7465      3437.8946     -2552.116       86.445265      0.93870083     55495.921    
   9840000   435.4704       5780.0853      160.72801      2601.0669      3160.3975      3536.439      -2429.2463      81.472722      0.94503964     55123.685    
   9860000   439.71741      5619.4655      211.96163      2584.7443      3098.444       3486.0633     -2513.7889      83.485421      0.93881496     55489.175    
   9880000   446.97627      5594.0797      195.11625      2583.2002      3078.1385      3452.7426     -2470.9513      86.724453      0.94345132     55216.487    
   9900000   439.80452      5629.3912      209.63651      2592.2068      3125.2478      3438.4377     -2485.1401      80.328602      0.94260053     55266.325    
   9920000   439.37889      5618.8918      127.51225      2588.6498      3124.6424      3493.7598     -2461.0641      76.455922      0.95286992     54670.702    
   9940000   433.01486      5611.1489      176.74997      2587.6679      3132.4918      3506.2265     -2560.0396      98.532527      0.94703722     55007.413    
   9960000   442.18827      5656.8495      150.32104      2583.0774      3164.079       3529.2846     -2525.966       87.05106       0.95148013     54750.558    
   9980000   438.61557      5628.5143      187.32753      2591.2096      3123.7905      3438.1122     -2476.2984      94.76176       0.93907977     55473.528    
  10000000   429.92879      5545.3098      210.98342      2594.2791      3195.7964      3339.229      -2553.8654      90.248938      0.93835543     55516.349    
  10020000   437.41818      5810.0692      240.70061      2588.764       3101.4097      3487.623      -2372.4037      94.772181      0.94054325     55387.211    
  10040000   436.75192      5622.0128      204.3923       2593.7152      3085.7012      3529.5493     -2548.8516      88.837838      0.94241689     55277.094    
  10060000   444.96834      5517.8841      145.6582       2574.7703      3125.9544      3423.6535     -2516.7587      94.891993      0.95422986     54592.787    
  10080000   435.50145      5634.9751      178.65303      2602.5829      3100.1524      3481.838      -2485.9838      88.63559       0.96020261     54253.204    
  10100000   444.74102      5708.3713      173.55991      2565.8098      3229.1693      3532.919      -2556.4941      94.825684      0.94195803     55304.022    
  10120000   427.73998      5686.5104      173.75302      2590.5523      3110.2832      3507.9337     -2462.0124      96.809526      0.95536186     54528.1      
  10140000   434.82739      5712.2942      175.97951      2576.4962      3187.2258      3530.8617     -2522.2064      94.611947      0.96113799     54200.404    
  10160000   432.55172      5556.0714      197.28708      2563.7928      3123.6598      3407.5375     -2494.7952      90.208838      0.95472652     54564.387    
  10180000   435.49751      5619.932       81.395256      2614.1907      3297.418       3321.5273     -2450.5008      87.889574      0.95768318     54395.93     
  10200000   436.86104      5665.4653      80.904977      2590.8226      3328.1029      3440.8521     -2530.9151      87.059522      0.94661531     55031.93     
  10220000   438.1324       5632.7212      179.16376      2578.8102      3138.4639      3494.8244     -2517.513       89.579693      0.95647971     54464.373    
  10240000   440.50408      5590.1171      114.64622      2571.1383      3160.2252      3476.2839     -2490.1007      89.29374       0.95357826     54630.092    
  10260000   443.92813      5610.4984      193.42884      2607.0839      3123.1324      3427.4083     -2502.3064      93.421301      0.93972784     55435.271    
  10280000   439.9128       5700.1872      143.44773      2606.9541      3158.7704      3519.2234     -2483.9055      86.864904      0.94765348     54971.641    
  10300000   441.44935      5597.4534      119.66867      2618.6249      3142.1374      3546.2533     -2586.3141      88.578267      0.95794094     54381.293    
  10320000   432.25081      5678.9361      191.36454      2585.7196      3072.1373      3550.1194     -2484.0414      94.990895      0.93609502     55650.406    
  10340000   442.29738      5558.7906      137.72983      2587.8126      3074.4458      3451.4325     -2453.2573      91.656949      0.94868357     54911.953    
  10360000   435.84497      5652.326       194.54401      2626.5291      3175.4456      3411.1704     -2513.9086      90.111072      0.94722745     54996.366    
  10380000   444.51737      5604.0964      91.426699      2591.0691      3133.2213      3497.9558     -2461.168       83.031058      0.95487498     54555.904    
  10400000   444.84676      5524.718       146.49278      2613.8652      3157.0254      3441.5596     -2591.4168      88.848976      0.95801479     54377.102    
  10420000   441.53603      5713.4755      157.85615      2627.2629      3196.8952      3489.0019     -2518.9351      93.139163      0.95754288     54403.9      
  10440000   438.07643      5701.4864      159.91611      2597.9789      3150.6402      3496.8707     -2463.6104      89.94954       0.95479668     54560.378    
  10460000   430.62472      5575.3372      132.4032       2607.5751      3187.9546      3429.0713     -2531.0724      80.155843      0.95321256     54651.05     
  10480000   443.82305      5617.981       197.61418      2623.0847      2986.6694      3483.4086     -2433.562       91.867917      0.95438742     54583.774    
  10500000   442.80912      5673.7252      127.64356      2572.9244      3200.5809      3509.8716     -2493.437       87.152736      0.95810229     54372.136    
  10520000   430.58163      5713.4956      195.20276      2596.6513      3180.5578      3460.7932     -2484.8575      96.82082       0.94261181     55265.664    
  10540000   429.01183      5718.6877      282.23819      2612.6535      3178.9744      3481.9264     -2595.7523      89.642421      0.94615507     55058.699    
  10560000   447.30017      5715.9294      226.693        2607.2809      3144.5949      3444.6829     -2469.1211      93.483984      0.94847495     54924.031    
  10580000   436.09448      5657.3011      231.35614      2589.4925      3091.0703      3507.9574     -2518.8331      87.353904      0.95146608     54751.366    
  10600000   433.91763      5709.747       180.5767       2627.2857      3127.1611      3514.3655     -2501.343       92.810264      0.94803703     54949.402    
  10620000   438.11391      5694.244       139.38862      2616.0123      3273.8006      3450.1193     -2535.2879      81.062596      0.9484328      54926.472    
  10640000   447.03693      5735.1273      193.59547      2596.914       3145.0201      3514.7481     -2478.5023      95.372092      0.95584549     54500.511    
  10660000   429.40851      5603.434       160.27917      2628.3955      3074.0846      3371.4397     -2403.9112      104.68704      0.9382472      55522.753    
  10680000   431.96856      5651.6776      116.76673      2605.2897      3069.0654      3524.3232     -2419.1506      86.228476      0.95215958     54711.488    
  10700000   447.59849      5729.5049      174.67161      2597.2158      3113.7736      3526.0501     -2437.614       87.105832      0.93780622     55548.861    
  10720000   442.57113      5709.6885      202.37386      2608.9739      3107.0006      3488.667      -2447.6413      80.96374       0.94987595     54843.022    
  10740000   441.57982      5764.0995      260.12508      2594.2805      3053.017       3456.0344     -2357.5942      89.980885      0.94073923     55375.672    
  10760000   436.03407      5765.1228      220.31092      2620.885       3219.3844      3429.9001     -2481.4425      87.552408      0.93970232     55436.777    
  10780000   444.85651      5717.7488      128.19467      2619.8721      3182.0009      3490.5367     -2471.9663      99.858003      0.94680412     55020.956    
  10800000   451.18967      5644.2355      119.67536      2607.0493      3062.7943      3585.4766     -2488.376       89.10964       0.95404071     54603.61     
  10800091   447.13469      5647.6869      189.9272       2602.5988      3109.1141      3527.7718     -2543.843       93.527835      0.95474071     54563.576    
Loop time of 3769.83 on 24 procs for 1200000 steps with 5032 atoms

Performance: 6.876 ns/day, 3.491 hours/ns, 318.317 timesteps/s, 1.602 Matom-step/s
99.5% CPU use with 24 MPI tasks x no OpenMP threads

MPI task timing breakdown:
Section |  min time  |  avg time  |  max time  |%varavg| %total
---------------------------------------------------------------
Pair    | 1889.9     | 2088       | 2291.5     | 242.3 | 55.39
Bond    | 535.93     | 632.77     | 707.19     | 190.3 | 16.79
Kspace  | 560.85     | 834.87     | 1057.6     | 469.9 | 22.15
Neigh   | 39.939     | 39.985     | 40.03      |   0.4 |  1.06
Comm    | 124.41     | 127.33     | 130.77     |  13.0 |  3.38
Output  | 0.0030285  | 0.0033323  | 0.0099712  |   2.4 |  0.00
Modify  | 31.839     | 34.329     | 35.97      |  18.4 |  0.91
Other   |            | 12.51      |            |       |  0.33

Nlocal:        209.667 ave         231 max         184 min
Histogram: 1 1 3 2 2 5 3 3 2 2
Nghost:        4658.25 ave        4713 max        4603 min
Histogram: 3 4 2 2 0 2 1 5 2 3
Neighs:        69842.2 ave       76303 max       59268 min
Histogram: 1 0 0 4 1 4 4 3 5 2

Total # of neighbors = 1676212
Ave neighs/atom = 333.11049
Ave special neighs/atom = 5.8028617
Neighbor list builds = 13998
Dangerous builds = 0
unfix           fNPT
unfix           fMOM
next            a
jump            SELF loop
variable        a loop 26
variable        b equal 600-20*($a-1)
variable        b equal 600-20*(10-1)
fix             fMOM all momentum 100 linear 1 1 1 angular
fix             fNPT all npt temp $b $b $(100.0*dt) iso 1 1 $(100.0*dt)
fix             fNPT all npt temp 420 $b $(100.0*dt) iso 1 1 $(100.0*dt)
fix             fNPT all npt temp 420 420 $(100.0*dt) iso 1 1 $(100.0*dt)
fix             fNPT all npt temp 420 420 25 iso 1 1 $(100.0*dt)
fix             fNPT all npt temp 420 420 25 iso 1 1 25
run             1200000
PPPM initialization ...
  using 12-bit tables for long-range coulomb (../kspace.cpp:342)
  G vector (1/distance) = 0.11661372
  grid = 4 4 4
  stencil order = 5
  estimated absolute RMS force accuracy = 0.28097654
  estimated relative force accuracy = 0.0008461525
  using double precision KISS FFT
  3d grid and FFT values/proc = 294 4
Generated 21 of 21 mixed pair_coeff terms from sixthpower/sixthpower mixing rule
WARNING: Inconsistent image flags (../domain.cpp:815)
Per MPI rank memory allocation (min/avg/max) = 22.22 | 22.3 | 22.62 Mbytes
   Step          Temp          PotEng         E_vdwl         E_coul         E_bond        E_angle        E_dihed        E_impro        Density         Volume    
  10800091   447.13469      5647.7642      189.9272       2603.8332      3109.1141      3527.7718     -2543.843       93.527835      0.95474071     54563.576    
  10820000   429.63655      5349.6645      172.15948      2611.4362      3042.7643      3324.3308     -2547.3528      78.850243      0.95567642     54510.153    
  10840000   422.82781      5247.5249      79.022351      2590.4262      2980.76        3309.0808     -2461.1112      82.354845      0.97563857     53394.842    
  10860000   409.48591      5492.9133      73.953645      2624.6006      3074.081       3451.7956     -2480.9215      81.872324      0.96001736     54263.672    
  10880000   418.16665      5265.1419      131.97259      2601.563       2920.3053      3355.6885     -2497.3629      85.621775      0.96368157     54057.345    
  10900000   423.63917      5167.2671      81.650289      2616.6813      2954.2646      3360.3982     -2591.0429      77.321004      0.96726056     53857.326    
  10920000   419.61096      5356.7432      79.028193      2616.7249      3127.4153      3342.6553     -2563.6157      86.2475        0.96698098     53872.898    
  10940000   426.69303      5487.1871      162.20058      2603.6233      3057.4445      3398.6457     -2492.8457      90.737456      0.95515753     54539.765    
  10960000   422.61459      5263.2438      112.0332       2598.0038      3069.6501      3232.2566     -2506.1811      89.895203      0.95954293     54290.502    
  10980000   412.92001      5338.1461      131.69306      2603.919       3006.1062      3326.8778     -2482.0861      83.86873       0.95392485     54610.242    
  11000000   424.80657      5349.599       99.586986      2608.3917      3031.7898      3330.2245     -2475.9456      87.821106      0.95649836     54463.31     
  11020000   421.08788      5333.2804      125.11775      2595.1314      3026.0809      3296.6853     -2465.3841      87.958992      0.96072364     54223.78     
  11040000   422.91544      5464.3114      142.73209      2588.0298      3164.8203      3373.5646     -2552.9132      79.982301      0.95774077     54392.659    
  11060000   419.74302      5392.7724      166.07715      2580.3131      3060.5449      3345.5703     -2512.7014      85.560137      0.95475253     54562.9      
  11080000   419.36325      5373.4877      165.8873       2573.1395      3023.8535      3444.2036     -2587.233       86.742482      0.96386648     54046.975    
  11100000   414.12445      5210.0179      123.94207      2603.6119      3025.5949      3242.0461     -2536.2098      83.934787      0.96536666     53962.986    
  11120000   411.14123      5436.4338      146.32949      2598.4715      3041.7584      3388.9358     -2496.236       89.862995      0.94991457     54840.792    
  11140000   428.33771      5382.5325      42.247567      2589.6453      3079.058       3366.327      -2448.2475      86.446517      0.95530303     54531.458    
  11160000   421.78918      5457.3497      143.73572      2589.5263      3046.8582      3459.3267     -2534.3284      84.95034       0.96769891     53832.93     
  11180000   421.37074      5295.2444      169.62783      2573.5275      2952.6296      3346.192      -2493.9356      80.042683      0.95549651     54520.416    
  11200000   416.20784      5295.3287      145.04533      2609.2957      2971.0798      3425.5538     -2603.8674      80.146125      0.95281289     54673.974    
  11220000   423.1583       5372.5919      130.82913      2574.8367      3122.8978      3368.8243     -2577.8473      84.953658      0.95190846     54725.921    
  11240000   414.03333      5176.4351      167.50158      2595.1556      2909.2351      3352.0879     -2591.136       76.323661      0.95597801     54492.956    
  11260000   415.1046       5241.2         89.103654      2541.0035      3098.7313      3340.4397     -2575.0544      78.978718      0.96016582     54255.282    
  11280000   421.92901      5293.4732      78.631899      2580.7542      3036.8525      3337.124      -2494.9362      87.857636      0.96779294     53827.7      
  11300000   418.89673      5413.7837      193.15873      2570.3811      3050.3867      3465.3651     -2613.2838      80.218137      0.95694195     54438.064    
  11320000   419.55456      5247.6744      86.755097      2579.4288      2986.9857      3360.7666     -2520.2047      86.447067      0.9702794      53689.759    
  11340000   434.58109      5266.1218      171.78619      2578.2434      2965.1853      3350.8224     -2548.1503      80.152927      0.9633714      54074.75     
  11360000   415.42693      5283.6481      71.929395      2607.5956      2985.6228      3372.1283     -2516.0831      95.26387       0.95982057     54274.798    
  11380000   419.37805      5519.4116      143.28828      2595.4715      3093.511       3403.3453     -2470.9917      87.347251      0.95021219     54823.615    
  11400000   419.08643      5251.0939      85.849696      2598.9575      2995.3492      3288.7116     -2475.9693      91.078601      0.95949377     54293.284    
  11420000   428.62019      5409.3102      156.26917      2603.2776      3104.1284      3349.1794     -2558.5746      87.802068      0.96012617     54257.523    
  11440000   420.67576      5277.3486      102.5735       2582.4248      3057.491       3307.9731     -2527.3998      86.468466      0.95998527     54265.486    
  11460000   421.58965      5161.5615      121.12166      2615.5094      2891.4092      3314.9623     -2532.5112      83.501504      0.95101849     54777.134    
  11480000   418.77738      5244.9634      80.221207      2589.1993      3007.1313      3254.7295     -2446.0519      91.833314      0.9624329      54127.48     
  11500000   423.08696      5390.7808      131.64106      2608.6897      3011.6061      3391.5121     -2508.2117      88.384946      0.96479207     53995.124    
  11520000   413.42986      5325.9683      96.915634      2615.9407      2971.4849      3231.6566     -2352.3715      95.522151      0.96338172     54074.171    
  11540000   409.93918      5243.379       144.49042      2614.8897      3014.5495      3203.3481     -2491.0915      89.648896      0.95895786     54323.625    
  11560000   417.21516      5365.8849      194.83031      2581.7245      3133.9402      3287.0418     -2579.6167      80.352054      0.95345918     54636.914    
  11580000   417.76102      5305.4215      122.81756      2607.0977      3007.3605      3327.6223     -2511.9054      84.8928        0.96015748     54255.753    
  11600000   424.00906      5477.6117      110.95889      2601.4636      3070.0531      3442.1205     -2500.7861      86.4099        0.95072865     54793.833    
  11620000   417.04638      5373.9638      216.525        2600.8982      2936.1913      3379.5692     -2504.5538      77.763251      0.95997444     54266.098    
  11640000   415.87882      5386.3703      157.47726      2604.0034      3014.034       3356.7797     -2496.9739      84.057064      0.95404676     54603.264    
  11660000   414.4173       5286.3426      115.25121      2600.4054      3023.3264      3353.918      -2556.1992      81.719044      0.97573022     53389.827    
  11680000   419.53808      5356.2542      31.807213      2582.6253      3098.2716      3411.2129     -2514.5485      79.485055      0.96778966     53827.882    
  11700000   422.84058      5200.4499      92.003192      2591.5279      2932.0982      3370.4568     -2535.8436      83.057517      0.95601625     54490.776    
  11720000   425.33145      5189.0379      188.65145      2594.1363      2985.5939      3266.5769     -2598.7174      84.777272      0.96832282     53798.244    
  11740000   412.86512      5421.4859      146.51641      2595.1036      3146.0953      3260.2222     -2490.3912      96.599329      0.94624005     55053.755    
  11760000   423.26161      5280.2719      54.88285       2603.8672      3011.9956      3368.8573     -2514.0834      87.210045      0.95668943     54452.433    
  11780000   425.44661      5335.4333      162.68337      2594.8964      3049.3057      3309.7053     -2534.1505      85.294337      0.95886707     54328.769    
  11800000   423.895        5375.3681      116.55158      2580.9427      3073.9646      3438.2715     -2588.5753      86.557772      0.95324085     54649.428    
  11820000   421.73956      5312.5737      226.13348      2609.9828      3005.9537      3281.9952     -2568.9412      90.128186      0.9628688      54102.976    
  11840000   425.92322      5475.145       162.8364       2598.2403      3113.5212      3387.0491     -2546.268       92.03879       0.95193246     54724.542    
  11860000   420.75121      5273.3989      72.404057      2594.7162      3050.0644      3305.4041     -2505.1973      88.864726      0.96718641     53861.455    
  11880000   415.97071      5326.6915      57.938419      2594.5013      3104.3422      3372.5986     -2549.3918      78.983558      0.9619809      54152.912    
  11900000   426.3891       5216.1615      69.158573      2597.8416      2955.6284      3287.5671     -2451.7435      90.266158      0.96196824     54153.625    
  11920000   423.32912      5318.6507      78.397936      2601.2117      3037.292       3433.0651     -2580.6031      81.564424      0.96680157     53882.895    
  11940000   418.66515      5379.5203      136.80592      2595.3614      3049.0084      3388.6895     -2529.5765      71.587699      0.9710658      53646.28     
  11960000   417.17384      5271.2054      117.90838      2594.4313      3028.5395      3318.9465     -2543.1631      86.601048      0.96778954     53827.888    
  11980000   425.68119      5174.2191      165.82905      2597.1964      2963.9607      3190.8173     -2496.9798      85.855792      0.95826987     54362.627    
  12000000   409.02168      5240.1118      94.778058      2599.2875      3041.3647      3309.4986     -2552.0783      79.653533      0.96610449     53921.773    
  12000091   424.12259      5151.7242      87.568974      2594.2015      2990.0536      3222.5296     -2488.9732      78.840835      0.96748032     53845.093    
Loop time of 3760.94 on 24 procs for 1200000 steps with 5032 atoms

Performance: 6.892 ns/day, 3.482 hours/ns, 319.069 timesteps/s, 1.606 Matom-step/s
99.5% CPU use with 24 MPI tasks x no OpenMP threads

MPI task timing breakdown:
Section |  min time  |  avg time  |  max time  |%varavg| %total
---------------------------------------------------------------
Pair    | 1854.8     | 2121       | 2274.3     | 253.3 | 56.40
Bond    | 556.46     | 632.26     | 697.8      | 156.9 | 16.81
Kspace  | 593.22     | 794.9      | 1131.3     | 489.4 | 21.14
Neigh   | 37.934     | 37.98      | 38.012     |   0.4 |  1.01
Comm    | 125.49     | 127.84     | 131.19     |  12.5 |  3.40
Output  | 0.0040537  | 0.0045172  | 0.014723   |   3.2 |  0.00
Modify  | 32.228     | 34.41      | 35.955     |  17.2 |  0.91
Other   |            | 12.55      |            |       |  0.33

Nlocal:        209.667 ave         228 max         179 min
Histogram: 1 1 0 0 4 6 1 4 4 3
Nghost:        4678.42 ave        4731 max        4639 min
Histogram: 3 2 3 4 4 1 2 3 1 1
Neighs:        70837.6 ave       83670 max       58567 min
Histogram: 1 2 3 2 6 5 0 2 1 2

Total # of neighbors = 1700102
Ave neighs/atom = 337.85811
Ave special neighs/atom = 5.8028617
Neighbor list builds = 13277
Dangerous builds = 0
unfix           fNPT
unfix           fMOM
next            a
jump            SELF loop
variable        a loop 26
variable        b equal 600-20*($a-1)
variable        b equal 600-20*(11-1)
fix             fMOM all momentum 100 linear 1 1 1 angular
fix             fNPT all npt temp $b $b $(100.0*dt) iso 1 1 $(100.0*dt)
fix             fNPT all npt temp 400 $b $(100.0*dt) iso 1 1 $(100.0*dt)
fix             fNPT all npt temp 400 400 $(100.0*dt) iso 1 1 $(100.0*dt)
fix             fNPT all npt temp 400 400 25 iso 1 1 $(100.0*dt)
fix             fNPT all npt temp 400 400 25 iso 1 1 25
run             1200000
PPPM initialization ...
  using 12-bit tables for long-range coulomb (../kspace.cpp:342)
  G vector (1/distance) = 0.11698744
  grid = 4 4 4
  stencil order = 5
  estimated absolute RMS force accuracy = 0.2803864
  estimated relative force accuracy = 0.00084437532
  using double precision KISS FFT
  3d grid and FFT values/proc = 294 4
Generated 21 of 21 mixed pair_coeff terms from sixthpower/sixthpower mixing rule
WARNING: Inconsistent image flags (../domain.cpp:815)
Per MPI rank memory allocation (min/avg/max) = 22.22 | 22.3 | 22.62 Mbytes
   Step          Temp          PotEng         E_vdwl         E_coul         E_bond        E_angle        E_dihed        E_impro        Density         Volume    
  12000091   424.12259      5151.7563      87.568974      2598.4967      2990.0536      3222.5296     -2488.9732      78.840835      0.96748032     53845.093    
  12020000   397.56792      5026.267       86.910389      2597.2554      2966.2462      3238.8032     -2613.1468      87.306282      0.96237824     54130.554    
  12040000   394.0059       4919.105       75.339886      2588.6688      2895.4367      3176.4675     -2563.2239      82.866361      0.97149236     53622.725    
  12060000   405.32594      5068.8816      148.53446      2574.7193      2891.7541      3296.0922     -2592.2216      87.039049      0.97284632     53548.095    
  12080000   402.29788      4971.1103      58.588933      2604.4099      2852.7003      3221.0599     -2513.3591      84.825189      0.97127859     53634.527    
  12100000   400.35461      5043.6704      125.00334      2579.0888      2880.9735      3246.7012     -2544.5106      93.323929      0.96149965     54180.017    
  12120000   391.97168      4851.9401      122.6837       2596.2         2879.0317      3128.4074     -2613.5801      75.743449      0.9754583      53404.71     
  12140000   396.03375      4954.713       27.048143      2586.177       2920.8874      3195.049      -2527.814       89.761762      0.96411404     54033.097    
  12160000   406.38213      5001.8634      101.66763      2593.1365      2976.3627      3210.6692     -2624.4233      81.43694       0.97206987     53590.867    
  12180000   401.22416      4986.071       127.99113      2596.1404      2907.5361      3215.0727     -2609.993       86.356268      0.96924078     53747.292    
  12200000   406.92146      5082.6141      84.363486      2588.6922      2915.5484      3253.9925     -2506.5682      84.11516       0.97209374     53589.552    
  12220000   396.07335      4930.4138      123.01697      2574.0764      2850.6759      3219.4542     -2582.4109      82.728484      0.96526822     53968.489    
  12240000   403.44723      4903.2648      35.805004      2578.0042      2948.0328      3124.1869     -2526.7446      81.008888      0.97038388     53683.979    
  12260000   400.68695      4940.0077      79.226397      2586.7784      2997.8805      3125.0151     -2597.2108      85.462006      0.96122717     54195.375    
  12280000   411.96614      4948.3435      108.80866      2578.4007      2867.6422      3200.4665     -2547.3945      77.518674      0.96942004     53737.353    
  12300000   397.87485      5050.6855      153.056        2594.7427      2824.1329      3277.629      -2539.7276      77.694829      0.95948637     54293.702    
  12320000   404.0797       4925.2763      145.05498      2573.7496      2932.837       3152.3552     -2621.4946      79.708609      0.96292679     54099.717    
  12340000   405.76851      4964.9249      50.539524      2570.7769      2879.6925      3250.2655     -2537.5265      88.764885      0.97055634     53674.44     
  12360000   412.21617      4913.4486      74.175706      2568.1681      2938.02        3173.3879     -2586.0391      82.868085      0.97790275     53271.215    
  12380000   403.48704      4839.2715      43.798131      2580.8947      2871.3776      3154.7306     -2559.846       84.837314      0.96887008     53767.857    
  12400000   409.7321       5047.0348      81.086604      2581.5068      2903.5109      3299.8456     -2562.2594      80.418779      0.97762628     53286.28     
  12420000   402.58509      4928.6157      20.105709      2592.657       2953.8522      3215.769      -2599.4121      82.537962      0.9722991      53578.233    
  12440000   398.71167      5031.4173      75.973447      2580.8956      2938.9288      3325.5838     -2632.5122      79.046716      0.9821827      53039.081    
  12460000   406.37167      4970.8929      76.865024      2579.9523      2930.6123      3215.6054     -2571.2972      75.979445      0.96768979     53833.437    
  12480000   398.67643      5017.9059      54.113445      2584.4653      2976.2858      3177.0173     -2526.0612      88.791519      0.96136076     54187.845    
  12500000   397.68425      5185.2166      80.696316      2601.0799      3020.6122      3303.5735     -2570.4227      86.257068      0.97930901     53194.719    
  12520000   398.69849      4968.8497      184.48051      2587.2793      2798.8845      3200.5095     -2549.7644      84.351253      0.96256671     54119.955    
  12540000   402.30922      4949.5138      132.69357      2602.9463      2863.6314      3173.5167     -2570.5673      83.533819      0.97244025     53570.456    
  12560000   389.52033      4901.0837      119.8265       2619.1671      2886.5615      3183.9853     -2647.8318      76.007848      0.97260667     53561.29     
  12580000   398.04355      4979.4683      118.57992      2593.4006      2881.0068      3225.3748     -2584.3891      82.395959      0.97167566     53612.609    
  12600000   401.75808      4971.1261      135.00141      2587.5219      2925.9144      3192.9632     -2615.629       82.467632      0.96417045     54029.936    
  12620000   401.45807      4913.947       118.30869      2567.9632      2849.6462      3163.6527     -2532.6076      82.528553      0.96725784     53857.478    
  12640000   400.75046      5034.472       40.264947      2583.4139      2960.0405      3240.6771     -2532.6808      79.264823      0.9739863      53485.421    
  12660000   403.30936      5037.4727      149.17004      2607.7065      2873.437       3270.76       -2611.0651      84.496801      0.95148537     54750.256    
  12680000   409.07488      4968.2318      106.40941      2582.9208      2874.2539      3228.9233     -2560.5459      73.662881      0.97075249     53663.594    
  12700000   399.00804      5011.8788      81.321706      2558.8361      2946.0521      3250.0376     -2567.0271      79.563932      0.97654687     53345.179    
  12720000   397.23684      4894.7746      87.736717      2594.3226      2810.3314      3219.7212     -2557.4962      77.054795      0.968387       53794.678    
  12740000   397.71486      5052.0797      47.902846      2597.4394      2937.7057      3295.3669     -2567.2405      77.651857      0.96831575     53798.637    
  12760000   397.93033      4954.1259      98.861512      2603.3815      2886.6991      3169.0242     -2556.9314      89.979243      0.9686556      53779.762    
  12780000   405.9054       4891.9598      142.97969      2599.5157      2886.6466      3113.1845     -2594.0654      80.190551      0.96703528     53869.873    
  12800000   399.97979      4736.0218      58.689798      2563.3134      2814.5754      3122.7796     -2560.6124      74.144098      0.97371585     53500.277    
  12820000   395.64778      5019.9431      110.19312      2618.0942      2830.3076      3234.3963     -2514.1339      77.541005      0.95785104     54386.397    
  12840000   399.08929      5029.0131      102.65735      2588.4126      2941.1359      3184.6132     -2541.6296      90.488324      0.95122457     54765.267    
  12860000   397.89105      4955.8416      98.994008      2570.6359      2923.4904      3191.7195     -2579.4173      87.292933      0.97084293     53658.595    
  12880000   397.47516      5030.252       100.89034      2579.6609      2908.1901      3222.4066     -2526.5019      82.3924        0.97313714     53532.093    
  12900000   401.65719      4900.2871      36.612789      2572.0825      2873.2508      3206.409      -2533.4157      81.965633      0.97670025     53336.801    
  12920000   395.73282      5045.4085      58.256187      2592.3664      2918.2176      3202.7423     -2467.6795      78.2694        0.95539341     54526.3      
  12940000   405.74324      4950.4305      158.94497      2598.699       2903.7142      3089.1569     -2545.174       81.563936      0.96161241     54173.664    
  12960000   405.18841      4888.4458      54.923143      2571.0886      2880.4083      3133.8162     -2503.4758      88.89796       0.97378224     53496.629    
  12980000   394.37237      4780.5769      33.437333      2551.4251      2936.8884      3111.2404     -2591.0613      74.66611       0.97351591     53511.265    
  13000000   400.64338      4852.9643      94.228064      2605.5228      2829.0391      3178.8858     -2595.1154      77.68431       0.96522744     53970.769    
  13020000   395.12496      4864.4824      110.94811      2577.6489      2964.0382      3123.3988     -2647.8425      73.24263       0.97065927     53668.748    
  13040000   392.78856      5097.9021      59.718941      2596.398       2923.0117      3291.5791     -2518.4251      82.623394      0.9801595      53148.561    
  13060000   398.14315      4851.8702      104.54969      2603.4816      2922.3938      3141.203      -2660.1217      76.979395      0.96423223     54026.474    
  13080000   397.86777      4970.0663      58.291233      2598.3827      2912.6241      3227.3785     -2564.3819      74.520434      0.96539044     53961.656    
  13100000   405.51529      5024.2201      123.70604      2593.4122      2999.6656      3147.8956     -2588.0596      84.926281      0.96815567     53807.532    
  13120000   399.6671       5097.8246      151.59047      2616.616       2967.319       3167.4624     -2551.7695      84.025547      0.95238866     54698.328    
  13140000   397.13738      4913.4208      64.136149      2606.4202      2964.5022      3160.937      -2627.5949      81.882953      0.9680888      53811.249    
  13160000   407.81385      4990.7281      124.1906       2597.0688      2981.4384      3148.6975     -2607.004       83.052542      0.96552378     53954.205    
  13180000   400.37339      4963.0962      103.6271       2588.8299      2876.3573      3182.9433     -2531.7028      80.273443      0.958886       54327.696    
  13200000   402.90411      4933.6065      130.05182      2593.4266      2900.5702      3201.7898     -2637.3086      82.118754      0.96927264     53745.526    
  13200091   399.99881      4919.4227      73.162616      2596.0451      2930.2441      3211.9146     -2629.0754      74.178944      0.96626359     53912.895    
Loop time of 3808.52 on 24 procs for 1200000 steps with 5032 atoms

Performance: 6.806 ns/day, 3.526 hours/ns, 315.083 timesteps/s, 1.585 Matom-step/s
99.5% CPU use with 24 MPI tasks x no OpenMP threads

MPI task timing breakdown:
Section |  min time  |  avg time  |  max time  |%varavg| %total
---------------------------------------------------------------
Pair    | 1912.7     | 2139.6     | 2373.2     | 279.1 | 56.18
Bond    | 507.84     | 631.69     | 719.64     | 171.7 | 16.59
Kspace  | 556.21     | 825.3      | 1108.8     | 540.1 | 21.67
Neigh   | 36.952     | 36.986     | 37.013     |   0.3 |  0.97
Comm    | 125.97     | 128.36     | 131.46     |  11.9 |  3.37
Output  | 0.0039604  | 0.0046286  | 0.019397   |   4.5 |  0.00
Modify  | 31.877     | 34.063     | 35.298     |  16.8 |  0.89
Other   |            | 12.55      |            |       |  0.33

Nlocal:        209.667 ave         223 max         194 min
Histogram: 2 2 1 1 5 4 2 1 3 3
Nghost:        4692.25 ave        4711 max        4664 min
Histogram: 1 0 3 0 4 5 0 5 3 3
Neighs:        70809.2 ave       78741 max       61193 min
Histogram: 1 2 1 4 3 4 2 2 2 3

Total # of neighbors = 1699421
Ave neighs/atom = 337.72277
Ave special neighs/atom = 5.8028617
Neighbor list builds = 12745
Dangerous builds = 0
unfix           fNPT
unfix           fMOM
next            a
jump            SELF loop
variable        a loop 26
variable        b equal 600-20*($a-1)
variable        b equal 600-20*(12-1)
fix             fMOM all momentum 100 linear 1 1 1 angular
fix             fNPT all npt temp $b $b $(100.0*dt) iso 1 1 $(100.0*dt)
fix             fNPT all npt temp 380 $b $(100.0*dt) iso 1 1 $(100.0*dt)
fix             fNPT all npt temp 380 380 $(100.0*dt) iso 1 1 $(100.0*dt)
fix             fNPT all npt temp 380 380 25 iso 1 1 $(100.0*dt)
fix             fNPT all npt temp 380 380 25 iso 1 1 25
run             1200000
PPPM initialization ...
  using 12-bit tables for long-range coulomb (../kspace.cpp:342)
  G vector (1/distance) = 0.11695193
  grid = 4 4 4
  stencil order = 5
  estimated absolute RMS force accuracy = 0.28044288
  estimated relative force accuracy = 0.00084454542
  using double precision KISS FFT
  3d grid and FFT values/proc = 294 4
Generated 21 of 21 mixed pair_coeff terms from sixthpower/sixthpower mixing rule
WARNING: Inconsistent image flags (../domain.cpp:815)
Per MPI rank memory allocation (min/avg/max) = 22.22 | 22.3 | 22.62 Mbytes
   Step          Temp          PotEng         E_vdwl         E_coul         E_bond        E_angle        E_dihed        E_impro        Density         Volume    
  13200091   399.99881      4919.4021      73.162616      2595.6192      2930.2441      3211.9146     -2629.0754      74.178944      0.96626359     53912.895    
  13220000   373.84168      4700.0086      125.28671      2568.1026      2759.8139      3174.8454     -2669.8773      78.629745      0.97159809     53616.89     
  13240000   380.91774      4668.767       91.703426      2603.2627      2779.162       3080.2376     -2623.87        74.9434        0.97097769     53651.147    
  13260000   383.21265      4542.5927      72.695447      2588.8936      2677.7707      3062.5097     -2605.027       82.080656      0.96825593     53801.961    
  13280000   383.99727      4653.6454     -24.600618      2593.2881      2787.6392      3093.5514     -2542.3092      82.703147      0.98519461     52876.931    
  13300000   391.56652      4523.827      -35.531157      2602.6529      2846.8218      3034.3378     -2664.3015      76.290593      0.98776286     52739.447    
  13320000   381.19913      4702.1952      25.001         2591.1388      2848.3676      3136.064      -2633.8236      72.207599      0.97957856     53180.081    
  13340000   382.26155      4613.5624     -45.29171       2591.1765      2795.4293      3077.8702     -2546.5119      77.84645       0.98219859     53038.223    
  13360000   380.84507      4438.8269     -29.071465      2579.5736      2750.4735      3042.6447     -2641.5853      73.614888      0.99551679     52328.668    
  13380000   377.81311      4519.9254      16.145731      2570.8499      2784.32        3010.8172     -2605.5262      79.741256      0.98214023     53041.374    
  13400000   379.15638      4521.6926     -9.4754023      2583.934       2752.5211      3101.65       -2649.3742      78.27635       0.99383224     52417.365    
  13420000   385.47174      4403.6963     -61.852434      2586.1897      2772.044       3057.5883     -2695.2759      81.408779      0.99692349     52254.83     
  13440000   383.18626      4665.9752     -39.057177      2584.9437      2899.1107      3066.0468     -2591.8731      82.722833      0.99506314     52352.525    
  13460000   383.16856      4601.8043     -15.237136      2572.5324      2745.4645      3073.032      -2516.2283      79.072373      0.98806698     52723.215    
  13480000   377.35226      4536.1921      32.195323      2583.2731      2701.0678      3099.3659     -2622.4644      79.373868      0.98642225     52811.124    
  13500000   380.57577      4701.1519      41.620248      2587.3302      2883.8186      3117.0391     -2669.2661      77.622852      0.98516847     52878.334    
  13520000   379.1072       4608.6523      4.5219054      2554.4226      2815.9806      3135.6306     -2640.871       75.89198       0.98232914     53031.174    
  13540000   379.10687      4597.6295     -23.317622      2573.4407      2839.0015      3108.6655     -2639.4168      76.12952       0.9815112      53075.367    
  13560000   376.51514      4638.4962      4.2568042      2587.2783      2773.0336      3095.7346     -2563.88        79.281773      0.98470681     52903.125    
  13580000   377.98399      4668.6568     -0.90563688     2574.3346      2909.2194      3129.1078     -2685.3502      79.16186       0.98671439     52795.488    
  13600000   374.61433      4517.4831      4.9205283      2572.9469      2860.8208      3024.3648     -2686.4212      77.800333      0.98954348     52644.546    
  13620000   376.65983      4527.1249     -32.482365      2567.0861      2778.3559      3077.7784     -2605.2893      78.033788      0.99404891     52405.94     
  13640000   384.6396       4582.8182     -3.1882335      2568.9461      2769.8233      3139.1532     -2641.5079      86.336318      0.98298542     52995.768    
  13660000   377.06298      4531.0829     -41.975737      2567.2913      2856.7964      3025.7539     -2616.9966      77.140136      0.99708311     52246.465    
  13680000   387.02501      4520.5511      6.2408978      2598.6216      2787.734       3043.319      -2658.2556      79.294357      0.99585477     52310.908    
  13700000   385.48774      4466.8124     -92.237088      2590.9325      2737.922       3080.5121     -2588.9841      75.946298      0.99768505     52214.942    
  13720000   383.63584      4650.1694      13.237544      2574.7281      2825.4568      3102.2837     -2603.4565      74.235205      0.98080642     53113.506    
  13740000   386.67795      4600.2888      55.193611      2578.9112      2842.3298      3035.6626     -2650.3012      75.31814       0.97982072     53166.938    
  13760000   377.06723      4563.9064      35.60317       2559.8375      2802.3851      3011.3757     -2585.2842      77.26741       0.98328624     52979.555    
  13780000   370.95862      4483.7447      39.943354      2576.2111      2716.8133      3022.2941     -2614.7075      79.97699       0.98541891     52864.895    
  13800000   378.19845      4693.8024      48.888292      2560.4851      2769.7076      3170.5792     -2599.7713      80.425714      0.99086121     52574.535    
  13820000   376.01961      4646.449       52.131632      2554.7791      2875.7989      2989.5576     -2565.0873      75.958472      0.9796298      53177.3      
  13840000   387.41408      4654.8978      99.319035      2580.2562      2862.5455      3076.5063     -2707.3532      80.207807      0.96828237     53800.492    
  13860000   373.09451      4539.9006     -5.0745316      2563.6305      2803.8325      3099.8312     -2660.7553      75.172961      0.97863707     53231.243    
  13880000   377.17438      4607.7183      28.435206      2584.9507      2823.6919      3136.8811     -2702.9597      73.278841      0.97949267     53184.745    
  13900000   374.4262       4581.8296      18.569663      2580.3908      2795.5363      3039.9473     -2599.6303      82.541947      0.98545369     52863.03     
  13920000   381.00047      4610.9019     -17.681877      2576.6105      2775.3919      3103.9926     -2570.9049      79.952645      0.98344881     52970.797    
  13940000   382.41332      4552.9238      22.310435      2567.1408      2804.0016      3091.7557     -2677.2098      81.36803       0.97975117     53170.712    
  13960000   384.82521      4627.9141      66.127283      2580.6849      2796.5255      3060.1253     -2618.2809      79.276671      0.98187872     53055.501    
  13980000   386.46526      4557.799      -6.6139524      2571.0302      2741.3452      3104.882      -2592.2878      76.239778      0.99404983     52405.891    
  14000000   376.03204      4681.3552      23.076205      2588.1205      2795.355       3183.2976     -2648.8777      76.903374      0.97693292     53324.099    
  14020000   377.89869      4669.2994      19.420794      2561.6304      2856.1775      3053.5095     -2565.3904      80.125122      0.97044186     53680.771    
  14040000   381.77529      4645.8931     -2.0277795      2556.2389      2818.4681      3151.9981     -2619.9594      77.33732       0.98338475     52974.248    
  14060000   386.32699      4801.6109      108.74594      2552.3035      2818.3314      3197.7071     -2626.338       87.561519      0.98244634     53024.848    
  14080000   382.21675      4545.0881      90.375029      2564.8746      2836.0616      3023.7944     -2714.1965      80.898219      0.97423245     53471.908    
  14100000   381.82357      4745.5886      91.02301       2596.0773      2836.5929      3107.2087     -2629.5232      80.475891      0.961316       54190.368    
  14120000   381.05155      4633.5854      25.293284      2576.7266      2899.3087      3066.0412     -2680.0154      82.447795      0.98238158     53028.343    
  14140000   379.08382      4645.004      -50.733009      2591.5347      2780.4571      3151.9412     -2574.0096      82.925201      0.98479995     52898.122    
  14160000   378.49129      4546.5605      67.848902      2584.1568      2805.3871      3102.9313     -2752.0893      74.677588      0.98657277     52803.067    
  14180000   379.57662      4656.5816      36.174833      2571.8687      2799.2247      3112.314      -2605.0808      78.651532      0.9798135      53167.33     
  14200000   371.8756       4507.334       31.515653      2559.0823      2740.9307      3051.3284     -2607.6718      68.747292      0.97304386     53537.224    
  14220000   380.75395      4465.4167     -38.458072      2572.3354      2770.4659      3037.1525     -2614.1218      74.895313      0.97845115     53241.357    
  14240000   381.96664      4554.2152      18.694912      2590.7965      2763.2901      3064.7242     -2621.1066      74.385385      0.97998842     53157.84     
  14260000   386.31075      4599.5873     -29.122058      2556.244       2829.4339      3059.4895     -2555.4821      75.610248      0.97745951     53295.371    
  14280000   378.18344      4646.2115      52.292654      2558.9294      2827.6955      3105.3582     -2638.9435      77.637889      0.97781575     53275.954    
  14300000   373.83365      4601.7398     -4.7855881      2570.6564      2843.9789      3062.1992     -2612.5152      78.882316      0.99223711     52501.632    
  14320000   376.71352      4570.8361      62.574425      2565.3184      2794.7696      3063.8436     -2659.6069      80.31364       0.98320408     52983.982    
  14340000   381.99868      4600.4369     -22.157213      2583.5422      2816.3739      3092.8684     -2611.1224      77.042366      0.98310981     52989.063    
  14360000   378.29192      4569.4884      58.998394      2570.9035      2721.9642      3068.386      -2588.9842      74.159016      0.97663377     53340.432    
  14380000   383.40535      4708.877       44.610187      2581.6158      2792.1984      3196.147      -2637.0663      67.597881      0.97931394     53194.451    
  14400000   391.1501       4654.5148      0.99256046     2588.4879      2765.6546      3142.9267     -2585.5053      78.942395      0.99123207     52554.865    
  14400091   388.0777       4584.7601      3.9215348      2591.0401      2762.6582      3117.3648     -2629.7211      76.268415      0.99212596     52507.514    
Loop time of 3849.77 on 24 procs for 1200000 steps with 5032 atoms

Performance: 6.733 ns/day, 3.565 hours/ns, 311.707 timesteps/s, 1.569 Matom-step/s
99.5% CPU use with 24 MPI tasks x no OpenMP threads

MPI task timing breakdown:
Section |  min time  |  avg time  |  max time  |%varavg| %total
---------------------------------------------------------------
Pair    | 1979.7     | 2171.4     | 2438.1     | 277.8 | 56.40
Bond    | 513.37     | 631.23     | 734.22     | 168.0 | 16.40
Kspace  | 519.01     | 835.48     | 1068.7     | 526.4 | 21.70
Neigh   | 35.415     | 35.455     | 35.484     |   0.3 |  0.92
Comm    | 127.08     | 129.58     | 132.48     |  12.0 |  3.37
Output  | 0.0039845  | 0.004287   | 0.010865   |   2.1 |  0.00
Modify  | 31.561     | 33.867     | 35.21      |  16.5 |  0.88
Other   |            | 12.72      |            |       |  0.33

Nlocal:        209.667 ave         229 max         192 min
Histogram: 1 2 3 4 4 3 2 2 2 1
Nghost:        4777.17 ave        4829 max        4710 min
Histogram: 1 1 1 2 4 3 7 1 1 3
Neighs:        72446.5 ave       79234 max       63066 min
Histogram: 3 1 0 3 2 1 5 1 5 3

Total # of neighbors = 1738715
Ave neighs/atom = 345.5316
Ave special neighs/atom = 5.8028617
Neighbor list builds = 12131
Dangerous builds = 0
unfix           fNPT
unfix           fMOM
next            a
jump            SELF loop
variable        a loop 26
variable        b equal 600-20*($a-1)
variable        b equal 600-20*(13-1)
fix             fMOM all momentum 100 linear 1 1 1 angular
fix             fNPT all npt temp $b $b $(100.0*dt) iso 1 1 $(100.0*dt)
fix             fNPT all npt temp 360 $b $(100.0*dt) iso 1 1 $(100.0*dt)
fix             fNPT all npt temp 360 360 $(100.0*dt) iso 1 1 $(100.0*dt)
fix             fNPT all npt temp 360 360 25 iso 1 1 $(100.0*dt)
fix             fNPT all npt temp 360 360 25 iso 1 1 25
run             1200000
PPPM initialization ...
  using 12-bit tables for long-range coulomb (../kspace.cpp:342)
  G vector (1/distance) = 0.11769836
  grid = 4 4 4
  stencil order = 5
  estimated absolute RMS force accuracy = 0.27923725
  estimated relative force accuracy = 0.0008409147
  using double precision KISS FFT
  3d grid and FFT values/proc = 294 4
Generated 21 of 21 mixed pair_coeff terms from sixthpower/sixthpower mixing rule
WARNING: Inconsistent image flags (../domain.cpp:815)
Per MPI rank memory allocation (min/avg/max) = 22.22 | 22.3 | 22.62 Mbytes
   Step          Temp          PotEng         E_vdwl         E_coul         E_bond        E_angle        E_dihed        E_impro        Density         Volume    
  14400091   388.0777       4585.056       3.9215348      2599.8547      2762.6582      3117.3648     -2629.7211      76.268415      0.99212596     52507.514    
  14420000   361.41184      4162.5954      1.7174585      2576.8038      2644.2171      2875.8754     -2668.9         78.088268      0.98920185     52662.727    
  14440000   359.52434      4353.915      -14.690513      2585.834       2751.9586      3027.4689     -2724.0695      72.395994      0.98432553     52923.617    
  14460000   365.19114      4212.9708     -10.283319      2573.6028      2600.8721      2945.0015     -2625.3348      74.37058       0.99863487     52165.28     
  14480000   360.48201      4151.1598      38.679963      2575.7906      2633.849       2897.6485     -2717.8893      68.212674      0.99164017     52533.236    
  14500000   366.34596      4140.9783     -25.777267      2569.9065      2611.9076      2939.2314     -2681.9062      72.946683      0.99814377     52190.946    
  14520000   360.23337      4155.6068     -20.427422      2587.8375      2625.357       2883.7611     -2648.5153      72.836078      0.99469932     52371.673    
  14540000   364.6982       4265.6375     -62.437902      2599.0223      2690.4858      2966.3809     -2663.3622      79.954519      0.98912277     52666.938    
  14560000   359.73126      4193.7599     -71.176276      2581.2047      2642.9172      2981.2824     -2674.3418      78.989796      0.98420575     52930.058    
  14580000   357.30397      4417.7948     -2.8803791      2589.5949      2744.5623      3011.9405     -2657.9687      77.509131      0.98262404     53015.258    
  14600000   352.87548      4313.0488     -36.67072       2583.0046      2666.2348      3018.8822     -2648.0468      74.26292       0.98913293     52666.397    
  14620000   355.74674      4299.1107     -27.508735      2603.1859      2677.1782      3052.9641     -2741.7855      80.281181      0.98369273     52957.662    
  14640000   363.55722      4361.0824      58.333308      2569.2109      2638.629       3002.5069     -2640.0542      77.581763      0.99655081     52274.372    
  14660000   365.34508      4292.7065      3.8765232      2597.95        2644.5588      2956.6814     -2638.4137      73.295597      0.98372773     52955.778    
  14680000   363.28634      4245.9279     -60.797495      2607.9491      2641.2037      2963.2576     -2635.5262      74.780307      0.99963277     52113.205    
  14700000   359.91792      4198.7213     -29.352522      2595.1206      2677.2676      2877.2787     -2649.6567      72.877069      0.98411518     52934.929    
  14720000   365.99738      4254.8066     -8.7316152      2609.3603      2634.7735      2929.201      -2632.1644      67.651546      0.98009864     53151.862    
  14740000   365.2102       4300.7364      8.7132009      2591.3322      2643.2934      3030.132      -2697.4691      70.046531      0.98885616     52681.138    
  14760000   356.85804      4342.1968      35.491543      2582.442       2731.3734      2916.7878     -2658.8236      79.889219      0.9835664      52964.464    
  14780000   361.67739      4406.8255     -18.901196      2610.636       2725.4599      3047.9876     -2689.344       76.250928      0.99672409     52265.284    
  14800000   361.09986      4272.4384      34.358164      2603.779       2691.1762      2885.2729     -2670.9689      73.271111      0.97565248     53394.081    
  14820000   359.57946      4349.6706     -25.656476      2600.4944      2724.7955      3007.5809     -2685.8112      73.350041      0.98645227     52809.517    
  14840000   361.50487      4295.8147     -71.552165      2600.869       2680.4244      2964.9999     -2606.2505      72.011093      0.98747947     52754.583    
  14860000   358.24606      4245.6887     -16.181479      2595.8844      2721.853       2968.2032     -2753.182       73.972486      0.99133858     52549.218    
  14880000   360.56468      4214.5494      10.102819      2579.1246      2664.8009      2965.1569     -2730.2519      70.92231       0.98836776     52707.17     
  14900000   363.65413      4320.5709     -9.5015977      2592.2649      2716.7277      2995.0856     -2702.2963      73.118024      0.99055589     52590.74     
  14920000   363.01661      4269.8088     -14.218755      2593.1716      2712.7754      2953.8127     -2705.9416      75.323708      0.98332928     52977.236    
  14940000   359.44237      4296.1252     -38.502644      2584.8462      2762.1902      2948.6031     -2686.6265      70.871094      0.9888426      52681.86     
  14960000   362.99224      4355.9439      37.533986      2588.5791      2707.9804      2928.0156     -2629.4843      68.525353      0.99058383     52589.257    
  14980000   360.27299      4418.6511     -31.236093      2624.0628      2701.9391      3078.7316     -2680.2044      69.991306      0.98325489     52981.244    
  15000000   362.16028      4311.1983     -19.077063      2609.6835      2678.7534      2930.5421     -2620.2036      76.204195      0.98855605     52697.131    
  15020000   360.40308      4327.991      -14.680759      2618.6544      2694.366       2945.9485     -2642.9109      71.058369      0.97643088     53351.516    
  15040000   357.59219      4353.715       0.035889008    2612.9429      2751.3092      2975.7179     -2719.8362      78.00222       0.98502573     52885.996    
  15060000   359.414        4286.9575     -57.914481      2588.1822      2701.7068      2916.4405     -2593.3055      76.503692      0.98132125     53085.641    
  15080000   362.438        4181.0522      17.682965      2573.078       2729.2796      2911.3564     -2768.7889      63.377544      0.98662575     52800.231    
  15100000   365.22519      4254.5622     -31.74267       2589.1522      2759.7027      2974.9685     -2762.9975      70.680536      0.99932314     52129.352    
  15120000   364.05892      4159.9338     -23.104638      2593.3364      2647.0876      2932.2351     -2712.0086      67.643268      0.98299482     52995.261    
  15140000   356.2544       4319.6389     -38.236257      2577.6019      2776.6522      2977.4078     -2704.8389      75.954985      0.99681221     52260.663    
  15160000   361.68987      4373.6857      35.351769      2586.2224      2666.0624      3015.3774     -2658.572       74.02724       0.99623854     52290.757    
  15180000   362.82415      4285.2005      20.052503      2606.4555      2675.613       2909.2184     -2661.2952      79.900879      0.98173765     53063.125    
  15200000   363.12562      4278.1871      45.106482      2606.8283      2622.8071      2951.2442     -2682.3158      79.584601      0.9872694      52765.808    
  15220000   364.53207      4154.421       34.002652      2573.4275      2644.6724      2857.467      -2684.9354      74.794918      0.98060545     53124.391    
  15240000   359.87609      4376.369      -11.167572      2566.0772      2750.8292      2994.8664     -2659.2587      79.990556      0.98472405     52902.199    
  15260000   370.34352      4250.7273     -62.241715      2592.745       2715.1256      2985.1194     -2707.8908      73.126572      1.0007135      52056.923    
  15280000   359.18513      4376.0209     -53.994477      2565.7103      2721.7852      3010.8049     -2597.2519      74.181965      0.97844191     53241.86     
  15300000   358.12569      4181.4267     -68.308997      2579.4394      2636.9726      3002.8674     -2696.6759      72.386333      0.99145567     52543.012    
  15320000   357.80124      4251.6817     -44.363937      2588.9934      2665.5963      2897.2268     -2585.6886      74.971997      0.98758232     52749.089    
  15340000   363.92895      4269.0133     -11.651858      2577.5463      2669.7289      2918.4756     -2615.0135      74.850146      0.98863012     52693.183    
  15360000   357.87681      4233.5846      17.195898      2570.5429      2586.4297      2998.1829     -2664.3123      70.815732      0.98668185     52797.229    
  15380000   363.17599      4270.3251     -57.63571       2571.9525      2712.185       2963.0116     -2646.779       72.725729      0.99246316     52489.674    
  15400000   357.46815      4168.9589     -28.439816      2592.8234      2643.208       2865.9259     -2629.5725      70.049175      0.99601918     52302.274    
  15420000   364.28871      4282.6405     -32.835672      2572.747       2670.785       2993.4966     -2646.1856      69.650422      0.98113766     53095.574    
  15440000   363.43152      4276.6771      7.5173567      2581.315       2595.2913      2989.1666     -2630.4332      78.930161      0.97937547     53191.109    
  15460000   360.31678      4273.7676      12.708037      2579.449       2685.7119      2931.682      -2664.6213      74.215929      0.97624501     53361.673    
  15480000   354.78215      4329.5954     -33.91309       2595.9521      2715.5102      2963.1625     -2637.7295      71.669598      0.98789991     52732.131    
  15500000   357.71565      4342.398       36.544785      2571.3353      2625.7195      3065.1928     -2685.1821      73.760938      0.99251098     52487.145    
  15520000   358.24331      4229.4223     -70.175309      2612.2311      2641.0361      2958.8232     -2645.961       78.484921      0.99704452     52248.487    
  15540000   356.55967      4259.438      -47.88596       2568.9408      2706.0454      2975.3692     -2670.6919      72.525327      0.99082154     52576.64     
  15560000   353.26979      4365.5023     -13.419567      2579.0272      2649.9133      2995.7541     -2576.1018      75.86273       0.99431289     52392.027    
  15580000   356.56756      4240.5396     -13.925504      2592.4424      2642.3273      2963.0502     -2671.064       72.628048      0.98842763     52703.978    
  15600000   365.19042      4308.6089     -42.715427      2597.9555      2663.5505      2980.1492     -2616.0298      71.158909      0.98948102     52647.869    
  15600091   365.53086      4247.8069      28.19242       2584.8807      2716.5499      2884.2893     -2695.4492      74.725699      0.99377        52420.648    
Loop time of 3814.74 on 24 procs for 1200000 steps with 5032 atoms

Performance: 6.795 ns/day, 3.532 hours/ns, 314.570 timesteps/s, 1.583 Matom-step/s
99.5% CPU use with 24 MPI tasks x no OpenMP threads

MPI task timing breakdown:
Section |  min time  |  avg time  |  max time  |%varavg| %total
---------------------------------------------------------------
Pair    | 1976       | 2186       | 2378.6     | 255.0 | 57.30
Bond    | 561.02     | 630.76     | 708.93     | 140.1 | 16.53
Kspace  | 577.25     | 789.27     | 1040.6     | 474.8 | 20.69
Neigh   | 33.337     | 33.39      | 33.443     |   0.5 |  0.88
Comm    | 126.55     | 129.07     | 132.03     |  12.6 |  3.38
Output  | 0.0029854  | 0.0032996  | 0.010095   |   2.5 |  0.00
Modify  | 31.722     | 33.915     | 35.233     |  16.1 |  0.89
Other   |            | 12.36      |            |       |  0.32

Nlocal:        209.667 ave         228 max         193 min
Histogram: 3 0 3 3 5 3 2 0 3 2
Nghost:        4788.29 ave        4822 max        4753 min
Histogram: 5 1 0 1 1 6 4 3 1 2
Neighs:        72490.7 ave       81131 max       62595 min
Histogram: 2 1 2 2 1 4 6 4 1 1

Total # of neighbors = 1739776
Ave neighs/atom = 345.74245
Ave special neighs/atom = 5.8028617
Neighbor list builds = 11619
Dangerous builds = 0
unfix           fNPT
unfix           fMOM
next            a
jump            SELF loop
variable        a loop 26
variable        b equal 600-20*($a-1)
variable        b equal 600-20*(14-1)
fix             fMOM all momentum 100 linear 1 1 1 angular
fix             fNPT all npt temp $b $b $(100.0*dt) iso 1 1 $(100.0*dt)
fix             fNPT all npt temp 340 $b $(100.0*dt) iso 1 1 $(100.0*dt)
fix             fNPT all npt temp 340 340 $(100.0*dt) iso 1 1 $(100.0*dt)
fix             fNPT all npt temp 340 340 25 iso 1 1 $(100.0*dt)
fix             fNPT all npt temp 340 340 25 iso 1 1 25
run             1200000
PPPM initialization ...
  using 12-bit tables for long-range coulomb (../kspace.cpp:342)
  G vector (1/distance) = 0.11774523
  grid = 4 4 4
  stencil order = 5
  estimated absolute RMS force accuracy = 0.27916028
  estimated relative force accuracy = 0.00084068289
  using double precision KISS FFT
  3d grid and FFT values/proc = 294 4
Generated 21 of 21 mixed pair_coeff terms from sixthpower/sixthpower mixing rule
WARNING: Inconsistent image flags (../domain.cpp:815)
Per MPI rank memory allocation (min/avg/max) = 22.22 | 22.3 | 22.62 Mbytes
   Step          Temp          PotEng         E_vdwl         E_coul         E_bond        E_angle        E_dihed        E_impro        Density         Volume    
  15600091   365.53086      4247.8383      28.19242       2585.4472      2716.5499      2884.2893     -2695.4492      74.725699      0.99377        52420.648    
  15620000   335.92984      3992.0607     -43.12358       2601.7327      2596.5725      2790.4819     -2680.9476      72.973233      0.99518331     52346.203    
  15640000   341.51616      3893.6079     -54.798427      2585.3095      2570.9432      2812.3034     -2741.2772      66.764012      0.99710483     52245.326    
  15660000   340.4892       3946.5289     -129.5461       2587.4438      2539.2619      2880.3484     -2656.3651      70.858612      1.0018819      51996.213    
  15680000   338.98584      3916.2289     -54.017519      2577.6476      2519.193       2856.3701     -2703.8861      67.001075      1.0026156      51958.167    
  15700000   339.24974      3920.0773     -82.617282      2580.0004      2514.3171      2853.2185     -2664.6407      65.789237      0.9966628      52268.498    
  15720000   342.23637      3973.3606     -73.221854      2580.8699      2555.7992      2902.4861     -2717.882       71.424373      0.99767722     52215.352    
  15740000   336.99986      3992.3281     -100.05679      2579.8761      2569.0425      2898.5389     -2681.0599      71.169356      0.99700832     52250.384    
  15760000   343.62521      3865.5542     -74.686926      2571.3509      2515.2881      2835.6141     -2710.097       73.598176      0.99693752     52254.094    
  15780000   334.80196      3917.0051     -44.896529      2593.3793      2494.0019      2834.8092     -2684.9386      70.293822      0.99231792     52497.356    
  15800000   333.32099      3921.7008     -25.835616      2610.8386      2526.0874      2810.1414     -2714.1527      60.299129      0.99626638     52289.296    
  15820000   335.05094      3969.7741     -52.808734      2580.9947      2550.6139      2901.3498     -2732.3609      67.701635      1.0007745      52053.751    
  15840000   336.72598      3968.5308     -41.554694      2585.943       2529.5529      2935.5596     -2769.3176      73.95984       0.99194951     52516.854    
  15860000   335.77184      3953.9913     -46.088694      2589.2159      2556.9847      2802.7201     -2672.6578      69.911814      0.99186415     52521.373    
  15880000   337.65003      3881.9204     -31.921081      2575.1947      2555.7686      2796.7115     -2730.6756      62.532333      1.001929       51993.77     
  15900000   341.51069      3975.4089     -50.920368      2571.6566      2570.4544      2847.7395     -2688.0091      69.741391      0.98573506     52847.94     
  15920000   340.05751      4053.3206      7.8781388      2579.285       2594.1277      2828.5251     -2687.7929      77.117956      0.99205862     52511.078    
  15940000   336.18016      3957.2933     -69.966002      2589.7877      2556.4988      2838.438      -2685.5185      73.797131      0.99353695     52432.944    
  15960000   339.99773      3913.347      -115.39635      2590.8788      2607.2638      2822.1015     -2714.3693      68.05456       0.99384139     52416.882    
  15980000   332.16557      4014.7937     -128.58925      2584.2043      2612.0824      2946.019      -2724.9825      71.853166      0.99696148     52252.839    
  16000000   333.598        3937.6221     -62.876959      2568.5024      2522.0695      2862.0045     -2671.6657      65.396842      0.99606312     52299.966    
  16020000   343.55313      3850.6744     -124.32566      2577.0475      2569.3533      2818.0029     -2707.7589      64.170016      0.9997993      52104.525    
  16040000   342.99341      3939.9056     -67.392258      2603.3439      2601.0336      2779.2625     -2694.3893      63.42951       0.99987248     52100.711    
  16060000   340.82356      4007.9622     -68.23355       2594.5137      2556.6427      2878.9664     -2680.207       71.955273      1.0002447      52081.325    
  16080000   335.64435      3833.106      -120.86503      2565.6601      2538.2714      2801.3186     -2677.8926      72.625223      0.99713213     52243.896    
  16100000   337.6264       3912.2945      19.070381      2586.5096      2475.1643      2844.8467     -2738.5725      71.571201      0.98658504     52802.41     
  16120000   337.52554      4059.3809     -70.923487      2582.8018      2705.4458      2856.6156     -2739.1689      70.292705      0.9894855      52647.631    
  16140000   341.50641      3928.427      -101.87423      2580.5328      2522.3174      2888.9445     -2685.8187      69.813499      0.98759799     52748.252    
  16160000   341.33277      3921.9339     -32.064091      2594.5764      2526.0865      2794.6392     -2685.0616      69.385076      1.0005601      52064.903    
  16180000   338.2312       3928.9682     -40.735648      2574.6793      2517.448       2806.8866     -2651.6268      67.772224      0.99292353     52465.337    
  16200000   339.74296      3968.7499     -58.19837       2563.3319      2595.0901      2878.724      -2738.6969      73.754992      0.99454786     52379.648    
  16220000   340.99363      3977.0313     -98.089365      2557.1239      2639.6772      2841.0402     -2685.2314      67.871958      1.0071471      51724.388    
  16240000   342.11292      3930.6348     -95.672903      2584.5184      2580.0993      2814.3467     -2669.4248      61.790503      0.98907479     52669.493    
  16260000   333.77438      4014.5065     -79.571349      2603.8395      2569.6678      2902.4487     -2706.0463      69.853433      0.9897323      52634.503    
  16280000   344.00828      3990.6278     -123.31718      2568.1662      2584.8004      2904.7566     -2666.8401      68.103578      0.98932268     52656.296    
  16300000   340.27163      3958.1676     -90.469197      2584.5604      2565.729       2859.3814     -2688.0214      72.553404      0.99183943     52522.682    
  16320000   346.34278      3880.5355     -137.11233      2571.2712      2539.207       2864.2304     -2680.103       68.156143      0.99598725     52303.95     
  16340000   343.23265      3834.083      -91.696954      2580.9644      2465.9028      2882.7375     -2726.6861      68.713027      0.99317838     52451.874    
  16360000   337.52087      3956.7959     -92.92389       2563.1946      2704.6884      2824.9676     -2766.7228      69.237839      0.99384787     52416.541    
  16380000   343.70049      4007.9153     -104.51493      2558.6418      2669.2529      2870.1394     -2707.7304      67.51779       1.0039415      51889.545    
  16400000   343.8725       3971.4733     -34.587873      2573.0776      2588.8942      2885.6915     -2761.1014      65.246354      0.99326856     52447.112    
  16420000   346.73124      3900.2492     -63.264416      2553.5131      2545.6989      2871.6784     -2730.036       68.556202      0.99480509     52366.105    
  16440000   339.20465      3867.5415     -97.026053      2562.7974      2550.4792      2848.8699     -2719.6611      67.629361      0.99382597     52417.696    
  16460000   332.10738      3965.0379     -96.804547      2590.2176      2480.7728      2911.6933     -2645.7467      70.446391      0.99154384     52538.34     
  16480000   335.94709      3966.8644     -71.902231      2581.5371      2585.6052      2847.7009     -2700.8459      69.880141      0.99161928     52534.343    
  16500000   344.46153      4080.1488     -65.916289      2584.4479      2600.5747      2865.5687     -2634.7807      76.014886      1.0013221      52025.285    
  16520000   351.58065      3899.2465     -69.63201       2590.8359      2451.0883      2851.6689     -2648.1731      69.218718      1.0017679      52002.135    
  16540000   329.16657      3973.5253     -82.970989      2593.4904      2562.2621      2895.9569     -2718.4443      68.852259      0.99247559     52489.017    
  16560000   343.5479       3957.2018     -75.11533       2602.3928      2561.259       2872.9973     -2727.9684      69.0332        0.99555502     52326.658    
  16580000   339.60252      3967.8395     -2.5149005      2581.8971      2573.7375      2849.9207     -2756.9637      67.299075      0.99639743     52282.419    
  16600000   342.47075      3853.8255     -27.472924      2583.7317      2515.5381      2747.8474     -2689.4552      68.777503      0.99329909     52445.5      
  16620000   341.95976      4000.6642     -7.121608       2586.1609      2607.3081      2830.4939     -2741.3177      70.068331      0.98835235     52707.992    
  16640000   332.30859      3955.8804     -63.993299      2580.2088      2560.5527      2852.43       -2707.6684      79.854687      0.99158019     52536.414    
  16660000   339.16171      3884.3738     -48.394279      2579.3221      2457.1784      2815.7438     -2650.5651      76.445389      0.99250539     52487.44     
  16680000   330.21224      3970.6282     -92.580434      2565.8585      2566.8534      2906.4968     -2705.7254      75.318684      1.0001195      52087.841    
  16700000   344.49569      3816.3068     -154.2186       2595.3282      2575.2438      2814.4931     -2741.3707      72.367782      1.0026298      51957.431    
  16720000   343.35357      3994.5136     -109.02558      2566.4235      2563.1096      2936.1841     -2679.5687      62.946582      1.002063       51986.817    
  16740000   338.45396      4026.7989     -113.94332      2570.7421      2521.6044      2911.3829     -2592.0544      74.487992      0.99215581     52505.934    
  16760000   343.5313       3917.5321     -97.858124      2580.2029      2526.329       2822.4224     -2635.5481      67.500103      1.0044838      51861.529    
  16780000   344.53744      4013.5768     -76.837756      2591.2667      2601.9517      2851.0862     -2677.116       68.365146      1.0002502      52081.038    
  16800000   337.56168      3936.9512     -101.18431      2587.3181      2606.0775      2859.43       -2735.102       65.900119      1.0025808      51959.97     
  16800091   341.16523      3850.525      -118.31422      2581.6469      2604.521       2825.7916     -2764.0551      66.111964      1.0011313      52035.198    
Loop time of 3815.42 on 24 procs for 1200000 steps with 5032 atoms

Performance: 6.793 ns/day, 3.533 hours/ns, 314.513 timesteps/s, 1.583 Matom-step/s
99.5% CPU use with 24 MPI tasks x no OpenMP threads

MPI task timing breakdown:
Section |  min time  |  avg time  |  max time  |%varavg| %total
---------------------------------------------------------------
Pair    | 1900.5     | 2197.3     | 2401.4     | 271.7 | 57.59
Bond    | 529.19     | 630.16     | 708.11     | 166.7 | 16.52
Kspace  | 531.99     | 780.47     | 1140.2     | 545.5 | 20.46
Neigh   | 31.839     | 31.881     | 31.91      |   0.4 |  0.84
Comm    | 126.9      | 129.32     | 132.34     |  13.0 |  3.39
Output  | 0.0039135  | 0.0042239  | 0.010947   |   2.2 |  0.00
Modify  | 31.794     | 33.787     | 35.001     |  16.1 |  0.89
Other   |            | 12.48      |            |       |  0.33

Nlocal:        209.667 ave         225 max         188 min
Histogram: 1 0 2 1 2 6 4 5 2 1
Nghost:        4802.88 ave        4855 max        4747 min
Histogram: 1 0 4 3 4 3 4 2 1 2
Neighs:        73419.3 ave       80816 max       66394 min
Histogram: 3 4 1 3 2 1 2 3 1 4

Total # of neighbors = 1762063
Ave neighs/atom = 350.1715
Ave special neighs/atom = 5.8028617
Neighbor list builds = 11041
Dangerous builds = 0
unfix           fNPT
unfix           fMOM
next            a
jump            SELF loop
variable        a loop 26
variable        b equal 600-20*($a-1)
variable        b equal 600-20*(15-1)
fix             fMOM all momentum 100 linear 1 1 1 angular
fix             fNPT all npt temp $b $b $(100.0*dt) iso 1 1 $(100.0*dt)
fix             fNPT all npt temp 320 $b $(100.0*dt) iso 1 1 $(100.0*dt)
fix             fNPT all npt temp 320 320 $(100.0*dt) iso 1 1 $(100.0*dt)
fix             fNPT all npt temp 320 320 25 iso 1 1 $(100.0*dt)
fix             fNPT all npt temp 320 320 25 iso 1 1 25
run             1200000
PPPM initialization ...
  using 12-bit tables for long-range coulomb (../kspace.cpp:342)
  G vector (1/distance) = 0.11795427
  grid = 4 4 4
  stencil order = 5
  estimated absolute RMS force accuracy = 0.27881518
  estimated relative force accuracy = 0.00083964364
  using double precision KISS FFT
  3d grid and FFT values/proc = 294 4
Generated 21 of 21 mixed pair_coeff terms from sixthpower/sixthpower mixing rule
WARNING: Inconsistent image flags (../domain.cpp:815)
Per MPI rank memory allocation (min/avg/max) = 22.22 | 22.3 | 22.62 Mbytes
   Step          Temp          PotEng         E_vdwl         E_coul         E_bond        E_angle        E_dihed        E_impro        Density         Volume    
  16800091   341.16523      3850.6588     -118.31422      2584.1643      2604.521       2825.7916     -2764.0551      66.111964      1.0011313      52035.198    
  16820000   317.85253      3642.3508     -101.21947      2578.2242      2507.0395      2712.0643     -2769.8939      63.854751      1.0042654      51872.81     
  16840000   320.89802      3610.4636     -152.26618      2592.6831      2442.1954      2787.8639     -2774.682       61.926664      0.99840324     52177.382    
  16860000   322.08778      3659.2277     -80.360174      2559.0823      2465.3039      2727.2152     -2723.4421      59.262211      1.0015417      52013.88     
  16880000   318.1903       3572.0219     -167.66381      2544.0692      2461.3501      2748.8767     -2729.8477      63.482568      1.0038179      51895.936    
  16900000   321.67432      3668.3817     -149.31902      2605.8121      2464.8769      2717.3681     -2693.721       71.433395      1.0067575      51744.405    
  16920000   318.75053      3587.0452     -190.65825      2593.3527      2460.2005      2751.3665     -2743.3393      64.416705      1.0066598      51749.425    
  16940000   321.21926      3672.2811     -137.31103      2581.9126      2461.2536      2768.7887     -2715.7387      60.979131      1.0076085      51700.704    
  16960000   325.22307      3638.1783     -80.952946      2555.8025      2512.74        2716.5501     -2789.4728      71.484493      1.0078372      51688.973    
  16980000   316.02242      3620.4948     -136.0659       2561.0233      2419.8654      2796.6285     -2737.8518      64.567034      1.0028232      51947.41     
  17000000   324.80854      3653.5444     -105.95676      2564.2028      2528.9794      2719.0115     -2768.9849      64.119787      0.9986909      52162.353    
  17020000   315.71152      3593.0294     -114.13979      2583.26        2371.6641      2724.9933     -2691.0199      65.641837      0.99798588     52199.203    
  17040000   321.23203      3733.0822     -124.23376      2574.2203      2471.6854      2827.8901     -2730.3968      61.30463       1.0037428      51899.816    
  17060000   320.37435      3588.6678     -153.77568      2551.7273      2457.9519      2779.2908     -2771.3619      72.82623       1.0029619      51940.228    
  17080000   328.65864      3607.8974     -153.30348      2555.9815      2440.6567      2722.0472     -2672.5235      62.850356      1.0093788      51610.026    
  17100000   315.62158      3609.883      -131.08824      2570.5133      2453.3104      2732.9736     -2736.1449      67.436284      1.0052983      51819.51     
  17120000   324.22234      3605.056      -100.33094      2552.5124      2372.3557      2760.1505     -2692.2862      60.317759      1.0067678      51743.873    
  17140000   317.39727      3515.2417     -121.58485      2592.5157      2340.951       2721.6897     -2732.9582      62.423077      1.002132       51983.241    
  17160000   320.00903      3602.9879     -131.31282      2553.3151      2460.1289      2792.2763     -2784.4834      60.357073      0.99955387     52117.318    
  17180000   320.83637      3569.2301     -70.06998       2584.9376      2431.0136      2735.9875     -2831.4673      65.846565      1.0013205      52025.369    
  17200000   317.39346      3619.3469     -167.55046      2573.7871      2408.1374      2766.9284     -2683.4285      69.700264      1.0173465      51205.826    
  17220000   325.9117       3531.5013     -165.86912      2601.6204      2440.5534      2666.7363     -2725.5812      61.928396      1.0088079      51639.235    
  17240000   320.51403      3599.7044     -165.17124      2585.0496      2479.6369      2778.9748     -2795.1597      63.946807      1.010053       51575.577    
  17260000   318.80603      3601.3512     -74.028576      2564.2286      2446.641       2685.828      -2745.286       71.543524      1.0077029      51695.858    
  17280000   322.71879      3583.7518     -145.68287      2569.9995      2456.037       2762.3002     -2771.0663      59.964343      1.0163175      51257.669    
  17300000   317.12372      3590.995      -156.04545      2588.3703      2453.4418      2761.164      -2770.483       62.243719      1.0115078      51501.399    
  17320000   318.28933      3528.1959     -105.56468      2573.9784      2440.8885      2664.5749     -2757.4168      59.845477      1.009339       51612.064    
  17340000   320.59716      3616.2085     -192.84467      2585.2753      2523.3989      2725.1131     -2737.4014      60.843525      1.0068307      51740.642    
  17360000   323.67108      3725.5386     -51.416981      2576.9284      2458.2433      2747.4372     -2727.0522      69.894447      1.0042029      51876.036    
  17380000   317.09159      3604.4185     -136.83735      2595.0203      2435.0774      2699.881      -2706.3035      65.552925      0.99952062     52119.052    
  17400000   315.92065      3596.9244     -146.94022      2573.5453      2388.8342      2734.7281     -2673.8732      68.009588      1.0095301      51602.291    
  17420000   316.90657      3532.8487     -137.32893      2573.3924      2401.9034      2676.8563     -2701.2221      67.117463      1.009799       51588.551    
  17440000   321.35555      3671.5939     -164.21494      2582.5509      2506.1626      2776.6322     -2748.4275      66.646193      1.0036755      51903.298    
  17460000   316.28977      3646.5857     -141.14783      2568.7396      2480.9911      2763.9788     -2746.4635      68.49594       1.0086908      51645.23     
  17480000   312.81141      3645.1085     -124.35226      2579.8232      2495.7569      2677.4776     -2703.4554      67.845567      1.0032575      51924.92     
  17500000   321.47384      3635.8523     -92.738322      2583.5804      2409.3534      2769.9257     -2746.9054      60.576814      1.000996       52042.234    
  17520000   317.04394      3589.4355     -98.607314      2568.8298      2436.7106      2709.6914     -2742.6606      63.672731      0.999242       52133.585    
  17540000   315.32001      3567.7124     -161.55376      2545.496       2430.116       2721.1735     -2687.3871      67.727964      1.0097988      51588.56     
  17560000   315.26808      3520.4007     -174.41847      2578.2552      2393.2727      2739.5731     -2737.85        69.295333      1.0095241      51602.601    
  17580000   317.80354      3606.7529     -93.770414      2557.4087      2434.4166      2750.7789     -2752.7939      58.622629      1.010651       51545.062    
  17600000   310.03773      3531.5801     -89.733959      2568.2381      2455.6269      2677.1795     -2799.1454      67.455203      1.0046876      51851.013    
  17620000   325.24594      3619.7889     -126.28588      2573.6002      2402.9487      2825.0407     -2769.3025      61.324397      1.0094144      51608.206    
  17640000   321.93954      3554.0468     -136.35188      2552.9593      2528.2419      2665.0755     -2771.8089      63.724483      1.0047825      51846.114    
  17660000   322.82975      3637.7436     -63.826406      2545.2798      2522.0359      2690.685      -2774.2604      66.184323      1.005836       51791.809    
  17680000   320.59008      3607.8582     -127.44956      2550.851       2436.957       2748.4979     -2721.534       68.738952      1.0137861      51385.66     
  17700000   323.6205       3537.046      -144.8082       2568.4944      2433.5272      2754.2236     -2789.7197      63.088239      1.0068098      51741.717    
  17720000   323.64965      3586.268      -134.09035      2564.0751      2536.2373      2705.6918     -2804.3158      66.585137      1.0099333      51581.691    
  17740000   318.10341      3650.6254     -96.34088       2561.3983      2452.475       2734.4156     -2717.7563      64.392994      1.0063579      51764.952    
  17760000   326.86637      3522.5059     -132.04665      2555.9208      2409.6922      2683.1925     -2705.9971      59.822826      1.0063558      51765.061    
  17780000   317.89975      3729.454      -116.41267      2564.006       2521.3352      2819.9261     -2770.8018      59.396143      1.0099202      51582.362    
  17800000   322.94159      3618.4432     -121.78479      2549.2207      2482.4013      2725.9905     -2740.4866      71.341601      1.0108194      51536.473    
  17820000   326.52124      3591.9225     -96.395051      2590.2232      2440.3145      2708.6835     -2759.8605      56.483619      1.0081297      51673.971    
  17840000   312.54385      3702.5984     -80.761305      2585.9032      2445.8424      2719.0638     -2687.1215      67.451285      0.99849504     52172.585    
  17860000   320.63854      3639.8818     -83.385909      2563.4264      2443.4598      2799.4919     -2799.4676      64.093243      1.0020295      51988.558    
  17880000   318.424        3671.6133     -88.916         2579.4463      2466.4289      2698.1634     -2698.3587      62.302722      1.0028056      51948.322    
  17900000   324.241        3562.3599     -78.289996      2571.7496      2350.0156      2643.2725     -2641.2146      65.084665      0.99953162     52118.479    
  17920000   321.82589      3595.7261     -87.272583      2557.9189      2482.7256      2709.7347     -2788.8028      69.516529      0.99627269     52288.965    
  17940000   321.61489      3646.2941     -124.08988      2563.0419      2507.9265      2732.3736     -2747.8817      62.333804      1.0050159      51834.073    
  17960000   320.95287      3584.2239     -125.67596      2567.5527      2498.8577      2756.6774     -2831.827       66.062215      1.0108135      51536.776    
  17980000   314.1643       3591.3386     -155.30303      2557.8698      2510.8022      2762.9955     -2802.4032      64.856372      1.0066888      51747.935    
  18000000   316.27262      3593.7004     -159.52325      2566.7752      2484.096       2769.6966     -2783.8161      63.875697      1.0081236      51674.287    
  18000091   320.94519      3507.4046     -132.77987      2569.1772      2366.1637      2726.4988     -2732.4344      58.200445      1.0101171      51572.305    
Loop time of 3829.64 on 24 procs for 1200000 steps with 5032 atoms

Performance: 6.768 ns/day, 3.546 hours/ns, 313.346 timesteps/s, 1.577 Matom-step/s
99.5% CPU use with 24 MPI tasks x no OpenMP threads

MPI task timing breakdown:
Section |  min time  |  avg time  |  max time  |%varavg| %total
---------------------------------------------------------------
Pair    | 1997.6     | 2214.6     | 2429.7     | 257.0 | 57.83
Bond    | 542.42     | 629.65     | 732.52     | 169.4 | 16.44
Kspace  | 522.96     | 778.62     | 1035.6     | 494.5 | 20.33
Neigh   | 30.481     | 30.504     | 30.539     |   0.3 |  0.80
Comm    | 127.47     | 129.97     | 133.12     |  12.6 |  3.39
Output  | 0.0033912  | 0.003894   | 0.01512    |   3.8 |  0.00
Modify  | 31.683     | 33.806     | 35.137     |  16.7 |  0.88
Other   |            | 12.43      |            |       |  0.32

Nlocal:        209.667 ave         230 max         198 min
Histogram: 3 4 2 5 5 3 0 1 0 1
Nghost:        4807.38 ave        4836 max        4789 min
Histogram: 2 4 7 1 4 0 2 2 1 1
Neighs:          73562 ave       81876 max       66860 min
Histogram: 4 2 4 2 0 4 3 2 2 1

Total # of neighbors = 1765489
Ave neighs/atom = 350.85234
Ave special neighs/atom = 5.8028617
Neighbor list builds = 10565
Dangerous builds = 0
unfix           fNPT
unfix           fMOM
next            a
jump            SELF loop
variable        a loop 26
variable        b equal 600-20*($a-1)
variable        b equal 600-20*(16-1)
fix             fMOM all momentum 100 linear 1 1 1 angular
fix             fNPT all npt temp $b $b $(100.0*dt) iso 1 1 $(100.0*dt)
fix             fNPT all npt temp 300 $b $(100.0*dt) iso 1 1 $(100.0*dt)
fix             fNPT all npt temp 300 300 $(100.0*dt) iso 1 1 $(100.0*dt)
fix             fNPT all npt temp 300 300 25 iso 1 1 $(100.0*dt)
fix             fNPT all npt temp 300 300 25 iso 1 1 25
run             1200000
PPPM initialization ...
  using 12-bit tables for long-range coulomb (../kspace.cpp:342)
  G vector (1/distance) = 0.11820762
  grid = 4 4 4
  stencil order = 5
  estimated absolute RMS force accuracy = 0.278393
  estimated relative force accuracy = 0.00083837224
  using double precision KISS FFT
  3d grid and FFT values/proc = 294 4
Generated 21 of 21 mixed pair_coeff terms from sixthpower/sixthpower mixing rule
WARNING: Inconsistent image flags (../domain.cpp:815)
Per MPI rank memory allocation (min/avg/max) = 22.22 | 22.3 | 22.62 Mbytes
   Step          Temp          PotEng         E_vdwl         E_coul         E_bond        E_angle        E_dihed        E_impro        Density         Volume    
  18000091   320.94519      3507.639      -132.77987      2572.3002      2366.1637      2726.4988     -2732.4344      58.200445      1.0101171      51572.305    
  18020000   306.76884      3261.75       -168.24384      2554.871       2277.3409      2649.5993     -2759.6072      58.795782      1.0177126      51187.407    
  18040000   303.07357      3295.5758     -163.84814      2550.4902      2338.3958      2644.789      -2785.1823      61.175924      1.008989       51629.968    
  18060000   296.45622      3410.6776     -157.09719      2536.7134      2426.429       2646.1852     -2751.857       61.255151      1.0168671      51229.964    
  18080000   300.80545      3286.4864     -125.53595      2551.5037      2386.7661      2600.3286     -2834.2555      58.600195      1.0083386      51663.266    
  18100000   296.52738      3328.7141     -217.83092      2560.8294      2395.7289      2690.7573     -2810.2281      60.05804       1.0059734      51784.737    
  18120000   303.30844      3352.4764     -155.75358      2557.6417      2375.2764      2609.081      -2750.1974      67.331532      1.0078678      51687.404    
  18140000   298.54146      3192.657      -172.27768      2559.1718      2309.11        2570.9818     -2781.3806      57.671181      1.0010741      52038.172    
  18160000   299.38656      3270.1007     -136.84724      2572.7581      2309.1287      2566.5869     -2750.3996      59.088195      1.011403       51506.736    
  18180000   300.81301      3242.615      -129.18895      2547.9502      2325.6024      2605.252      -2815.359       58.897359      1.0176485      51190.631    
  18200000   296.95901      3194.3174     -132.97333      2569.7245      2296.1398      2539.5928     -2783.0947      55.511326      1.0033925      51917.935    
  18220000   299.32278      3295.7981     -237.23483      2564.1489      2343.2734      2664.1996     -2747.7165      59.052117      1.0113854      51507.633    
  18240000   305.53256      3206.1425     -174.14453      2564.2065      2341.2028      2573.0587     -2805.5109      57.684172      1.0163245      51257.319    
  18260000   298.25593      3268.4783     -128.32096      2553.9768      2355.7897      2604.7252     -2827.145       60.268615      1.0214922      50998.01     
  18280000   297.42063      3169.718      -202.06706      2574.808       2324.7853      2593.803      -2831.0457      60.581719      1.0182992      51157.919    
  18300000   304.23523      3191.5983     -182.34635      2560.5898      2349.0896      2562.0578     -2809.5368      61.966949      1.0156539      51291.159    
  18320000   300.0802       3394.5824     -154.0857       2574.4924      2319.0171      2708.2118     -2765.8044      63.131526      1.0129685      51427.134    
  18340000   304.85093      3315.0801     -144.5094       2575.3932      2402.0356      2605.8785     -2831.7467      58.063861      1.0196993      51087.675    
  18360000   298.61652      3242.454      -144.17455      2582.1383      2358.3171      2597.6333     -2862.6061      61.623897      1.0120189      51475.392    
  18380000   300.54314      3268.2236     -162.70974      2563.8307      2279.8642      2592.8306     -2718.4844      63.308417      1.016235       51261.832    
  18400000   296.99544      3295.7602     -194.17946      2556.1028      2326.6238      2656.327      -2759.8858      61.016045      1.0174717      51199.523    
  18420000   294.45425      3228.6876     -186.7916       2574.8522      2279.2224      2663.7318     -2813.5574      61.487641      1.0113197      51510.978    
  18440000   297.95732      3348.9357     -166.88034      2561.409       2367.2025      2676.7344     -2799.3178      59.860789      1.0149617      51326.143    
  18460000   292.83098      3328.8746     -209.66792      2565.122       2418.0468      2634.3887     -2788.64        59.760585      1.005373       51815.664    
  18480000   301.90769      3292.4204     -153.81422      2558.1875      2388.4972      2632.8211     -2844.8675      61.879844      1.0034263      51916.185    
  18500000   299.81966      3259.4478     -154.71632      2579.9135      2306.2704      2600.4025     -2785.2933      63.645049      1.0066193      51751.51     
  18520000   301.94515      3280.811      -160.68514      2563.9615      2360.3131      2637.479      -2833.7324      64.271285      1.0088103      51639.112    
  18540000   297.90995      3267.405      -135.32916      2567.6365      2282.7857      2648.8631     -2808.1748      62.160378      1.0067172      51746.477    
  18560000   302.19731      3351.2262     -162.74978      2579.2114      2374.8215      2676.6055     -2837.184       71.495256      1.0141923      51365.08     
  18580000   295.58715      3280.8884     -132.75536      2558.8257      2315.7843      2661.6261     -2830.2044      58.054412      1.0135451      51397.879    
  18600000   302.45216      3337.0466     -109.13083      2567.7598      2349.8755      2623.2536     -2803.7826      59.61524       1.0101643      51569.896    
  18620000   301.5623       3286.9618     -191.83485      2566.0893      2334.3918      2665.7386     -2793.1327      56.496793      1.0225877      50943.372    
  18640000   297.82791      3360.0956     -174.19206      2587.4518      2441.9155      2609.2932     -2809.9733      56.702057      1.0162325      51261.958    
  18660000   298.08195      3227.4328     -168.40721      2577.5197      2257.0787      2585.626      -2732.1831      58.538032      1.0103159      51562.155    
  18680000   297.05939      3342.1271     -195.6038       2567.6361      2413.751       2643.1992     -2795.0583      59.323636      1.0112919      51512.393    
  18700000   299.99071      3313.4285     -136.24362      2561.9418      2320.3846      2642.3566     -2785.3572      61.289198      1.0003377      52076.48     
  18720000   299.31346      3286.5081     -173.99541      2572.6122      2361.2687      2585.4723     -2771.8569      63.752966      1.0101232      51571.995    
  18740000   304.26139      3250.6709     -98.192566      2584.73        2270.4178      2575.8371     -2800.4865      68.882587      1.0149802      51325.207    
  18760000   302.16834      3271.1977     -135.30515      2563.165       2350.1639      2577.7661     -2796.0686      62.400111      1.011246       51514.732    
  18780000   299.59146      3239.3535     -181.63198      2577.3871      2324.8838      2561.9633     -2750.9153      58.205563      1.0196354      51090.876    
  18800000   303.17365      3258.9111     -185.606        2590.6733      2316.3243      2629.2924     -2801.3889      60.007725      1.0118543      51483.762    
  18820000   295.37877      3266.603      -133.99717      2579.8204      2394.9294      2552.0242     -2836.159       60.526504      1.0023965      51969.52     
  18840000   298.86667      3245.3486     -152.52641      2568.4501      2330.2579      2564.9064     -2779.6841      64.222554      1.0124627      51452.826    
  18860000   296.28321      3161.5803     -159.99855      2569.2007      2252.9822      2598.7027     -2813.0156      64.595775      1.0182221      51161.794    
  18880000   296.20469      3243.8616     -142.88308      2566.2965      2330.2353      2571.5135     -2790.0557      59.575728      1.0108604      51534.382    
  18900000   304.23084      3364.1572     -157.20408      2580.044       2359.8614      2662.1167     -2788.0581      58.051359      1.0042789      51872.111    
  18920000   296.65556      3318.8598     -127.94135      2561.4179      2425.3206      2583.3239     -2836.4271      64.207168      1.0048089      51844.75     
  18940000   300.25601      3255.6465     -162.18354      2571.8351      2346.1319      2543.2779     -2756.2953      63.112527      1.0057628      51795.578    
  18960000   296.05463      3232.3533     -182.35754      2561.946       2291.315       2647.8166     -2801.0635      65.789443      1.0107458      51540.227    
  18980000   298.75991      3328.8855     -163.43483      2569.4551      2321.4119      2622.9283     -2731.058       59.765601      1.0074238      51710.181    
  19000000   297.07279      3297.0331     -150.43657      2577.5846      2326.4586      2618.9533     -2783.4192      58.579528      1.0087619      51641.59     
  19020000   302.61698      3271.1923     -187.62137      2571.7533      2320.659       2612.6739     -2760.4998      65.038628      1.0117541      51488.863    
  19040000   292.75932      3309.5637     -157.36004      2578.9577      2336.3808      2623.5961     -2785.4262      63.615528      1.0117592      51488.602    
  19060000   302.90223      3348.4301     -127.09546      2584.815       2373.404       2613.2558     -2809.4581      64.043741      1.0171013      51218.168    
  19080000   303.02282      3245.0531     -133.00867      2563.5425      2285.4397      2626.346      -2809.7231      63.291472      1.0087319      51643.124    
  19100000   301.81782      3239.2907     -152.60788      2577.0387      2278.5429      2612.9643     -2783.498       57.805777      1.0045021      51860.586    
  19120000   299.68018      3257.5587     -157.85617      2567.4366      2369.1019      2621.7897     -2845.8283      53.105127      1.0106061      51547.349    
  19140000   294.22286      3243.876      -177.51896      2573.8692      2328.1701      2569.8445     -2758.3694      58.714396      1.0139407      51377.824    
  19160000   303.86136      3283.8228     -183.04165      2551.0752      2320.0933      2703.2572     -2818.8538      61.718816      1.0103614      51559.836    
  19180000   299.39314      3282.7645     -173.05906      2556.1753      2329.3714      2618.5388     -2754.9174      57.501153      1.0057366      51796.93     
  19200000   301.05963      3351.1878     -158.79328      2578.714       2291.6214      2681.9739     -2750.6371      58.480023      1.0157175      51287.952    
  19200091   300.10771      3334.3232     -219.05111      2581.4593      2348.9153      2680.6964     -2764.244       56.946662      1.0117254      51490.322    
Loop time of 3816.48 on 24 procs for 1200000 steps with 5032 atoms

Performance: 6.792 ns/day, 3.534 hours/ns, 314.426 timesteps/s, 1.582 Matom-step/s
99.5% CPU use with 24 MPI tasks x no OpenMP threads

MPI task timing breakdown:
Section |  min time  |  avg time  |  max time  |%varavg| %total
---------------------------------------------------------------
Pair    | 1971.1     | 2227.4     | 2422.8     | 255.2 | 58.36
Bond    | 544.29     | 629.13     | 737.97     | 171.3 | 16.48
Kspace  | 541.01     | 754.09     | 1069.7     | 504.4 | 19.76
Neigh   | 29.442     | 29.479     | 29.539     |   0.6 |  0.77
Comm    | 127.68     | 130.08     | 133.01     |  12.0 |  3.41
Output  | 0.0034079  | 0.0037116  | 0.010331   |   2.3 |  0.00
Modify  | 31.876     | 33.946     | 35.395     |  16.2 |  0.89
Other   |            | 12.38      |            |       |  0.32

Nlocal:        209.667 ave         227 max         189 min
Histogram: 1 2 2 2 1 4 6 2 2 2
Nghost:        4833.42 ave        4877 max        4801 min
Histogram: 4 2 4 3 2 2 2 1 1 3
Neighs:        74307.8 ave       84601 max       62949 min
Histogram: 1 1 3 2 3 5 3 2 2 2

Total # of neighbors = 1783387
Ave neighs/atom = 354.40918
Ave special neighs/atom = 5.8028617
Neighbor list builds = 10121
Dangerous builds = 0
unfix           fNPT
unfix           fMOM
next            a
jump            SELF loop
variable        a loop 26
variable        b equal 600-20*($a-1)
variable        b equal 600-20*(17-1)
fix             fMOM all momentum 100 linear 1 1 1 angular
fix             fNPT all npt temp $b $b $(100.0*dt) iso 1 1 $(100.0*dt)
fix             fNPT all npt temp 280 $b $(100.0*dt) iso 1 1 $(100.0*dt)
fix             fNPT all npt temp 280 280 $(100.0*dt) iso 1 1 $(100.0*dt)
fix             fNPT all npt temp 280 280 25 iso 1 1 $(100.0*dt)
fix             fNPT all npt temp 280 280 25 iso 1 1 25
run             1200000
PPPM initialization ...
  using 12-bit tables for long-range coulomb (../kspace.cpp:342)
  G vector (1/distance) = 0.11825276
  grid = 4 4 4
  stencil order = 5
  estimated absolute RMS force accuracy = 0.27831733
  estimated relative force accuracy = 0.00083814438
  using double precision KISS FFT
  3d grid and FFT values/proc = 294 4
Generated 21 of 21 mixed pair_coeff terms from sixthpower/sixthpower mixing rule
WARNING: Inconsistent image flags (../domain.cpp:815)
Per MPI rank memory allocation (min/avg/max) = 22.22 | 22.3 | 22.62 Mbytes
   Step          Temp          PotEng         E_vdwl         E_coul         E_bond        E_angle        E_dihed        E_impro        Density         Volume    
  19200091   300.10771      3334.3533     -219.05111      2582.0039      2348.9153      2680.6964     -2764.244       56.946662      1.0117254      51490.322    
  19220000   279.87966      2985.7864     -217.35561      2564.2483      2239.0524      2528.5442     -2837.7055      59.546757      1.0218967      50977.82     
  19240000   278.4285       2908.2922     -173.18122      2555.155       2206.1407      2481.5877     -2869.3746      58.960677      1.0201786      51063.672    
  19260000   283.03064      2941.4343     -220.57208      2565.4848      2174.175       2534.3397     -2819.7566      59.054418      1.0215312      50996.061    
  19280000   278.17751      2938.9307     -189.40728      2555.6777      2281.3016      2507.9822     -2922.3117      56.357711      1.0143906      51355.039    
  19300000   276.42201      2893.2318     -170.28161      2558.9454      2193.4521      2400.1976     -2798.4794      60.979399      1.0150156      51323.418    
  19320000   279.80634      2945.8164     -190.56613      2548.746       2186.6912      2544.8112     -2844.5478      52.17114       1.013809       51384.5      
  19340000   280.15726      2927.7647     -167.69058      2562.7967      2215.672       2478.5823     -2866.3733      55.888464      1.0239427      50875.958    
  19360000   278.21652      2997.9919     -201.25672      2573.6778      2210.0305      2561.8325     -2850.9356      55.870219      1.0250466      50821.171    
  19380000   274.84319      2930.3365     -228.93545      2579.2682      2236.8411      2496.9001     -2862.4345      59.527447      1.020032       51071.013    
  19400000   284.58602      2947.5914     -195.16341      2556.1026      2264.3752      2443.2588     -2822.7653      53.004585      1.0221993      50962.732    
  19420000   281.59598      2885.4557     -216.1135       2589.9738      2172.3259      2492.8552     -2853.0719      50.859441      1.0186334      51141.136    
  19440000   275.22202      2986.3407     -197.16957      2562.1392      2226.6739      2465.6122     -2780.8347      60.985687      1.0156178      51292.982    
  19460000   283.95275      2931.911      -202.01499      2568.7656      2199.3041      2482.0063     -2821.2691      56.386949      1.0187673      51134.412    
  19480000   280.14227      3076.5045     -209.83334      2590.1408      2265.2606      2537.7989     -2817.9184      61.582416      1.0141264      51368.417    
  19500000   280.95141      2926.9363     -195.54851      2567.7011      2210.87        2472.6532     -2835.7331      58.233411      1.0155163      51298.112    
  19520000   281.80539      2987.6337     -202.36069      2576.75        2168.0411      2535.1528     -2799.1351      60.016234      1.0268777      50730.548    
  19540000   285.38601      3008.4272     -211.43118      2556.7748      2264.6573      2521.9125     -2829.7606      57.118129      1.0169257      51227.016    
  19560000   275.33904      2999.7273     -219.20672      2575.1134      2309.1501      2459.7554     -2833.1356      59.067299      1.012731       51439.193    
  19580000   282.10734      3013.035      -176.77237      2584.0854      2201.0874      2506.8322     -2810.6729      59.566014      1.0218703      50979.136    
  19600000   283.36004      2811.1355     -246.39288      2568.1909      2145.1725      2469.3704     -2837.8646      63.019405      1.0244624      50850.15     
  19620000   282.77898      3009.9201     -209.04159      2583.3553      2221.0823      2554.1365     -2846.4244      58.021835      1.0236046      50892.763    
  19640000   281.67607      2814.8061     -275.61486      2572.0763      2226.5876      2411.3629     -2823.2096      54.985339      1.0183859      51153.561    
  19660000   275.35014      2941.5221     -162.19835      2554.8128      2221.9078      2524.9605     -2903.9869      56.988867      1.0158214      51282.703    
  19680000   279.90258      3035.5415     -165.8244       2564.9743      2256.264       2545.3154     -2873.098       58.679423      1.0178842      51178.777    
  19700000   279.55993      2931.0739     -198.25316      2585.803       2147.0448      2496.4125     -2805.1751      56.22699       1.0239377      50876.21     
  19720000   280.86586      2949.9828     -215.92325      2575.7279      2270.6629      2466.2293     -2861.1497      65.413112      1.0161157      51267.848    
  19740000   281.91856      2886.9931     -245.3966       2583.4903      2165.3255      2534.592      -2854.635       54.529511      1.0222143      50961.981    
  19760000   282.74901      2953.1376     -238.24199      2573.0856      2232.8217      2528.642      -2847.0941      55.07206       1.0290363      50624.131    
  19780000   280.97524      2929.7294     -184.90622      2578.8942      2224.2086      2459.668      -2855.2284      57.741162      1.0143908      51355.026    
  19800000   282.77199      2879.1042     -223.10688      2562.8824      2180.8397      2475.0752     -2824.63        59.169961      1.0220648      50969.438    
  19820000   282.6394       2885.5252     -252.14951      2558.1312      2195.3491      2483.9279     -2808.2312      59.413809      1.024739       50836.427    
  19840000   276.91916      2893.678      -225.2065       2564.8416      2202.6417      2508.8721     -2857.7951      51.614543      1.0201166      51066.779    
  19860000   271.56651      2927.5509     -230.89742      2576.5449      2160.2391      2566.097      -2841.7952      48.089798      1.0225951      50943.003    
  19880000   282.0416       2916.6232     -217.18131      2568.454       2213.1703      2424.5885     -2783.1885      61.045025      1.0173934      51203.467    
  19900000   278.55202      2990.3101     -229.19578      2601.8705      2252.8174      2474.8867     -2817.9691      58.863028      1.0189024      51127.633    
  19920000   279.76578      2809.6279     -211.98358      2559.9923      2170.2027      2413.1732     -2829.6857      59.349667      1.0291436      50618.854    
  19940000   283.20793      2936.0271     -252.10414      2567.5232      2240.5735      2530.1296     -2853.9573      55.032443      1.0267449      50737.108    
  19960000   278.3605       2959.2667     -137.23613      2578.1844      2186.5003      2473.4615     -2846.6802      55.858072      1.0272345      50712.927    
  19980000   281.75879      3027.9735     -227.26023      2574.7944      2232.9263      2563.6602     -2827.3095      62.195453      1.0193978      51102.788    
  20000000   281.85846      2906.9671     -196.15261      2572.2909      2202.8158      2453.9222     -2830.9948      55.834368      1.0267343      50737.634    
  20020000   281.87347      3006.8953     -186.1471       2573.0764      2257.564       2511.2625     -2851.8812      53.920997      1.0119932      51476.698    
  20040000   282.17305      2849.9171     -269.86601      2562.4202      2184.5926      2567.6239     -2896.547       52.438945      1.0262644      50760.866    
  20060000   289.41537      2893.5924     -229.26144      2580.7171      2179.1108      2453.5292     -2788.5953      49.111779      1.018834       51131.064    
  20080000   277.52597      2882.7861     -226.54985      2575.9944      2210.5857      2436.7774     -2818.4815      55.45433       1.0232443      50910.683    
  20100000   273.98867      2853.4576     -219.13134      2579.9778      2164.8416      2461.6124     -2835.6619      52.700961      1.0199687      51074.185    
  20120000   281.90576      2774.9018     -240.80834      2562.2472      2177.3137      2454.5199     -2878.5104      51.153913      1.022611       50942.213    
  20140000   278.99466      2897.4941     -200.69095      2572.2693      2190.5029      2485.7116     -2853.8965      54.65504       1.0223951      50952.97     
  20160000   275.99574      2939.404      -191.74624      2569.5151      2209.6533      2425.0694     -2778.3412      56.730955      1.0205548      51044.851    
  20180000   279.0406       3043.8611     -152.08838      2581.0589      2235.5009      2489.5956     -2822.3759      63.493029      1.0199848      51073.378    
  20200000   277.4284       2863.9559     -250.10811      2584.1808      2246.1629      2446.4349     -2860.2331      48.91443       1.0199304      51076.101    
  20220000   280.01713      3061.004      -220.57289      2575.2104      2236.8314      2588.5622     -2823.541       55.812906      1.0198987      51077.688    
  20240000   281.35011      2943.7876     -197.41867      2566.0048      2210.2294      2540.6453     -2880.5897      55.913523      1.0198743      51078.909    
  20260000   277.76132      2868.7118     -238.99194      2564.0005      2180.4549      2461.839      -2801.7485      54.289643      1.0140195      51373.831    
  20280000   277.26482      2890.3658     -255.70989      2577.8771      2158.0824      2500.0988     -2795.5423      56.750968      1.017652       51190.454    
  20300000   279.1798       2941.2223     -206.97314      2565.0288      2161.0412      2482.9279     -2768.4821      59.181044      1.0175171      51197.24     
  20320000   275.10511      2896.3598     -166.05517      2551.2728      2203.7794      2454.4189     -2851.2413      55.29721       1.0186168      51141.969    
  20340000   284.15586      2929.1041     -186.37805      2570.8123      2220.8447      2495.6372     -2877.2844      56.600886      1.021482       50998.517    
  20360000   280.67898      2945.6537     -225.15729      2572.061       2202.1927      2525.601      -2835.0738      57.271212      1.0263574      50756.263    
  20380000   274.79182      2866.9744     -203.54692      2554.0836      2194.6719      2465.0024     -2844.0534      52.41616       1.0180105      51172.427    
  20400000   283.82371      2879.4972     -207.88673      2557.3531      2212.4278      2455.4209     -2843.138       56.773404      1.0147634      51336.172    
  20400091   280.99058      2976.1476     -225.92458      2565.4358      2199.2832      2544.9789     -2816.9841      60.324725      1.0126488      51443.371    
Loop time of 3854.64 on 24 procs for 1200000 steps with 5032 atoms

Performance: 6.724 ns/day, 3.569 hours/ns, 311.313 timesteps/s, 1.567 Matom-step/s
99.5% CPU use with 24 MPI tasks x no OpenMP threads

MPI task timing breakdown:
Section |  min time  |  avg time  |  max time  |%varavg| %total
---------------------------------------------------------------
Pair    | 1989.1     | 2247.3     | 2476.9     | 269.5 | 58.30
Bond    | 520.85     | 628.62     | 712.13     | 170.1 | 16.31
Kspace  | 508.32     | 773.96     | 1140.7     | 523.1 | 20.08
Neigh   | 28.186     | 28.215     | 28.241     |   0.3 |  0.73
Comm    | 128.15     | 130.2      | 133.06     |  11.7 |  3.38
Output  | 0.0037163  | 0.0042813  | 0.016886   |   4.0 |  0.00
Modify  | 31.673     | 33.94      | 35.337     |  16.6 |  0.88
Other   |            | 12.41      |            |       |  0.32

Nlocal:        209.667 ave         226 max         200 min
Histogram: 4 6 2 2 1 3 2 2 1 1
Nghost:        4821.92 ave        4852 max        4794 min
Histogram: 2 2 2 3 3 5 3 2 0 2
Neighs:        74148.2 ave       81319 max       66313 min
Histogram: 3 2 1 3 2 0 8 1 1 3

Total # of neighbors = 1779557
Ave neighs/atom = 353.64805
Ave special neighs/atom = 5.8028617
Neighbor list builds = 9649
Dangerous builds = 0
unfix           fNPT
unfix           fMOM
next            a
jump            SELF loop
variable        a loop 26
variable        b equal 600-20*($a-1)
variable        b equal 600-20*(18-1)
fix             fMOM all momentum 100 linear 1 1 1 angular
fix             fNPT all npt temp $b $b $(100.0*dt) iso 1 1 $(100.0*dt)
fix             fNPT all npt temp 260 $b $(100.0*dt) iso 1 1 $(100.0*dt)
fix             fNPT all npt temp 260 260 $(100.0*dt) iso 1 1 $(100.0*dt)
fix             fNPT all npt temp 260 260 25 iso 1 1 $(100.0*dt)
fix             fNPT all npt temp 260 260 25 iso 1 1 25
run             1200000
PPPM initialization ...
  using 12-bit tables for long-range coulomb (../kspace.cpp:342)
  G vector (1/distance) = 0.11827864
  grid = 4 4 4
  stencil order = 5
  estimated absolute RMS force accuracy = 0.27827387
  estimated relative force accuracy = 0.00083801351
  using double precision KISS FFT
  3d grid and FFT values/proc = 294 4
Generated 21 of 21 mixed pair_coeff terms from sixthpower/sixthpower mixing rule
WARNING: Inconsistent image flags (../domain.cpp:815)
Per MPI rank memory allocation (min/avg/max) = 22.22 | 22.3 | 22.62 Mbytes
   Step          Temp          PotEng         E_vdwl         E_coul         E_bond        E_angle        E_dihed        E_impro        Density         Volume    
  20400091   280.99058      2976.1755     -225.92458      2565.7588      2199.2832      2544.9789     -2816.9841      60.324725      1.0126488      51443.371    
  20420000   261.51097      2700.3055     -259.15514      2553.3211      2187.1514      2379.844      -2863.8376      54.566008      1.0256298      50792.271    
  20440000   259.04527      2623.068      -257.13255      2558.7205      2060.3522      2391.1804     -2833.1409      54.651457      1.0321126      50473.242    
  20460000   257.4771       2607.9048     -242.05187      2552.1497      2133.2891      2322.4788     -2859.518       53.573085      1.0245469      50845.955    
  20480000   261.53297      2655.499      -187.74169      2547.3683      2151.0881      2398.4012     -2958.3015      56.791674      1.0189468      51125.406    
  20500000   262.14935      2559.5105     -247.64074      2560.4671      2059.6526      2364.5744     -2882.3396      56.638008      1.0322516      50466.446    
  20520000   257.75226      2650.372      -245.5207       2561.6146      2108.2391      2434.3338     -2909.9452      53.691531      1.0260079      50773.554    
  20540000   258.35733      2614.3541     -236.05484      2563.6655      2133.8384      2398.9202     -2945.5217      51.46601       1.0257326      50787.181    
  20560000   257.08565      2569.1916     -248.18525      2558.6346      2083.0873      2375.0177     -2899.0405      51.368962      1.0261127      50768.369    
  20580000   262.58948      2594.0568     -275.31711      2560.0801      2104.9884      2372.6408     -2869.6127      53.022505      1.0310188      50526.787    
  20600000   261.27459      2616.4211     -239.21766      2551.3985      2104.8887      2382.0297     -2881.4383      50.249474      1.0239705      50874.58     
  20620000   258.85843      2665.7959     -254.96807      2572.5602      2068.4757      2378.3081     -2798.9949      52.133449      1.0209396      51025.613    
  20640000   263.63969      2583.1559     -292.36622      2586.7231      2086.683       2392.2535     -2887.2858      48.908312      1.0331133      50424.35     
  20660000   257.91191      2640.8746     -219.71068      2557.5694      2076.4627      2404.731      -2874.5673      48.388479      1.0204054      51052.322    
  20680000   263.80159      2673.9683     -271.90789      2560.8201      2170.1606      2404.7055     -2886.6917      48.400808      1.0308231      50536.379    
  20700000   260.12841      2576.114      -266.62039      2552.2554      2090.7163      2375.8584     -2880.9843      56.676305      1.0321674      50470.559    
  20720000   261.08352      2667.4593     -232.89417      2552.9465      2187.7025      2380.3095     -2920.7336      51.472799      1.0290517      50623.374    
  20740000   262.04551      2642.8366     -231.55864      2559.4698      2135.121       2408.9051     -2931.7572      54.431239      1.0251592      50815.588    
  20760000   257.32692      2614.7048     -215.0561       2555.6302      2086.4861      2345.9813     -2860.4678      54.121635      1.0338186      50389.951    
  20780000   259.9547       2619.0839     -245.93763      2559.1405      2077.7018      2417.7352     -2891.3225      53.508892      1.027165       50716.358    
  20800000   263.27203      2588.3175     -225.43945      2558.5545      2084.5161      2367.8776     -2900.2827      54.996209      1.0293828      50607.091    
  20820000   253.91148      2628.8044     -228.95025      2551.4925      2083.7239      2360.6937     -2840.5492      54.124925      1.0275375      50697.97     
  20840000   261.61781      2601.6716     -227.38166      2566.8137      2098.0428      2373.8444     -2914.2599      56.566992      1.0235977      50893.108    
  20860000   264.34107      2627.0175     -227.125        2558.6107      2122.2435      2354.395      -2883.3433      54.030275      1.0314625      50505.054    
  20880000   260.11289      2705.3547     -231.16881      2566.138       2104.526       2406.4527     -2844.2176      55.451375      1.0297275      50590.151    
  20900000   261.54436      2634.2646     -220.32538      2551.3859      2116.0203      2371.2674     -2883.1505      51.019721      1.0199145      51076.894    
  20920000   266.10712      2625.6582     -267.62411      2559.2999      2117.2227      2359.2954     -2845.6887      55.030538      1.0200863      51068.292    
  20940000   255.09858      2643.6685     -225.33033      2565.4008      2155.6108      2349.5602     -2905.6875      55.722658      1.0128038      51435.497    
  20960000   253.20916      2577.4636     -291.16453      2551.2926      2102.8022      2400.0703     -2881.9704      48.36735       1.0231411      50915.819    
  20980000   259.64768      2602.5366     -264.19902      2561.0967      2101.9276      2393.6661     -2888.5001      50.569443      1.027924       50678.907    
  21000000   256.17443      2541.3967     -298.63308      2564.4037      2115.9435      2326.3163     -2864.3242      49.615606      1.0245853      50844.053    
  21020000   258.85097      2579.8705     -300.27599      2534.0118      2115.113       2404.2523     -2875.7578      54.502483      1.0264754      50750.43     
  21040000   256.06319      2581.2666     -224.84226      2554.7674      2117.5135      2299.1527     -2866.1093      52.581428      1.0208522      51029.98     
  21060000   256.34745      2656.0382     -256.53093      2563.6489      2172.7371      2361.4534     -2888.9145      55.133352      1.0243893      50853.78     
  21080000   259.46109      2581.6002     -226.17783      2557.0021      2084.2315      2325.0398     -2862.6046      56.073761      1.0250189      50822.543    
  21100000   258.61702      2616.499      -272.68075      2564.2337      2135.4689      2377.4351     -2883.9633      48.006147      1.0276563      50692.112    
  21120000   258.49543      2621.2712     -226.40852      2553.2761      2158.5329      2348.8775     -2907.63        46.406245      1.0207996      51032.609    
  21140000   259.71584      2685.4719     -221.72394      2569.956       2163.3491      2348.5726     -2874.9809      51.930741      1.0257634      50785.657    
  21160000   259.66605      2685.5635     -267.74572      2565.1843      2172.2388      2396.3426     -2887.7666      59.212892      1.0207806      51033.56     
  21180000   258.36955      2661.0602     -242.42951      2553.6561      2099.5506      2415.8995     -2863.2917      49.814954      1.0265956      50744.485    
  21200000   258.31936      2617.7347     -209.04399      2541.8396      2108.366       2374.7647     -2894.518       48.081359      1.0205973      51042.726    
  21220000   260.92208      2583.6904     -219.9522       2562.9609      2047.1001      2393.0812     -2901.5528      53.85143       1.0225573      50944.891    
  21240000   257.0512       2613.5804     -278.38323      2563.9553      2099.0986      2401.0434     -2873.0328      52.482926      1.030175       50568.175    
  21260000   266.29694      2624.0709     -282.02618      2543.4685      2148.0421      2381.132      -2867.7979      52.535966      1.0286337      50643.942    
  21280000   256.10392      2607.9358     -213.07096      2548.9401      2125.0363      2332.2777     -2892.6671      59.163261      1.0287417      50638.627    
  21300000   258.75701      2602.3616     -262.23981      2546.4187      2105.9931      2412.0371     -2903.0443      55.137031      1.0257891      50784.383    
  21320000   262.4096       2598.5774     -311.95463      2551.3811      2152.1824      2436.0692     -2932.7824      55.503731      1.0278757      50681.289    
  21340000   263.84463      2559.4097     -257.37179      2560.1578      2103.2363      2361.009      -2912.0945      56.22198       1.0253511      50806.077    
  21360000   261.3011       2507.2859     -252.98899      2542.607       2044.243       2374.098      -2899.8509      50.951948      1.0342989      50366.548    
  21380000   258.87044      2568.3913     -273.10668      2555.3482      2107.7792      2353.8582     -2870.5706      46.986989      1.0280592      50672.244    
  21400000   261.53037      2649.1015     -227.32849      2551.2703      2140.6395      2396.0281     -2911.8497      51.687474      1.0289566      50628.05     
  21420000   264.95822      2624.9801     -233.89964      2562.3783      2097.2144      2369.7435     -2870.7998      52.252911      1.0370033      50235.199    
  21440000   256.30087      2629.1679     -218.55909      2542.5227      2089.5757      2355.8683     -2839.5123      51.299202      1.0240906      50868.613    
  21460000   260.00364      2554.2711     -236.82077      2557.3563      2098.3292      2320.8156     -2883.9635      50.294738      1.0281003      50670.221    
  21480000   262.39945      2618.5674     -243.49733      2565.1455      2098.6104      2354.936      -2858.3964      53.548382      1.022077       50968.83     
  21500000   258.31775      2575.0703     -263.58548      2581.8214      2087.4252      2355.5444     -2889.2288      54.768762      1.0257311      50787.254    
  21520000   263.53609      2601.5515     -296.24316      2564.1766      2087.5433      2386.0673     -2843.9978      55.973221      1.0341039      50376.047    
  21540000   258.16896      2637.0985     -265.17389      2569.2226      2121.9391      2341.3359     -2830.7203      52.426318      1.0233515      50905.352    
  21560000   259.46999      2557.2455     -260.48492      2548.1368      2030.2189      2351.6625     -2816.2742      55.47927       1.0221805      50963.665    
  21580000   260.39153      2540.6811     -251.5455       2551.1562      2116.1696      2378.2299     -2947.9183      46.503822      1.0251534      50815.873    
  21600000   257.10474      2622.5531     -234.93419      2568.0528      2034.493       2366.8304     -2820.2375      60.286971      1.0260644      50770.757    
  21600091   260.95009      2572.5207     -280.31319      2574.4486      2168.6406      2360.527      -2956.9923      58.040186      1.0228239      50931.609    
Loop time of 3866.1 on 24 procs for 1200000 steps with 5032 atoms

Performance: 6.704 ns/day, 3.580 hours/ns, 310.391 timesteps/s, 1.562 Matom-step/s
99.5% CPU use with 24 MPI tasks x no OpenMP threads

MPI task timing breakdown:
Section |  min time  |  avg time  |  max time  |%varavg| %total
---------------------------------------------------------------
Pair    | 2023.7     | 2266.7     | 2491       | 267.3 | 58.63
Bond    | 528.27     | 628.01     | 702.6      | 152.1 | 16.24
Kspace  | 509.18     | 767.8      | 1111.2     | 514.7 | 19.86
Neigh   | 26.814     | 26.854     | 26.887     |   0.4 |  0.69
Comm    | 128.22     | 130.45     | 133.6      |  12.3 |  3.37
Output  | 0.016404   | 0.016839   | 0.026507   |   1.6 |  0.00
Modify  | 31.352     | 33.717     | 35.291     |  16.9 |  0.87
Other   |            | 12.54      |            |       |  0.32

Nlocal:        209.667 ave         229 max         190 min
Histogram: 1 1 1 7 3 1 6 1 1 2
Nghost:         4896.5 ave        4969 max        4824 min
Histogram: 2 3 0 3 3 4 3 4 0 2
Neighs:        75184.4 ave       83526 max       63657 min
Histogram: 1 1 0 3 4 1 6 5 1 2

Total # of neighbors = 1804426
Ave neighs/atom = 358.59022
Ave special neighs/atom = 5.8028617
Neighbor list builds = 9174
Dangerous builds = 0
unfix           fNPT
unfix           fMOM
next            a
jump            SELF loop
variable        a loop 26
variable        b equal 600-20*($a-1)
variable        b equal 600-20*(19-1)
fix             fMOM all momentum 100 linear 1 1 1 angular
fix             fNPT all npt temp $b $b $(100.0*dt) iso 1 1 $(100.0*dt)
fix             fNPT all npt temp 240 $b $(100.0*dt) iso 1 1 $(100.0*dt)
fix             fNPT all npt temp 240 240 $(100.0*dt) iso 1 1 $(100.0*dt)
fix             fNPT all npt temp 240 240 25 iso 1 1 $(100.0*dt)
fix             fNPT all npt temp 240 240 25 iso 1 1 25
run             1200000
PPPM initialization ...
  using 12-bit tables for long-range coulomb (../kspace.cpp:342)
  G vector (1/distance) = 0.11856253
  grid = 4 4 4
  stencil order = 5
  estimated absolute RMS force accuracy = 0.27779438
  estimated relative force accuracy = 0.00083656952
  using double precision KISS FFT
  3d grid and FFT values/proc = 294 4
Generated 21 of 21 mixed pair_coeff terms from sixthpower/sixthpower mixing rule
WARNING: Inconsistent image flags (../domain.cpp:815)
Per MPI rank memory allocation (min/avg/max) = 22.22 | 22.3 | 22.62 Mbytes
   Step          Temp          PotEng         E_vdwl         E_coul         E_bond        E_angle        E_dihed        E_impro        Density         Volume    
  21600091   260.95009      2572.7414     -280.31319      2577.9086      2168.6406      2360.527      -2956.9923      58.040186      1.0228239      50931.609    
  21620000   245.98969      2276.0737     -277.94028      2557.3549      2018.5136      2241.2377     -2955.3769      47.552886      1.0271992      50714.667    
  21640000   239.94199      2251.0543     -307.25964      2549.9847      1948.4515      2243.0051     -2881.2306      53.036758      1.0220602      50969.665    
  21660000   237.21261      2291.6611     -288.41905      2569.2478      1927.8145      2253.1345     -2859.1687      43.917186      1.0309586      50529.736    
  21680000   240.18747      2286.2727     -289.02476      2564.6824      2020.201       2215.4578     -2918.8539      48.945825      1.0320457      50476.511    
  21700000   244.5724       2341.1991     -299.61319      2563.7604      1964.9811      2326.1136     -2905.3094      46.138744      1.0245392      50846.339    
  21720000   240.30333      2250.9163     -292.09295      2553.0833      1987.8165      2187.6943     -2875.2306      44.320222      1.0323383      50462.207    
  21740000   240.02155      2309.0941     -286.84354      2575.1487      1990.3302      2243.4569     -2908.4053      50.172282      1.0296675      50593.097    
  21760000   238.29745      2314.9527     -307.79122      2555.3766      1954.9447      2306.3614     -2895.4329      57.055844      1.0288055      50635.486    
  21780000   240.01268      2276.5913     -299.35468      2559.0477      1958.8943      2231.3588     -2870.071       51.714049      1.0332967      50415.402    
  21800000   235.49141      2343.6927     -270.85247      2569.0617      2030.2322      2270.7749     -2947.6913      46.816455      1.0272184      50713.723    
  21820000   234.6121       2320.5699     -296.28703      2578.2458      2005.3458      2280.4696     -2933.7278      41.051905      1.0276991      50689.998    
  21840000   243.97732      2327.4051     -273.86561      2573.0837      2000.6525      2232.0354     -2893.6198      44.107876      1.0312189      50516.981    
  21860000   240.59345      2291.6148     -294.42737      2575.6559      2043.7639      2228.2834     -2949.2244      42.395163      1.0291665      50617.728    
  21880000   239.9322       2312.2363     -348.8328       2576.0864      2007.1392      2306.8929     -2924.7382      50.895252      1.0325119      50453.721    
  21900000   239.81429      2275.7851     -300.61645      2550.4458      1989.1353      2288.0578     -2945.4509      49.116785      1.0251752      50814.796    
  21920000   240.09016      2243.7597     -308.28646      2557.7529      2011.2059      2251.8267     -2957.3439      43.968133      1.0366576      50251.951    
  21940000   236.1459       2375.0867     -290.49391      2567.6499      2052.1418      2264.508      -2912.6938      48.912273      1.0330427      50427.799    
  21960000   240.29489      2335.6        -276.40063      2555.7793      2030.7992      2245.3327     -2913.264       48.498877      1.0280478      50672.806    
  21980000   239.27633      2344.1742     -323.06403      2569.6692      2041.1106      2255.0005     -2895.1011      51.780822      1.0304841      50553.003    
  22000000   239.23032      2261.698      -330.7666       2534.4947      1960.2236      2283.2274     -2876.8958      46.730579      1.0334174      50409.514    
  22020000   235.82606      2280.0364     -318.97088      2551.4345      2030.3609      2211.7195     -2886.7011      47.663121      1.0363653      50266.124    
  22040000   243.55986      2228.203      -334.9227       2558.1719      1987.5994      2267.0402     -2945.5621      51.202116      1.0385109      50162.273    
  22060000   244.05575      2239.8724     -302.3975       2544.2782      1976.3805      2272.6877     -2944.4005      48.772097      1.0403047      50075.778    
  22080000   238.71933      2268.2039     -319.98649      2555.7529      1971.0193      2264.8425     -2895.7113      47.383457      1.0360091      50283.408    
  22100000   244.89409      2292.7267     -296.20247      2571.4471      1947.3463      2305.0716     -2926.3522      46.426907      1.0382194      50176.359    
  22120000   240.30259      2254.7352     -310.77323      2562.4752      1985.947       2200.2933     -2875.5048      47.532168      1.032683       50445.361    
  22140000   237.03025      2293.7608     -288.29102      2556.0636      1986.8412      2248.36       -2900.5357      46.559701      1.025914       50778.2      
  22160000   243.6505       2261.2049     -292.38887      2553.1946      1963.594       2280.6246     -2937.247       48.239846      1.0357277      50297.069    
  22180000   236.57206      2260.6448     -297.08513      2562.6529      2010.6447      2193.4425     -2905.2417      50.936169      1.0260585      50771.048    
  22200000   242.31524      2323.6427     -266.5055       2569.0692      1996.6188      2248.2145     -2913.1006      44.258324      1.0265106      50748.687    
  22220000   240.54447      2247.3739     -294.99293      2547.9475      1982.586       2239.4396     -2923.0832      50.605748      1.0423953      49975.347    
  22240000   240.05778      2241.5471     -342.32204      2552.4345      1926.8724      2286.1025     -2880.0328      53.357352      1.0406689      50058.256    
  22260000   239.09714      2265.8583     -313.54298      2560.6721      1958.2014      2280.711      -2912.5567      47.376737      1.0355992      50303.312    
  22280000   239.18889      2307.069      -283.60864      2552.3757      1979.5835      2244.1188     -2882.7515      52.609733      1.0310319      50526.143    
  22300000   238.93239      2230.5415     -290.90045      2553.8236      1949.9487      2285.0173     -2962.2087      49.625176      1.0359725      50285.184    
  22320000   241.56773      2279.4366     -286.98942      2548.9707      1958.5786      2316.797      -2945.3266      42.377859      1.0342232      50370.236    
  22340000   239.83513      2297.5519     -263.14694      2565.8135      1986.8447      2253.3396     -2937.8061      47.415299      1.034764       50343.91     
  22360000   241.41152      2356.7829     -310.80182      2563.499       2025.7549      2266.1646     -2882.6632      49.745663      1.028612       50645.01     
  22380000   241.99985      2340.5944     -296.28553      2570.7655      2038.1318      2277.3967     -2939.1207      44.774697      1.0363915      50264.854    
  22400000   238.58198      2294.9422     -318.77599      2550.9599      2011.251       2285.2434     -2928.2553      49.313358      1.0399787      50091.473    
  22420000   241.33461      2348.0083     -316.52738      2558.2628      2026.07        2305.1183     -2920.3363      50.539277      1.0258013      50783.779    
  22440000   238.39902      2243.7969     -303.25962      2566.022       1902.3048      2269.0151     -2878.1366      43.193754      1.0261007      50768.963    
  22460000   239.32797      2347.8172     -305.48962      2553.9179      2038.8914      2284.5752     -2920.2878      51.38954       1.0333912      50410.792    
  22480000   237.58582      2298.5481     -276.3172       2576.3487      1974.9763      2223.2851     -2898.7592      53.683951      1.0262405      50762.047    
  22500000   246.16023      2318.2562     -281.504        2560.2267      2004.9293      2255.7447     -2914.4317      48.053161      1.0243639      50855.038    
  22520000   242.15326      2282.2445     -293.01776      2541.0468      1964.2677      2294.4028     -2918.9002      49.216429      1.03598        50284.821    
  22540000   243.73         2330.029      -316.39703      2563.0496      1995.7942      2282.4253     -2890.7059      51.008268      1.0352615      50319.717    
  22560000   241.06981      2186.4663     -304.73252      2550.159       1972.9231      2239.2952     -2962.9363      46.697687      1.031457       50505.322    
  22580000   238.79323      2288.1346     -287.43476      2567.4636      1991.829       2205.5541     -2886.4965      52.677492      1.0322635      50465.863    
  22600000   234.5959       2279.0988     -307.356        2554.2937      1993.0118      2266.2488     -2925.1225      53.019719      1.0265071      50748.864    
  22620000   238.97277      2321.414      -308.45025      2553.6916      1978.4413      2259.3644     -2856.7408      50.085002      1.0285733      50646.919    
  22640000   240.08768      2264.5303     -312.47989      2575.0574      1984.4325      2229.1908     -2901.5492      44.976151      1.0284022      50655.346    
  22660000   237.20928      2301.4331     -236.56598      2548.5412      1933.662       2276.3382     -2911.3481      45.891272      1.0262004      50764.028    
  22680000   241.78827      2304.1376     -319.88229      2563.4653      1994.5304      2274.3933     -2900.1511      46.914983      1.0334698      50406.959    
  22700000   237.32013      2265.4681     -341.74449      2538.4835      1992.6569      2274.9971     -2895.6682      51.787526      1.0339662      50382.758    
  22720000   238.95864      2286.1483     -242.1059       2568.4929      1978.7122      2234.1151     -2947.8844      50.126885      1.0272132      50713.978    
  22740000   242.66333      2242.7561     -296.58592      2543.7551      1955.6707      2239.4387     -2888.2866      43.889968      1.028493       50650.874    
  22760000   240.83867      2334.4626     -313.46977      2564.6194      2037.6489      2283.395      -2931.8586      49.172873      1.0317636      50490.315    
  22780000   240.74806      2297.5684     -249.53089      2555.6967      1971.5091      2238.1297     -2912.9497      50.035756      1.0300232      50575.624    
  22800000   234.3637       2335.6302     -295.28645      2575.6196      2040.7472      2235.0959     -2916.0099      50.594216      1.0320698      50475.333    
  22800091   239.15739      2264.5173     -292.11432      2579.3988      2010.5041      2209.1208     -2937.2313      49.876163      1.035956       50285.985    
Loop time of 3865.93 on 24 procs for 1200000 steps with 5032 atoms

Performance: 6.705 ns/day, 3.580 hours/ns, 310.404 timesteps/s, 1.562 Matom-step/s
99.5% CPU use with 24 MPI tasks x no OpenMP threads

MPI task timing breakdown:
Section |  min time  |  avg time  |  max time  |%varavg| %total
---------------------------------------------------------------
Pair    | 2027.6     | 2278       | 2521.8     | 269.9 | 58.92
Bond    | 543.03     | 627.15     | 709.29     | 153.7 | 16.22
Kspace  | 501.35     | 758.61     | 1065       | 521.1 | 19.62
Neigh   | 24.935     | 24.959     | 24.983     |   0.3 |  0.65
Comm    | 128.7      | 130.99     | 134.43     |  12.7 |  3.39
Output  | 0.0069715  | 0.0074766  | 0.018752   |   2.7 |  0.00
Modify  | 31.404     | 33.826     | 35.399     |  17.7 |  0.87
Other   |            | 12.41      |            |       |  0.32

Nlocal:        209.667 ave         225 max         198 min
Histogram: 1 5 6 0 3 3 2 1 1 2
Nghost:        4912.29 ave        4957 max        4866 min
Histogram: 2 1 2 5 3 2 3 1 2 3
Neighs:        75668.6 ave       87711 max       68646 min
Histogram: 3 3 3 4 5 3 2 0 0 1

Total # of neighbors = 1816047
Ave neighs/atom = 360.89964
Ave special neighs/atom = 5.8028617
Neighbor list builds = 8597
Dangerous builds = 0
unfix           fNPT
unfix           fMOM
next            a
jump            SELF loop
variable        a loop 26
variable        b equal 600-20*($a-1)
variable        b equal 600-20*(20-1)
fix             fMOM all momentum 100 linear 1 1 1 angular
fix             fNPT all npt temp $b $b $(100.0*dt) iso 1 1 $(100.0*dt)
fix             fNPT all npt temp 220 $b $(100.0*dt) iso 1 1 $(100.0*dt)
fix             fNPT all npt temp 220 220 $(100.0*dt) iso 1 1 $(100.0*dt)
fix             fNPT all npt temp 220 220 25 iso 1 1 $(100.0*dt)
fix             fNPT all npt temp 220 220 25 iso 1 1 25
run             1200000
PPPM initialization ...
  using 12-bit tables for long-range coulomb (../kspace.cpp:342)
  G vector (1/distance) = 0.11892527
  grid = 4 4 4
  stencil order = 5
  estimated absolute RMS force accuracy = 0.27717394
  estimated relative force accuracy = 0.0008347011
  using double precision KISS FFT
  3d grid and FFT values/proc = 294 4
Generated 21 of 21 mixed pair_coeff terms from sixthpower/sixthpower mixing rule
WARNING: Inconsistent image flags (../domain.cpp:815)
Per MPI rank memory allocation (min/avg/max) = 22.22 | 22.3 | 22.62 Mbytes
   Step          Temp          PotEng         E_vdwl         E_coul         E_bond        E_angle        E_dihed        E_impro        Density         Volume    
  22800091   239.15739      2264.7284     -292.11432      2583.749       2010.5041      2209.1208     -2937.2313      49.876163      1.035956       50285.985    
  22820000   224.34361      1929.3914     -307.89092      2587.0216      1900.2879      2055.4934     -2990.5511      44.113842      1.0361958      50274.347    
  22840000   221.95136      1985.1552     -298.00105      2553.6548      1906.3004      2111.9583     -2974.6627      45.287341      1.0360234      50282.715    
  22860000   219.63395      1983.4629     -293.74544      2569.6119      1890.9773      2135.9075     -3006.9982      46.803301      1.030288       50562.627    
  22880000   217.54171      2005.3418     -341.72836      2542.76        1861.2634      2218.7999     -2964.2307      47.685096      1.0329603      50431.819    
  22900000   223.57495      2012.5885     -296.549        2560.9708      1823.3174      2142.5905     -2911.408       53.061021      1.0355389      50306.239    
  22920000   221.23551      1985.5337     -316.3006       2561.278       1848.7481      2161.6135     -2950.9417      40.209592      1.0404913      50066.799    
  22940000   221.33105      1996.6282     -297.75081      2561.5527      1902.4678      2144.9064     -3000.2238      44.724623      1.0407517      50054.273    
  22960000   218.97604      1998.8073     -322.07071      2542.1299      1882.0552      2189.0503     -2974.5346      41.528357      1.0411286      50036.153    
  22980000   221.45401      2023.2874     -300.09015      2581.7366      1846.0808      2132.6614     -2924.1239      46.378201      1.0406616      50058.607    
  23000000   215.80264      2042.4012     -329.29894      2566.0429      1899.9126      2124.4158     -2905.4209      45.949194      1.0387834      50149.117    
  23020000   219.52729      1950.1571     -303.84324      2553.3284      1896.7623      2140.4679     -3021.3333      44.005569      1.030646       50545.061    
  23040000   222.95353      1975.9523     -360.9607       2566.8607      1905.5104      2130.9814     -2956.4942      49.27006       1.042752       49958.252    
  23060000   219.21077      1997.3366     -344.01367      2571.9025      1938.5405      2142.3527     -2998.2288      46.040403      1.0354314      50311.464    
  23080000   219.48417      2007.174      -333.17866      2551.2005      1916.9063      2133.7008     -2951.4376      49.392155      1.0385676      50159.533    
  23100000   219.42042      2022.6763     -316.54883      2570.6371      1828.5134      2162.4359     -2909.8845      46.819475      1.0434085      49926.818    
  23120000   223.4546       1959.2048     -325.75802      2562.7736      1887.2788      2127.1547     -2973.0245      40.375698      1.0353434      50315.738    
  23140000   224.03728      2045.2852     -329.92394      2544.5174      1899.794       2145.4526     -2900.4902      45.108029      1.0382255      50176.064    
  23160000   219.14265      1919.3545     -362.48761      2551.15        1853.2382      2123.2753     -2933.5164      46.620669      1.0372618      50222.68     
  23180000   218.10998      1947.3397     -357.63213      2554.1236      1866.231       2167.3544     -2970.0341      46.609158      1.0343061      50366.198    
  23200000   222.97709      1940.5291     -316.6271       2562.6894      1863.2276      2146.6265     -2999.8283      43.776357      1.0387232      50152.021    
  23220000   218.63523      1981.7455     -337.04376      2564.881       1897.7353      2136.1492     -2966.3485      45.761252      1.0276066      50694.564    
  23240000   224.77378      2019.4728     -342.38612      2560.0238      1894.469       2159.2149     -2934.3046      41.72802       1.0373388      50218.951    
  23260000   222.21252      1967.7617     -324.68065      2574.482       1869.0706      2112.421      -2948.7921      44.390309      1.0254385      50801.748    
  23280000   220.0234       1992.4544     -323.13062      2568.4175      1835.9099      2154.141      -2929.1814      45.556646      1.0447113      49864.558    
  23300000   213.16087      1972.088      -341.30429      2556.1257      1929.9545      2160.5618     -3018.8262      44.946972      1.0429088      49950.741    
  23320000   217.78379      1995.08       -336.59226      2561.9557      1907.3882      2177.0398     -3003.8745      48.574526      1.0413478      50025.619    
  23340000   221.07648      1980.9604     -312.95322      2542.7356      1937.607       2124.5965     -2997.0609      45.495306      1.0351908      50323.155    
  23360000   220.32471      1959.6026     -307.17646      2569.352       1813.9127      2143.2395     -2941.8205      41.659294      1.0304376      50555.286    
  23380000   215.74454      2006.1183     -291.30586      2561.4837      1844.3082      2173.0977     -2967.4729      45.27846       1.0339856      50381.813    
  23400000   220.30103      1942.0795     -281.76039      2554.6913      1854.7126      2128.997      -2999.232       44.240758      1.0410737      50038.792    
  23420000   221.37854      1943.0548     -343.5388       2576.0487      1863.4709      2123.4188     -2962.5308      45.333559      1.0385028      50162.664    
  23440000   220.30357      2018.0078     -354.22866      2571.0073      1896.5332      2145.7249     -2926.9827      45.408697      1.0409863      50042.99     
  23460000   221.74516      2006.4626     -381.17665      2563.8784      1955.2774      2163.8518     -2982.8995      46.886282      1.0383652      50169.311    
  23480000   222.36662      1934.0278     -368.2254       2573.6603      1824.1511      2174.5668     -2959.3385      48.237588      1.0394956      50114.755    
  23500000   216.40806      1950.7749     -352.06834      2558.8437      1823.6597      2173.612      -2937.618       43.501113      1.0384881      50163.375    
  23520000   222.05206      2047.1314     -325.98328      2547.3109      1910.486       2164.9114     -2944.2381      54.157185      1.050917       49570.105    
  23540000   225.06271      1972.5839     -336.68989      2565.4415      1791.9831      2132.2439     -2863.6812      42.418769      1.0354166      50312.183    
  23560000   220.12586      1994.2822     -309.88502      2562.1435      1891.0286      2167.9108     -3001.6285      43.653209      1.0408563      50049.238    
  23580000   220.91114      1990.2456     -356.52545      2564.3651      1878.7255      2129.8176     -2910.3743      43.446408      1.0389344      50141.827    
  23600000   218.7358       1915.103      -347.28504      2545.6623      1922.5367      2096.282      -2989.2664      46.24609       1.0361981      50274.235    
  23620000   220.23835      1943.5566     -350.73052      2555.1687      1890.0788      2160.5199     -2999.7883      47.343507      1.0382491      50174.921    
  23640000   217.35403      1946.5322     -361.56856      2563.4813      1848.3891      2172.5424     -2960.1998      43.293906      1.0408607      50049.031    
  23660000   221.3363       1961.1279     -284.74002      2553.5089      1851.3199      2124.7209     -2968.1622      43.817459      1.0398359      50098.353    
  23680000   217.44961      1853.0025     -331.04209      2551.7375      1865.5472      2078.7745     -2996.4264      43.433019      1.0362379      50272.305    
  23700000   217.59329      2001.471      -355.93446      2543.9548      1909.2863      2175.8203     -2953.2465      41.109462      1.0437454      49910.705    
  23720000   217.5542       1929.8691     -335.97538      2550.7668      1892.8303      2098.7149     -2962.0239      44.470957      1.0372267      50224.381    
  23740000   220.36798      1903.7279     -342.35533      2535.7899      1865.6654      2151.5817     -2988.875       41.18451       1.036663       50251.692    
  23760000   218.04442      2026.3736     -319.06249      2558.8579      1913.0662      2128.439      -2944.4464      48.885195      1.0378548      50193.983    
  23780000   221.61313      1932.4195     -349.97551      2567.3077      1907.3872      2066.3759     -2946.2988      46.771613      1.0405403      50064.438    
  23800000   218.67156      1964.8937     -308.43994      2555.4304      1873.9757      2127.9575     -2971.4963      46.929129      1.0355124      50307.528    
  23820000   223.09317      1931.1493     -339.88332      2554.9039      1883.2678      2115.2563     -2968.7308      45.614072      1.0410667      50039.125    
  23840000   218.78111      2067.2923     -301.05263      2539.8151      1938.678       2160.7289     -2960.5494      48.775405      1.0390916      50134.239    
  23860000   217.00313      2025.3877     -313.62346      2559.4895      1951.3946      2120.5585     -2976.5982      43.323269      1.0363931      50264.774    
  23880000   220.11448      1990.711      -347.88342      2567.5287      1852.2314      2201.4971     -2968.9075      45.41624       1.036641       50252.758    
  23900000   218.68799      1964.6049     -371.46061      2539.651       1873.9187      2164.1705     -2933.115       50.364377      1.0390148      50137.947    
  23920000   217.95149      1861.7647     -369.85222      2567.7909      1880.7258      2090.0609     -2987.2979      39.22211       1.0380584      50184.141    
  23940000   219.15488      1951.7233     -349.35299      2555.5122      1881.3111      2154.0721     -2976.5186      45.849361      1.0373854      50216.696    
  23960000   220.83435      1898.7645     -359.2719       2546.1057      1873.2714      2117.2525     -2963.7173      43.843281      1.0469428      49758.274    
  23980000   219.01969      1964.6993     -290.78189      2563.1778      1907.6414      2125.6609     -3026.4662      44.849805      1.0466879      49770.391    
  24000000   220.24335      1955.0182     -315.56599      2549.5538      1917.9125      2099.6451     -2986.1763      48.96102       1.0349589      50334.43     
  24000091   216.32518      1956.8801     -302.08117      2547.8429      1894.6855      2098.873      -2970.0737      46.753028      1.0371792      50226.68     
Loop time of 3873.51 on 24 procs for 1200000 steps with 5032 atoms

Performance: 6.692 ns/day, 3.587 hours/ns, 309.796 timesteps/s, 1.559 Matom-step/s
99.5% CPU use with 24 MPI tasks x no OpenMP threads

MPI task timing breakdown:
Section |  min time  |  avg time  |  max time  |%varavg| %total
---------------------------------------------------------------
Pair    | 2077.1     | 2289.7     | 2529.1     | 256.1 | 59.11
Bond    | 553.76     | 626.37     | 708.74     | 145.0 | 16.17
Kspace  | 495.72     | 756.27     | 1003.3     | 494.9 | 19.52
Neigh   | 23.522     | 23.557     | 23.58      |   0.3 |  0.61
Comm    | 129.28     | 131.26     | 134.31     |  12.4 |  3.39
Output  | 0.0034876  | 0.0039018  | 0.013088   |   3.1 |  0.00
Modify  | 31.545     | 33.897     | 35.641     |  17.3 |  0.88
Other   |            | 12.42      |            |       |  0.32

Nlocal:        209.667 ave         228 max         196 min
Histogram: 2 4 5 1 1 5 1 3 0 2
Nghost:        4912.67 ave        4971 max        4869 min
Histogram: 5 1 2 3 3 2 4 2 1 1
Neighs:        75827.2 ave       85395 max       67330 min
Histogram: 3 1 2 3 3 4 4 1 2 1

Total # of neighbors = 1819854
Ave neighs/atom = 361.6562
Ave special neighs/atom = 5.8028617
Neighbor list builds = 8047
Dangerous builds = 0
unfix           fNPT
unfix           fMOM
next            a
jump            SELF loop
variable        a loop 26
variable        b equal 600-20*($a-1)
variable        b equal 600-20*(21-1)
fix             fMOM all momentum 100 linear 1 1 1 angular
fix             fNPT all npt temp $b $b $(100.0*dt) iso 1 1 $(100.0*dt)
fix             fNPT all npt temp 200 $b $(100.0*dt) iso 1 1 $(100.0*dt)
fix             fNPT all npt temp 200 200 $(100.0*dt) iso 1 1 $(100.0*dt)
fix             fNPT all npt temp 200 200 25 iso 1 1 $(100.0*dt)
fix             fNPT all npt temp 200 200 25 iso 1 1 25
run             1200000
PPPM initialization ...
  using 12-bit tables for long-range coulomb (../kspace.cpp:342)
  G vector (1/distance) = 0.11895885
  grid = 4 4 4
  stencil order = 5
  estimated absolute RMS force accuracy = 0.27711607
  estimated relative force accuracy = 0.00083452681
  using double precision KISS FFT
  3d grid and FFT values/proc = 294 4
Generated 21 of 21 mixed pair_coeff terms from sixthpower/sixthpower mixing rule
WARNING: Inconsistent image flags (../domain.cpp:815)
Per MPI rank memory allocation (min/avg/max) = 22.22 | 22.3 | 22.62 Mbytes
   Step          Temp          PotEng         E_vdwl         E_coul         E_bond        E_angle        E_dihed        E_impro        Density         Volume    
  24000091   216.32518      1956.9209     -302.08117      2548.2669      1894.6855      2098.873      -2970.0737      46.753028      1.0371792      50226.68     
  24020000   201.70621      1669.5914     -360.31939      2571.1327      1760.7901      1992.3881     -2975.1635      40.449018      1.0431534      49939.03     
  24040000   201.46838      1652.6823     -390.44657      2547.6538      1788.4822      1994.5272     -2967.355       39.622887      1.0392248      50127.812    
  24060000   201.85216      1628.3778     -386.90404      2567.4798      1762.6184      2082.8446     -3078.4748      40.113651      1.0471414      49748.837    
  24080000   202.01117      1687.3851     -369.74326      2555.0064      1798.4947      2059.4493     -3035.3475      38.948976      1.0401682      50082.349    
  24100000   197.56808      1687.7753     -336.32983      2553.9985      1782.4992      1993.0525     -2987.5061      41.670465      1.0485995      49679.661    
  24120000   196.33093      1640.7413     -356.7921       2555.162       1756.6529      2035.547      -3032.2376      42.047101      1.04917        49652.647    
  24140000   201.92994      1605.0867     -382.692        2550.0924      1750.5398      2032.0397     -3025.3898      40.059313      1.0391177      50132.978    
  24160000   204.40284      1646.8618     -406.17279      2537.5562      1761.5646      2047.699      -2975.8308      42.013561      1.0460071      49802.788    
  24180000   198.12947      1672.3012     -374.2009       2577.823       1788.1875      2027.5222     -3025.6225      38.148223      1.0425661      49967.161    
  24200000   201.612        1695.0364     -377.6039       2536.7101      1763.4265      2050.2602     -2956.9572      38.850452      1.0511416      49559.513    
  24220000   196.73457      1651.5991     -361.44866      2549.2185      1783.304       2013.7442     -3011.068       37.685318      1.042583       49966.353    
  24240000   203.69786      1631.5663     -345.78663      2561.0623      1700.4318      2006.5307     -2973.7337      42.745095      1.0444157      49878.672    
  24260000   193.11623      1614.8493     -337.09267      2551.0622      1788.9297      1982.6715     -3046.5961      35.533114      1.0510018      49566.106    
  24280000   202.99244      1727.8546     -385.2592       2582.0063      1779.6694      2040.1136     -2970.9818      41.631735      1.0417807      50004.831    
  24300000   201.10927      1640.8671     -366.78107      2542.5104      1745.8969      1996.0948     -2960.5691      43.573153      1.0420755      49990.685    
  24320000   196.02107      1649.772      -366.00849      2540.3129      1754.8124      2048.2674     -3004.361       36.260076      1.0500646      49610.346    
  24340000   197.10155      1703.805      -390.61624      2567.4475      1785.707       2043.806      -2982.6892      39.701212      1.0386819      50154.017    
  24360000   198.72213      1665.1178     -342.70654      2543.1301      1788.8072      1979.0874     -2989.6497      45.82967       1.0457388      49815.564    
  24380000   199.16715      1575.5874     -379.02606      2562.3787      1726.9628      1982.7916     -3000.0484      42.017493      1.0463459      49786.66     
  24400000   202.40663      1657.1837     -394.30823      2562.629       1784.8519      1995.927      -2979.8491      47.536777      1.0414822      50019.16     
  24420000   203.37816      1691.5951     -354.42834      2554.1849      1733.5873      2034.7146     -2957.2329      40.184608      1.0433564      49929.314    
  24440000   200.82939      1668.9127     -361.66633      2572.8201      1779.1457      2028.1996     -3032.0842      41.935586      1.0426389      49963.671    
  24460000   203.72515      1678.1844     -368.55772      2572.915       1775.7662      2035.8792     -3024.0922      45.781393      1.0424273      49973.814    
  24480000   200.53633      1655.3542     -348.69816      2581.1011      1772.7037      1987.3608     -3015.5131      37.625202      1.0388086      50147.898    
  24500000   195.30164      1738.4971     -375.97239      2564.5126      1772.8547      2058.4219     -2960.7214      38.984107      1.0424172      49974.295    
  24520000   199.08895      1605.2768     -364.1192       2548.1057      1754.6704      1986.7644     -3000.9128      40.197304      1.0480658      49704.957    
  24540000   195.00038      1632.9237     -360.38134      2556.002       1779.8763      1974.2179     -2998.5254      41.046764      1.0378929      50192.142    
  24560000   202.08583      1709.2014     -319.31111      2562.5285      1776.336       2005.4427     -2997.3978      41.124244      1.0375672      50207.899    
  24580000   199.44617      1695.5493     -395.20637      2576.0985      1788.3001      2044.2012     -2996.899       38.258569      1.0421248      49988.318    
  24600000   198.31994      1646.5099     -369.58669      2555.747       1716.1667      2006.0238     -2940.9753      38.703924      1.0447378      49863.294    
  24620000   202.66178      1596.9926     -392.79814      2551.9838      1779.7405      2008.5335     -3032.6602      42.062166      1.0368598      50242.151    
  24640000   204.23427      1655.1767     -371.07978      2569.6219      1786.3515      1992.5275     -3004.6698      42.072187      1.0446255      49868.653    
  24660000   201.01789      1650.9952     -321.73697      2548.7698      1759.7808      1990.5692     -3003.8987      37.115399      1.0396718      50106.26     
  24680000   203.04749      1624.0838     -359.5724       2546.9327      1776.3262      2001.9332     -3019.8164      37.933077      1.0462433      49791.54     
  24700000   204.01138      1631.2205     -376.39259      2543.9721      1796.4917      2038.0608     -3051.0653      39.997642      1.046505       49779.089    
  24720000   199.98865      1551.7001     -376.10308      2560.8546      1755.5285      1938.4355     -3012.1841      44.769369      1.0403155      50075.261    
  24740000   199.4524       1682.0173     -358.45803      2554.2022      1775.5145      2040.4793     -3014.3066      44.45361       1.0372337      50224.043    
  24760000   202.87725      1737.1495     -359.93279      2561.0861      1803.2657      2023.3956     -2973.762       42.812333      1.0444154      49878.683    
  24780000   201.00255      1616.8894     -359.72834      2544.1742      1714.2153      2007.6332     -2972.8297      43.181405      1.0443616      49881.255    
  24800000   201.50536      1646.9616     -382.28277      2572.9592      1718.8504      2038.5178     -2981.1402      39.74505       1.0454477      49829.435    
  24820000   201.44635      1672.1131     -347.59258      2545.5044      1777.7055      2056.7219     -3040.3137      39.710039      1.0393772      50120.465    
  24840000   197.10175      1668.8387     -377.10326      2552.169       1753.2448      2055.149      -2994.9429      40.073306      1.0489526      49662.939    
  24860000   201.52879      1692.3157     -340.36465      2562.145       1815.656       2027.8438     -3052.4041      39.101592      1.0400056      50090.178    
  24880000   199.38151      1649.931      -391.51748      2553.847       1740.2554      2070.5435     -3005.7948      41.984911      1.0364496      50262.037    
  24900000   200.23359      1623.3589     -394.50997      2550.8915      1806.6148      2008.0739     -3027.8478      39.274291      1.0391383      50131.985    
  24920000   197.66778      1651.2136     -360.34881      2563.3345      1757.3353      2042.937      -3030.1516      37.636686      1.0403029      50075.867    
  24940000   196.78387      1645.0414     -341.05644      2544.9262      1790.2403      2006.2555     -3037.3918      41.512389      1.0360348      50282.162    
  24960000   200.70014      1630.5646     -322.95427      2541.9491      1735.9699      2023.6206     -3029.7438      40.998819      1.0380539      50184.355    
  24980000   198.74322      1654.0447     -371.4812       2566.4848      1765.5472      2027.7719     -3019.0686      43.93067       1.0424597      49972.259    
  25000000   204.05577      1598.4996     -399.25282      2548.5958      1749.9283      1987.8463     -2969.9189      40.633976      1.0450407      49848.841    
  25020000   201.86711      1656.3389     -355.12085      2567.9009      1743.3142      1963.3701     -2943.2963      39.750669      1.041486       50018.981    
  25040000   201.36567      1714.8647     -356.75047      2557.1481      1764.5487      2039.623      -2974.5014      44.227133      1.047273       49742.586    
  25060000   203.35082      1659.5448     -344.76454      2565.3545      1736.019       1977.1998     -2954.7846      40.008164      1.0444644      49876.345    
  25080000   200.99302      1639.7306     -373.08011      2563.9957      1738.1411      2029.5697     -2998.8268      39.428664      1.0437467      49910.642    
  25100000   197.48709      1654.7915     -335.61234      2547.7723      1717.7809      2018.553      -2973.8847      39.822329      1.0471659      49747.673    
  25120000   198.53689      1622.856      -374.19666      2553.0079      1714.9784      2012.2003     -2968.9119      44.898175      1.0494535      49639.235    
  25140000   198.82235      1628.261      -355.7871       2562.5268      1738.9665      2008.7744     -3009.2509      42.683832      1.043784       49908.859    
  25160000   201.19035      1587.5097     -357.84504      2552.8719      1737.607       1980.5639     -3007.1666      41.043481      1.042277       49981.02     
  25180000   197.71245      1648.4932     -357.75591      2567.049       1735.6968      1983.1275     -2959.4553      39.460221      1.0403372      50074.214    
  25200000   201.70241      1622.5576     -382.67423      2558.0746      1715.1998      2039.6601     -2986.8545      38.725373      1.0434688      49923.933    
  25200091   200.29666      1581.568      -370.45524      2556.8772      1683.8038      2036.1911     -3001.3479      36.297733      1.0451966      49841.404    
Loop time of 3861.47 on 24 procs for 1200000 steps with 5032 atoms

Performance: 6.712 ns/day, 3.575 hours/ns, 310.762 timesteps/s, 1.564 Matom-step/s
99.5% CPU use with 24 MPI tasks x no OpenMP threads

MPI task timing breakdown:
Section |  min time  |  avg time  |  max time  |%varavg| %total
---------------------------------------------------------------
Pair    | 2059.1     | 2294.9     | 2506.1     | 260.9 | 59.43
Bond    | 552.01     | 625.58     | 708.58     | 151.3 | 16.20
Kspace  | 497.22     | 740.8      | 1019.6     | 510.4 | 19.18
Neigh   | 22.019     | 22.04      | 22.058     |   0.2 |  0.57
Comm    | 129.73     | 131.73     | 134.97     |  12.4 |  3.41
Output  | 0.0034908  | 0.004017   | 0.015703   |   3.8 |  0.00
Modify  | 31.525     | 33.861     | 35.518     |  17.0 |  0.88
Other   |            | 12.58      |            |       |  0.33

Nlocal:        209.667 ave         225 max         199 min
Histogram: 5 3 1 3 2 4 2 1 1 2
Nghost:        4950.42 ave        4975 max        4924 min
Histogram: 3 1 2 0 6 3 2 2 3 2
Neighs:        76550.7 ave       86318 max       67662 min
Histogram: 5 0 3 0 2 5 2 4 2 1

Total # of neighbors = 1837216
Ave neighs/atom = 365.10652
Ave special neighs/atom = 5.8028617
Neighbor list builds = 7451
Dangerous builds = 0
unfix           fNPT
unfix           fMOM
next            a
jump            SELF loop
variable        a loop 26
variable        b equal 600-20*($a-1)
variable        b equal 600-20*(22-1)
fix             fMOM all momentum 100 linear 1 1 1 angular
fix             fNPT all npt temp $b $b $(100.0*dt) iso 1 1 $(100.0*dt)
fix             fNPT all npt temp 180 $b $(100.0*dt) iso 1 1 $(100.0*dt)
fix             fNPT all npt temp 180 180 $(100.0*dt) iso 1 1 $(100.0*dt)
fix             fNPT all npt temp 180 180 25 iso 1 1 $(100.0*dt)
fix             fNPT all npt temp 180 180 25 iso 1 1 25
run             1200000
PPPM initialization ...
  using 12-bit tables for long-range coulomb (../kspace.cpp:342)
  G vector (1/distance) = 0.1191781
  grid = 4 4 4
  stencil order = 5
  estimated absolute RMS force accuracy = 0.2767364
  estimated relative force accuracy = 0.00083338345
  using double precision KISS FFT
  3d grid and FFT values/proc = 294 4
Generated 21 of 21 mixed pair_coeff terms from sixthpower/sixthpower mixing rule
WARNING: Inconsistent image flags (../domain.cpp:815)
Per MPI rank memory allocation (min/avg/max) = 22.22 | 22.3 | 22.62 Mbytes
   Step          Temp          PotEng         E_vdwl         E_coul         E_bond        E_angle        E_dihed        E_impro        Density         Volume    
  25200091   200.29666      1581.752      -370.45524      2559.5639      1683.8038      2036.1911     -3001.3479      36.297733      1.0451966      49841.404    
  25220000   180.06357      1378.7227     -398.60085      2553.7139      1631.6403      1942.5037     -3023.5769      34.80029       1.0501122      49608.095    
  25240000   182.73235      1427.1109     -374.33208      2545.3069      1694.5421      1939.1867     -3053.9927      38.63724       1.0431981      49936.89     
  25260000   178.68647      1396.1255     -385.86576      2559.487       1675.1837      1906.8822     -3037.4985      40.015776      1.0404359      50069.463    
  25280000   183.27826      1343.5286     -384.2979       2545.1855      1666.5007      1878.3538     -3033.9624      33.933506      1.0428065      49955.639    
  25300000   183.9658       1372.2954     -380.9942       2555.0873      1655.6375      1896.2158     -3025.5083      33.891734      1.0469975      49755.677    
  25320000   184.12291      1319.6028     -386.83807      2551.2083      1652.9172      1873.0577     -3045.0329      36.306934      1.0423895      49975.625    
  25340000   177.72787      1344.1181     -371.49519      2541.555       1666.4006      1888.6794     -3054.3517      35.541536      1.0462101      49793.122    
  25360000   181.30242      1304.9822     -435.46199      2539.9476      1670.3608      1860.2798     -3004.1452      36.021938      1.0501351      49607.013    
  25380000   179.07251      1339.6338     -404.19558      2541.9312      1648.3585      1903.5541     -3027.6639      39.725305      1.0465375      49777.546    
  25400000   179.58327      1341.0225     -430.30256      2551.0815      1664.9357      1888.7558     -3010.3853      39.087568      1.046279       49789.841    
  25420000   180.59606      1393.6355     -416.14932      2568.06        1689.5388      1900.6798     -3022.2752      35.977867      1.0576361      49255.191    
  25440000   182.33874      1383.6775     -441.50788      2538.351       1662.0316      1963.6777     -3015.2413      38.153139      1.0574438      49264.148    
  25460000   179.80033      1358.4367     -433.22099      2546.1974      1720.7797      1906.2098     -3054.4932      35.228443      1.0574963      49261.701    
  25480000   177.4345       1336.4226     -416.98714      2552.2046      1669.114       1897.2436     -3037.638       34.761039      1.0507883      49576.178    
  25500000   182.85369      1356.6036     -406.04172      2558.0392      1665.2852      1923.6714     -3060.5313      38.039901      1.0490018      49660.609    
  25520000   179.56695      1357.9097     -420.63438      2553.197       1682.0662      1895.9055     -3031.1247      40.592512      1.0478555      49714.935    
  25540000   178.39139      1351.2506     -363.43782      2559.7921      1653.8088      1905.0154     -3075.2688      33.48744       1.04687        49761.735    
  25560000   179.43029      1379.6579     -406.42172      2552.23        1604.0369      1925.3753     -2968.8395      35.602035      1.0522574      49506.964    
  25580000   181.78243      1355.6728     -406.10414      2540.1326      1736.9066      1911.924      -3101.7988      36.83289       1.0561894      49322.658    
  25600000   175.58811      1342.2748     -398.67594      2549.7948      1720.1516      1880.4317     -3084.8221      37.419547      1.0482262      49697.355    
  25620000   177.89606      1320.6572     -428.53353      2552.5654      1658.5947      1876.0461     -3014.6753      38.860902      1.0456784      49818.44     
  25640000   179.93877      1277.3499     -439.63636      2528.9264      1648.9078      1929.8267     -3066.1277      37.478851      1.0533014      49457.892    
  25660000   179.72886      1369.6409     -438.27806      2548.5572      1692.0599      1942.7982     -3050.3668      36.84897       1.0490443      49658.594    
  25680000   177.90339      1353.4966     -400.3526       2549.1399      1677.0563      1904.2422     -3050.5155      35.98774       1.0469057      49760.04     
  25700000   177.48668      1276.5036     -388.42915      2563.8701      1660.3535      1835.9497     -3071.7724      38.255499      1.0484582      49686.355    
  25720000   177.57404      1401.2303     -406.85953      2563.7823      1766.6809      1908.4682     -3104.2625      35.769914      1.0486571      49676.933    
  25740000   180.68262      1334.8378     -438.54213      2534.1063      1656.5634      1932.9598     -3022.0134      33.58741       1.0503155      49598.495    
  25760000   180.50677      1350.796      -367.65718      2557.747       1655.7511      1886.3561     -3051.2961      31.855725      1.0431357      49939.875    
  25780000   179.80652      1371.4579     -380.8041       2574.1263      1660.6606      1881.773      -3043.9021      41.673447      1.0476513      49724.626    
  25800000   178.87937      1377.066      -403.17043      2571.2108      1675.7714      1904.5274     -3044.5761      35.10356       1.0469197      49759.374    
  25820000   179.05464      1416.7204     -397.04998      2566.065       1674.6708      1917.2362     -3020.1529      37.979151      1.0430137      49945.717    
  25840000   180.94972      1372.6396     -385.78615      2563.7359      1709.2891      1906.476      -3095.3511      36.377187      1.0536928      49439.52     
  25860000   177.55159      1409.1239     -418.51758      2574.104       1656.836       1919.0125     -2998.4389      37.899911      1.0485352      49682.706    
  25880000   179.2292       1299.8263     -400.80066      2560.5656      1629.7734      1871.9494     -3035.7035      36.337676      1.0493873      49642.365    
  25900000   182.00349      1368.7462     -434.09456      2560.3662      1691.9449      1934.3572     -3060.2658      38.230857      1.0507258      49579.127    
  25920000   180.4331       1353.6524     -406.23644      2558.4583      1643.9482      1895.9641     -3011.8736      35.445796      1.0477188      49721.422    
  25940000   179.82756      1356.6851     -377.96185      2565.5618      1618.4662      1930.5407     -3052.044       34.069337      1.0385196      50161.853    
  25960000   176.25692      1344.3026     -401.8745       2543.9646      1617.7053      1946.3189     -3036.4662      36.706323      1.0513825      49548.158    
  25980000   180.63707      1384.4258     -391.61297      2564.3881      1642.5467      1902.4547     -3009.6546      38.305353      1.0483772      49690.195    
  26000000   180.26788      1372.8282     -397.54061      2560.431       1658.1472      1939.5978     -3060.7518      34.69907       1.0549657      49379.868    
  26020000   183.22341      1356.8342     -407.47005      2544.7579      1645.0708      1945.4206     -3046.2358      37.120717      1.044426       49878.181    
  26040000   175.60416      1317.2443     -420.71702      2553.3961      1647.191       1913.1714     -3045.148       31.399512      1.0453834      49832.5      
  26060000   177.30824      1320.8733     -437.82722      2559.7851      1641.273       1932.5603     -3049.6978      36.547974      1.044964       49852.499    
  26080000   180.23298      1275.491      -389.37372      2537.679       1612.4648      1891.9057     -3051.6928      36.771442      1.0504793      49590.759    
  26100000   179.99955      1390.6926     -418.72367      2538.4836      1708.9321      1945.4999     -3058.477       37.121506      1.0511083      49561.085    
  26120000   179.96658      1334.5341     -398.69686      2558.663       1660.811       1890.1221     -3053.6454      39.155408      1.048579       49680.63     
  26140000   179.31237      1346.8368     -389.69131      2533.5073      1654.7992      1937.8428     -3063.6527      36.324911      1.0506403      49583.161    
  26160000   182.11799      1344.5369     -422.17137      2548.8227      1681.9123      1902.1502     -3043.0055      38.683349      1.0501982      49604.036    
  26180000   179.6098       1461.4031     -415.00221      2561.0978      1688.6284      1940.6238     -2991.0051      39.206875      1.0486631      49676.646    
  26200000   182.78679      1287.4752     -385.87453      2557.8813      1661.6522      1871.2768     -3087.564       32.2978        1.0510759      49562.611    
  26220000   181.02921      1379.0786     -413.40878      2552.7544      1689.5086      1973.232      -3097.5646      36.774091      1.0509007      49570.874    
  26240000   178.427        1397.052      -361.76133      2549.5374      1641.751       1936.3415     -3042.9417      36.288919      1.0581801      49229.868    
  26260000   179.17288      1374.0927     -377.85186      2557.062       1644.6981      1957.8493     -3079.9599      34.569019      1.0533184      49457.095    
  26280000   181.17514      1329.2798     -425.63807      2560.616       1646.2753      1911.0079     -3036.0814      35.418615      1.0474092      49736.116    
  26300000   181.57315      1429.7621     -435.82927      2568.275       1720.7186      1958.285      -3054.885       35.306953      1.0510789      49562.472    
  26320000   177.88465      1391.645      -437.62767      2563.5301      1662.6442      1943.7703     -3019.174       40.465363      1.0506788      49581.344    
  26340000   181.49319      1345.3462     -395.90735      2566.1427      1623.204       1911.1384     -3032.5879      35.59804       1.052264       49506.65     
  26360000   179.82332      1331.6896     -425.70765      2565.7661      1682.9325      1923.6998     -3084.9938      32.01281       1.0438096      49907.634    
  26380000   178.31547      1352.6313     -420.62382      2569.2807      1659.9459      1930.3809     -3057.8717      33.528246      1.0518111      49527.968    
  26400000   183.08509      1354.9463     -451.65501      2569.7601      1685.8183      1900.4248     -3023.2717      35.866305      1.048503       49684.234    
  26400091   181.51375      1350.0779     -380.82502      2556.6995      1656.7626      1915.1699     -3075.2828      39.497881      1.0521682      49511.159    
Loop time of 3868.58 on 24 procs for 1200000 steps with 5032 atoms

Performance: 6.700 ns/day, 3.582 hours/ns, 310.191 timesteps/s, 1.561 Matom-step/s
99.5% CPU use with 24 MPI tasks x no OpenMP threads

MPI task timing breakdown:
Section |  min time  |  avg time  |  max time  |%varavg| %total
---------------------------------------------------------------
Pair    | 2075.6     | 2303.8     | 2544.4     | 274.2 | 59.55
Bond    | 555.62     | 624.71     | 709.61     | 145.9 | 16.15
Kspace  | 516.95     | 742.39     | 1009.9     | 520.5 | 19.19
Neigh   | 20.035     | 20.06      | 20.09      |   0.3 |  0.52
Comm    | 129.06     | 131.42     | 134.58     |  12.1 |  3.40
Output  | 0.0035873  | 0.0039875  | 0.012782   |   2.9 |  0.00
Modify  | 31.419     | 33.705     | 35.066     |  17.3 |  0.87
Other   |            | 12.46      |            |       |  0.32

Nlocal:        209.667 ave         224 max         200 min
Histogram: 2 3 5 3 5 2 0 1 2 1
Nghost:        4967.71 ave        4995 max        4932 min
Histogram: 2 2 0 0 7 2 1 3 4 3
Neighs:        76961.2 ave       86610 max       68176 min
Histogram: 2 2 3 2 3 3 5 2 0 2

Total # of neighbors = 1847069
Ave neighs/atom = 367.06459
Ave special neighs/atom = 5.8028617
Neighbor list builds = 6853
Dangerous builds = 0
