LAMMPS (22 Dec 2022)
WARNING: Using I/O redirection is unreliable with parallel runs. Better to use the -in switch to read input files. (../lammps.cpp:531)
# PREREQUISITES:
#
#     You must use moltemplate.sh to create 3 files:
#        system.data  system.in.init  system.in.settings
#     (Follow the instructions in README_setup.sh,
#      or run the file as a script using ./README_setup.sh)

# ------------------------------- Initialization Section --------------------

units real
atom_style full
pair_style lj/class2/coul/long 10.0
kspace_style pppm 1.0e-4
bond_style class2
angle_style class2
dihedral_style class2
improper_style class2


# ------------------------------- Atom Definition Section -------------------

read_data       "pack_mol.data" extra/bond/per/atom 1 extra/angle/per/atom 12 extra/dihedral/per/atom 12 extra/improper/per/atom 12 extra/special/per/atom 12
Reading data file ...
  orthogonal box = (0 0 0) to (46.421867 46.421867 46.421867)
  1 by 2 by 3 MPI processor grid
  reading atoms ...
  3976 atoms
  scanning bonds ...
  5 = max bonds/atom
  scanning angles ...
  18 = max angles/atom
  scanning dihedrals ...
  30 = max dihedrals/atom
  scanning impropers ...
  16 = max impropers/atom
  reading bonds ...
  4628 bonds
  reading angles ...
  10230 angles
  reading dihedrals ...
  18834 dihedrals
  reading impropers ...
  6600 impropers
Finding 1-2 1-3 1-4 neighbors ...
  special bond factors lj:    0        0        0       
  special bond factors coul:  0        0        0       
     4 = max # of 1-2 neighbors
     9 = max # of 1-3 neighbors
    25 = max # of 1-4 neighbors
    36 = max # of special neighbors
  special bonds CPU = 0.001 seconds
  read_data CPU = 0.093 seconds

include calc.pram

# Masses

mass		1    12.01115  # c
mass		2    12.01115  # c1
mass		3    12.01115  # c3h
mass		4     1.00797  # h
mass		5     1.00797  # hc
mass		6    15.99940  # o3e
mass		7    15.99940  # oc
mass		8    15.99940  # oh

# Potentials

pair_coeff	 1  1    0.05400    4.01000  # c,c
pair_coeff	 2  2    0.05400    4.01000  # c1,c1
pair_coeff	 3  3    0.05400    4.01000  # c3h,c3h
pair_coeff	 4  4    0.02000    2.99500  # h,h
pair_coeff	 5  5    0.02000    2.99500  # hc,hc
pair_coeff	 6  6    0.24000    3.53500  # o3e,o3e
pair_coeff	 7  7    0.24000    3.53500  # oc,oc
pair_coeff	 8  8    0.24000    3.53500  # oh,oh

# Bond Coeffs

bond_coeff	 1    1.53000  299.67000 -501.77000  679.81000  # c,c
bond_coeff	 2    1.53000  299.67000 -501.77000  679.81000  # c,c1
bond_coeff	 3    1.53000  299.67000 -501.77000  679.81000  # c,c3h
bond_coeff	 4    1.10100  345.00000 -691.89000  844.60000  # c,hc
bond_coeff	 5    1.53000  299.67000 -501.77000  679.81000  # c1,c1
bond_coeff	 6    1.53000  299.67000 -501.77000  679.81000  # c1,c3h
bond_coeff	 7    1.10100  345.00000 -691.89000  844.60000  # c1,hc
bond_coeff	 8    1.42000  400.39540 -835.19510 1313.01420  # c1,o3e
bond_coeff	 9    1.42000  400.39540 -835.19510 1313.01420  # c1,oc
bond_coeff	10    1.42000  400.39540 -835.19510 1313.01420  # c1,oh
bond_coeff	11    1.53000  299.67000 -501.77000  679.81000  # c3h,c3h
bond_coeff	12    1.10100  345.00000 -691.89000  844.60000  # c3h,hc
bond_coeff	13    1.42000  400.39540 -835.19510 1313.01420  # c3h,o3e
bond_coeff	14    0.96000  493.84800    0.00000    0.00000  # h,oh

# Angle Coeffs

angle_coeff	 1  112.67000   39.51600   -7.44300   -9.55830  # c,c,c1
angle_coeff	 2  110.77000   41.45300  -10.60400    5.12900  # c,c,hc
angle_coeff	 3  112.67000   39.51600   -7.44300   -9.55830  # c,c1,c
angle_coeff	 4  112.67000   39.51600   -7.44300   -9.55830  # c,c1,c1
angle_coeff	 5  110.77000   41.45300  -10.60400    5.12900  # c,c1,hc
angle_coeff	 6  111.27000   54.53810   -8.36420  -13.08380  # c,c1,o3e
angle_coeff	 7  111.27000   54.53810   -8.36420  -13.08380  # c,c1,oc
angle_coeff	 8  112.67000   39.51600   -7.44300   -9.55830  # c,c3h,c3h
angle_coeff	 9  110.77000   41.45300  -10.60400    5.12900  # c,c3h,hc
angle_coeff	10  111.27000   54.53810   -8.36420  -13.08380  # c,c3h,o3e
angle_coeff	11  112.67000   39.51600   -7.44300   -9.55830  # c1,c,c1
angle_coeff	12  112.67000   39.51600   -7.44300   -9.55830  # c1,c,c3h
angle_coeff	13  110.77000   41.45300  -10.60400    5.12900  # c1,c,hc
angle_coeff	14  112.67000   39.51600   -7.44300   -9.55830  # c1,c1,c1
angle_coeff	15  112.67000   39.51600   -7.44300   -9.55830  # c1,c1,c3h
angle_coeff	16  110.77000   41.45300  -10.60400    5.12900  # c1,c1,hc
angle_coeff	17  111.27000   54.53810   -8.36420  -13.08380  # c1,c1,o3e
angle_coeff	18  111.27000   54.53810   -8.36420  -13.08380  # c1,c1,oc
angle_coeff	19  111.27000   54.53810   -8.36420  -13.08380  # c1,c1,oh
angle_coeff	20  112.67000   39.51600   -7.44300   -9.55830  # c1,c3h,c3h
angle_coeff	21  110.77000   41.45300  -10.60400    5.12900  # c1,c3h,hc
angle_coeff	22  111.27000   54.53810   -8.36420  -13.08380  # c1,c3h,o3e
angle_coeff	23  104.50000   35.74540  -10.00670   -6.27290  # c1,o3e,c1
angle_coeff	24  104.50000   35.74540  -10.00670   -6.27290  # c1,oc,c1
angle_coeff	25  109.00000   58.50000    0.00000    0.00000  # c1,oh,h
angle_coeff	26  110.77000   41.45300  -10.60400    5.12900  # c3h,c,hc
angle_coeff	27  110.77000   41.45300  -10.60400    5.12900  # c3h,c1,hc
angle_coeff	28  110.77000   41.45300  -10.60400    5.12900  # c3h,c3h,hc
angle_coeff	29  111.27000   54.53810   -8.36420  -13.08380  # c3h,c3h,o3e
angle_coeff	30  104.50000   35.74540  -10.00670   -6.27290  # c3h,o3e,c3h
angle_coeff	31  107.66000   39.64100  -12.92100   -2.43180  # hc,c,hc
angle_coeff	32  108.72800   58.54460  -10.80880  -12.40060  # hc,c1,o3e
angle_coeff	33  108.72800   58.54460  -10.80880  -12.40060  # hc,c1,oc
angle_coeff	34  108.72800   58.54460  -10.80880  -12.40060  # hc,c1,oh
angle_coeff	35  108.72800   58.54460  -10.80880  -12.40060  # hc,c3h,o3e

# BondBond Coeffs

angle_coeff	 1 bb    0.00000    1.53000    1.53000  # c,c,c1
angle_coeff	 2 bb    3.38720    1.53000    1.10100  # c,c,hc
angle_coeff	 3 bb    0.00000    1.53000    1.53000  # c,c1,c
angle_coeff	 4 bb    0.00000    1.53000    1.53000  # c,c1,c1
angle_coeff	 5 bb    3.38720    1.53000    1.10100  # c,c1,hc
angle_coeff	 6 bb   11.43180    1.53000    1.42000  # c,c1,o3e
angle_coeff	 7 bb   11.43180    1.53000    1.42000  # c,c1,oc
angle_coeff	 8 bb    0.00000    1.53000    1.53000  # c,c3h,c3h
angle_coeff	 9 bb    3.38720    1.53000    1.10100  # c,c3h,hc
angle_coeff	10 bb   11.43180    1.53000    1.42000  # c,c3h,o3e
angle_coeff	11 bb    0.00000    1.53000    1.53000  # c1,c,c1
angle_coeff	12 bb    0.00000    1.53000    1.53000  # c1,c,c3h
angle_coeff	13 bb    3.38720    1.53000    1.10100  # c1,c,hc
angle_coeff	14 bb    0.00000    1.53000    1.53000  # c1,c1,c1
angle_coeff	15 bb    0.00000    1.53000    1.53000  # c1,c1,c3h
angle_coeff	16 bb    3.38720    1.53000    1.10100  # c1,c1,hc
angle_coeff	17 bb   11.43180    1.53000    1.42000  # c1,c1,o3e
angle_coeff	18 bb   11.43180    1.53000    1.42000  # c1,c1,oc
angle_coeff	19 bb   11.43180    1.53000    1.42000  # c1,c1,oh
angle_coeff	20 bb    0.00000    1.53000    1.53000  # c1,c3h,c3h
angle_coeff	21 bb    3.38720    1.53000    1.10100  # c1,c3h,hc
angle_coeff	22 bb   11.43180    1.53000    1.42000  # c1,c3h,o3e
angle_coeff	23 bb   -7.11310    1.42000    1.42000  # c1,o3e,c1
angle_coeff	24 bb   -7.11310    1.42000    1.42000  # c1,oc,c1
angle_coeff	25 bb    0.00000    1.42000    0.96000  # c1,oh,h
angle_coeff	26 bb    3.38720    1.53000    1.10100  # c3h,c,hc
angle_coeff	27 bb    3.38720    1.53000    1.10100  # c3h,c1,hc
angle_coeff	28 bb    3.38720    1.53000    1.10100  # c3h,c3h,hc
angle_coeff	29 bb   11.43180    1.53000    1.42000  # c3h,c3h,o3e
angle_coeff	30 bb   -7.11310    1.42000    1.42000  # c3h,o3e,c3h
angle_coeff	31 bb    5.33160    1.10100    1.10100  # hc,c,hc
angle_coeff	32 bb   23.19790    1.10100    1.42000  # hc,c1,o3e
angle_coeff	33 bb   23.19790    1.10100    1.42000  # hc,c1,oc
angle_coeff	34 bb   23.19790    1.10100    1.42000  # hc,c1,oh
angle_coeff	35 bb   23.19790    1.10100    1.42000  # hc,c3h,o3e

# BondAngle Coeffs

angle_coeff	 1 ba    8.01600    8.01600    1.53000    1.53000  # c,c,c1
angle_coeff	 2 ba   11.42100   20.75400    1.53000    1.10100  # c,c,hc
angle_coeff	 3 ba    8.01600    8.01600    1.53000    1.53000  # c,c1,c
angle_coeff	 4 ba    8.01600    8.01600    1.53000    1.53000  # c,c1,c1
angle_coeff	 5 ba   11.42100   20.75400    1.53000    1.10100  # c,c1,hc
angle_coeff	 6 ba    2.68680   20.40330    1.53000    1.42000  # c,c1,o3e
angle_coeff	 7 ba   20.40330    2.68680    1.53000    1.42000  # c,c1,oc
angle_coeff	 8 ba    8.01600    8.01600    1.53000    1.53000  # c,c3h,c3h
angle_coeff	 9 ba   11.42100   20.75400    1.53000    1.10100  # c,c3h,hc
angle_coeff	10 ba    2.68680   20.40330    1.53000    1.42000  # c,c3h,o3e
angle_coeff	11 ba    8.01600    8.01600    1.53000    1.53000  # c1,c,c1
angle_coeff	12 ba    8.01600    8.01600    1.53000    1.53000  # c1,c,c3h
angle_coeff	13 ba   20.75400   11.42100    1.53000    1.10100  # c1,c,hc
angle_coeff	14 ba    8.01600    8.01600    1.53000    1.53000  # c1,c1,c1
angle_coeff	15 ba    8.01600    8.01600    1.53000    1.53000  # c1,c1,c3h
angle_coeff	16 ba   20.75400   11.42100    1.53000    1.10100  # c1,c1,hc
angle_coeff	17 ba    2.68680   20.40330    1.53000    1.42000  # c1,c1,o3e
angle_coeff	18 ba    2.68680   20.40330    1.53000    1.42000  # c1,c1,oc
angle_coeff	19 ba   20.40330    2.68680    1.53000    1.42000  # c1,c1,oh
angle_coeff	20 ba    8.01600    8.01600    1.53000    1.53000  # c1,c3h,c3h
angle_coeff	21 ba   20.75400   11.42100    1.53000    1.10100  # c1,c3h,hc
angle_coeff	22 ba    2.68680   20.40330    1.53000    1.42000  # c1,c3h,o3e
angle_coeff	23 ba   -2.81120   -2.81120    1.42000    1.42000  # c1,o3e,c1
angle_coeff	24 ba   -2.81120   -2.81120    1.42000    1.42000  # c1,oc,c1
angle_coeff	25 ba    0.00000    0.00000    1.42000    0.96000  # c1,oh,h
angle_coeff	26 ba   11.42100   20.75400    1.53000    1.10100  # c3h,c,hc
angle_coeff	27 ba   11.42100   20.75400    1.53000    1.10100  # c3h,c1,hc
angle_coeff	28 ba   11.42100   20.75400    1.53000    1.10100  # c3h,c3h,hc
angle_coeff	29 ba   20.40330    2.68680    1.53000    1.42000  # c3h,c3h,o3e
angle_coeff	30 ba   -2.81120   -2.81120    1.42000    1.42000  # c3h,o3e,c3h
angle_coeff	31 ba   18.10300   18.10300    1.10100    1.10100  # hc,c,hc
angle_coeff	32 ba    4.61890   55.32700    1.10100    1.42000  # hc,c1,o3e
angle_coeff	33 ba    4.61890   55.32700    1.10100    1.42000  # hc,c1,oc
angle_coeff	34 ba   55.32700    4.61890    1.10100    1.42000  # hc,c1,oh
angle_coeff	35 ba    4.61890   55.32700    1.10100    1.42000  # hc,c3h,o3e

# Dihedral Coeffs

dihedral_coeff	 1    0.00000    0.00000    0.05140    0.00000   -0.14300    0.00000  # c,c,c1,c1
dihedral_coeff	 2    0.00000    0.00000    0.03160    0.00000   -0.16810    0.00000  # c,c,c1,hc
dihedral_coeff	 3    0.71370    0.00000    0.26600    0.00000   -0.25450    0.00000  # c,c,c1,oc
dihedral_coeff	 4    0.00000    0.00000    0.05140    0.00000   -0.14300    0.00000  # c,c1,c,c1
dihedral_coeff	 5    0.00000    0.00000    0.03160    0.00000   -0.16810    0.00000  # c,c1,c,hc
dihedral_coeff	 6    0.00000    0.00000    0.05140    0.00000   -0.14300    0.00000  # c,c1,c1,c
dihedral_coeff	 7    0.00000    0.00000    0.05140    0.00000   -0.14300    0.00000  # c,c1,c1,c1
dihedral_coeff	 8    0.00000    0.00000    0.05140    0.00000   -0.14300    0.00000  # c,c1,c1,c3h
dihedral_coeff	 9    0.00000    0.00000    0.03160    0.00000   -0.16810    0.00000  # c,c1,c1,hc
dihedral_coeff	10    0.71370    0.00000    0.26600    0.00000   -0.25450    0.00000  # c,c1,c1,o3e
dihedral_coeff	11    0.71370    0.00000    0.26600    0.00000   -0.25450    0.00000  # c,c1,c1,oc
dihedral_coeff	12    0.71370    0.00000    0.26600    0.00000   -0.25450    0.00000  # c,c1,c1,oh
dihedral_coeff	13   -0.52030    0.00000   -0.30280    0.00000   -0.34500    0.00000  # c,c1,o3e,c1
dihedral_coeff	14   -0.52030    0.00000   -0.30280    0.00000   -0.34500    0.00000  # c,c1,oc,c1
dihedral_coeff	15    0.00000    0.00000    0.05140    0.00000   -0.14300    0.00000  # c,c3h,c3h,c1
dihedral_coeff	16    0.00000    0.00000    0.03160    0.00000   -0.16810    0.00000  # c,c3h,c3h,hc
dihedral_coeff	17    0.71370    0.00000    0.26600    0.00000   -0.25450    0.00000  # c,c3h,c3h,o3e
dihedral_coeff	18   -0.52030    0.00000   -0.30280    0.00000   -0.34500    0.00000  # c,c3h,o3e,c3h
dihedral_coeff	19    0.00000    0.00000    0.05140    0.00000   -0.14300    0.00000  # c1,c,c,c1
dihedral_coeff	20    0.00000    0.00000    0.03160    0.00000   -0.16810    0.00000  # c1,c,c,hc
dihedral_coeff	21    0.00000    0.00000    0.05140    0.00000   -0.14300    0.00000  # c1,c,c1,c1
dihedral_coeff	22    0.00000    0.00000    0.03160    0.00000   -0.16810    0.00000  # c1,c,c1,hc
dihedral_coeff	23    0.71370    0.00000    0.26600    0.00000   -0.25450    0.00000  # c1,c,c1,o3e
dihedral_coeff	24    0.71370    0.00000    0.26600    0.00000   -0.25450    0.00000  # c1,c,c1,oc
dihedral_coeff	25    0.00000    0.00000    0.05140    0.00000   -0.14300    0.00000  # c1,c,c3h,c3h
dihedral_coeff	26    0.00000    0.00000    0.03160    0.00000   -0.16810    0.00000  # c1,c,c3h,hc
dihedral_coeff	27    0.71370    0.00000    0.26600    0.00000   -0.25450    0.00000  # c1,c,c3h,o3e
dihedral_coeff	28    0.00000    0.00000    0.05140    0.00000   -0.14300    0.00000  # c1,c1,c,c3h
dihedral_coeff	29    0.00000    0.00000    0.03160    0.00000   -0.16810    0.00000  # c1,c1,c,hc
dihedral_coeff	30    0.00000    0.00000    0.05140    0.00000   -0.14300    0.00000  # c1,c1,c1,c1
dihedral_coeff	31    0.00000    0.00000    0.05140    0.00000   -0.14300    0.00000  # c1,c1,c1,c3h
dihedral_coeff	32    0.00000    0.00000    0.03160    0.00000   -0.16810    0.00000  # c1,c1,c1,hc
dihedral_coeff	33    0.71370    0.00000    0.26600    0.00000   -0.25450    0.00000  # c1,c1,c1,o3e
dihedral_coeff	34    0.71370    0.00000    0.26600    0.00000   -0.25450    0.00000  # c1,c1,c1,oc
dihedral_coeff	35    0.71370    0.00000    0.26600    0.00000   -0.25450    0.00000  # c1,c1,c1,oh
dihedral_coeff	36    0.00000    0.00000    0.05140    0.00000   -0.14300    0.00000  # c1,c1,c3h,c3h
dihedral_coeff	37    0.00000    0.00000    0.03160    0.00000   -0.16810    0.00000  # c1,c1,c3h,hc
dihedral_coeff	38    0.71370    0.00000    0.26600    0.00000   -0.25450    0.00000  # c1,c1,c3h,o3e
dihedral_coeff	39   -0.52030    0.00000   -0.30280    0.00000   -0.34500    0.00000  # c1,c1,o3e,c1
dihedral_coeff	40   -0.52030    0.00000   -0.30280    0.00000   -0.34500    0.00000  # c1,c1,oc,c1
dihedral_coeff	41    0.00000    0.00000    0.00000    0.00000    0.13000  180.00000  # c1,c1,oh,h
dihedral_coeff	42    0.00000    0.00000    0.03160    0.00000   -0.16810    0.00000  # c1,c3h,c3h,hc
dihedral_coeff	43    0.71370    0.00000    0.26600    0.00000   -0.25450    0.00000  # c1,c3h,c3h,o3e
dihedral_coeff	44   -0.52030    0.00000   -0.30280    0.00000   -0.34500    0.00000  # c1,c3h,o3e,c3h
dihedral_coeff	45    0.53020    0.00000    0.00000    0.00000   -0.39660    0.00000  # c1,o3e,c1,hc
dihedral_coeff	46    0.53020    0.00000    0.00000    0.00000   -0.39660    0.00000  # c1,oc,c1,hc
dihedral_coeff	47    0.00000    0.00000    0.03160    0.00000   -0.16810    0.00000  # c3h,c,c1,hc
dihedral_coeff	48    0.00000    0.00000    0.03160    0.00000   -0.16810    0.00000  # c3h,c1,c1,hc
dihedral_coeff	49    0.00000    0.00000    0.03160    0.00000   -0.16810    0.00000  # c3h,c3h,c,hc
dihedral_coeff	50    0.00000    0.00000    0.03160    0.00000   -0.16810    0.00000  # c3h,c3h,c1,hc
dihedral_coeff	51    0.53020    0.00000    0.00000    0.00000   -0.39660    0.00000  # c3h,o3e,c3h,hc
dihedral_coeff	52    0.00000    0.00000    0.00000    0.00000    0.13000  180.00000  # h,oh,c1,hc
dihedral_coeff	53   -0.14320    0.00000    0.06170    0.00000   -0.10830    0.00000  # hc,c,c,hc
dihedral_coeff	54   -0.14320    0.00000    0.06170    0.00000   -0.10830    0.00000  # hc,c,c1,hc
dihedral_coeff	55   -0.14350    0.00000    0.25300    0.00000   -0.09050    0.00000  # hc,c,c1,o3e
dihedral_coeff	56   -0.14350    0.00000    0.25300    0.00000   -0.09050    0.00000  # hc,c,c1,oc
dihedral_coeff	57   -0.14320    0.00000    0.06170    0.00000   -0.10830    0.00000  # hc,c,c3h,hc
dihedral_coeff	58   -0.14350    0.00000    0.25300    0.00000   -0.09050    0.00000  # hc,c,c3h,o3e
dihedral_coeff	59   -0.14320    0.00000    0.06170    0.00000   -0.10830    0.00000  # hc,c1,c1,hc
dihedral_coeff	60   -0.14350    0.00000    0.25300    0.00000   -0.09050    0.00000  # hc,c1,c1,o3e
dihedral_coeff	61   -0.14350    0.00000    0.25300    0.00000   -0.09050    0.00000  # hc,c1,c1,oc
dihedral_coeff	62   -0.14350    0.00000    0.25300    0.00000   -0.09050    0.00000  # hc,c1,c1,oh
dihedral_coeff	63   -0.14320    0.00000    0.06170    0.00000   -0.10830    0.00000  # hc,c1,c3h,hc
dihedral_coeff	64   -0.14350    0.00000    0.25300    0.00000   -0.09050    0.00000  # hc,c1,c3h,o3e
dihedral_coeff	65   -0.14320    0.00000    0.06170    0.00000   -0.10830    0.00000  # hc,c3h,c3h,hc
dihedral_coeff	66   -0.14350    0.00000    0.25300    0.00000   -0.09050    0.00000  # hc,c3h,c3h,o3e
dihedral_coeff	67   -0.18200    0.00000   -0.10840    0.00000   -0.70470    0.00000  # oc,c1,c1,oc
dihedral_coeff	68   -0.18200    0.00000   -0.10840    0.00000   -0.70470    0.00000  # oc,c1,c1,oh

# MiddleBondTorsion Coeffs

dihedral_coeff	 1 mbt  -17.78700   -7.18770    0.00000    1.53000  # c,c,c1,c1
dihedral_coeff	 2 mbt  -14.87900   -3.65810   -0.31380    1.53000  # c,c,c1,hc
dihedral_coeff	 3 mbt  -21.88420   -7.67640   -0.68680    1.53000  # c,c,c1,oc
dihedral_coeff	 4 mbt  -17.78700   -7.18770    0.00000    1.53000  # c,c1,c,c1
dihedral_coeff	 5 mbt  -14.87900   -3.65810   -0.31380    1.53000  # c,c1,c,hc
dihedral_coeff	 6 mbt  -17.78700   -7.18770    0.00000    1.53000  # c,c1,c1,c
dihedral_coeff	 7 mbt  -17.78700   -7.18770    0.00000    1.53000  # c,c1,c1,c1
dihedral_coeff	 8 mbt  -17.78700   -7.18770    0.00000    1.53000  # c,c1,c1,c3h
dihedral_coeff	 9 mbt  -14.87900   -3.65810   -0.31380    1.53000  # c,c1,c1,hc
dihedral_coeff	10 mbt  -21.88420   -7.67640   -0.68680    1.53000  # c,c1,c1,o3e
dihedral_coeff	11 mbt  -21.88420   -7.67640   -0.68680    1.53000  # c,c1,c1,oc
dihedral_coeff	12 mbt  -21.88420   -7.67640   -0.68680    1.53000  # c,c1,c1,oh
dihedral_coeff	13 mbt   -5.92880   -2.70070   -0.31750    1.42000  # c,c1,o3e,c1
dihedral_coeff	14 mbt   -5.92880   -2.70070   -0.31750    1.42000  # c,c1,oc,c1
dihedral_coeff	15 mbt  -17.78700   -7.18770    0.00000    1.53000  # c,c3h,c3h,c1
dihedral_coeff	16 mbt  -14.87900   -3.65810   -0.31380    1.53000  # c,c3h,c3h,hc
dihedral_coeff	17 mbt  -21.88420   -7.67640   -0.68680    1.53000  # c,c3h,c3h,o3e
dihedral_coeff	18 mbt   -5.92880   -2.70070   -0.31750    1.42000  # c,c3h,o3e,c3h
dihedral_coeff	19 mbt  -17.78700   -7.18770    0.00000    1.53000  # c1,c,c,c1
dihedral_coeff	20 mbt  -14.87900   -3.65810   -0.31380    1.53000  # c1,c,c,hc
dihedral_coeff	21 mbt  -17.78700   -7.18770    0.00000    1.53000  # c1,c,c1,c1
dihedral_coeff	22 mbt  -14.87900   -3.65810   -0.31380    1.53000  # c1,c,c1,hc
dihedral_coeff	23 mbt  -21.88420   -7.67640   -0.68680    1.53000  # c1,c,c1,o3e
dihedral_coeff	24 mbt  -21.88420   -7.67640   -0.68680    1.53000  # c1,c,c1,oc
dihedral_coeff	25 mbt  -17.78700   -7.18770    0.00000    1.53000  # c1,c,c3h,c3h
dihedral_coeff	26 mbt  -14.87900   -3.65810   -0.31380    1.53000  # c1,c,c3h,hc
dihedral_coeff	27 mbt  -21.88420   -7.67640   -0.68680    1.53000  # c1,c,c3h,o3e
dihedral_coeff	28 mbt  -17.78700   -7.18770    0.00000    1.53000  # c1,c1,c,c3h
dihedral_coeff	29 mbt  -14.87900   -3.65810   -0.31380    1.53000  # c1,c1,c,hc
dihedral_coeff	30 mbt  -17.78700   -7.18770    0.00000    1.53000  # c1,c1,c1,c1
dihedral_coeff	31 mbt  -17.78700   -7.18770    0.00000    1.53000  # c1,c1,c1,c3h
dihedral_coeff	32 mbt  -14.87900   -3.65810   -0.31380    1.53000  # c1,c1,c1,hc
dihedral_coeff	33 mbt  -21.88420   -7.67640   -0.68680    1.53000  # c1,c1,c1,o3e
dihedral_coeff	34 mbt  -21.88420   -7.67640   -0.68680    1.53000  # c1,c1,c1,oc
dihedral_coeff	35 mbt  -21.88420   -7.67640   -0.68680    1.53000  # c1,c1,c1,oh
dihedral_coeff	36 mbt  -17.78700   -7.18770    0.00000    1.53000  # c1,c1,c3h,c3h
dihedral_coeff	37 mbt  -14.87900   -3.65810   -0.31380    1.53000  # c1,c1,c3h,hc
dihedral_coeff	38 mbt  -21.88420   -7.67640   -0.68680    1.53000  # c1,c1,c3h,o3e
dihedral_coeff	39 mbt   -5.92880   -2.70070   -0.31750    1.42000  # c1,c1,o3e,c1
dihedral_coeff	40 mbt   -5.92880   -2.70070   -0.31750    1.42000  # c1,c1,oc,c1
dihedral_coeff	41 mbt    0.00000    0.00000    0.00000    1.42000  # c1,c1,oh,h
dihedral_coeff	42 mbt  -14.87900   -3.65810   -0.31380    1.53000  # c1,c3h,c3h,hc
dihedral_coeff	43 mbt  -21.88420   -7.67640   -0.68680    1.53000  # c1,c3h,c3h,o3e
dihedral_coeff	44 mbt   -5.92880   -2.70070   -0.31750    1.42000  # c1,c3h,o3e,c3h
dihedral_coeff	45 mbt   -6.80070   -4.65460   -1.41010    1.42000  # c1,o3e,c1,hc
dihedral_coeff	46 mbt   -6.80070   -4.65460   -1.41010    1.42000  # c1,oc,c1,hc
dihedral_coeff	47 mbt  -14.87900   -3.65810   -0.31380    1.53000  # c3h,c,c1,hc
dihedral_coeff	48 mbt  -14.87900   -3.65810   -0.31380    1.53000  # c3h,c1,c1,hc
dihedral_coeff	49 mbt  -14.87900   -3.65810   -0.31380    1.53000  # c3h,c3h,c,hc
dihedral_coeff	50 mbt  -14.87900   -3.65810   -0.31380    1.53000  # c3h,c3h,c1,hc
dihedral_coeff	51 mbt   -6.80070   -4.65460   -1.41010    1.42000  # c3h,o3e,c3h,hc
dihedral_coeff	52 mbt    0.00000    0.00000    0.00000    1.42000  # h,oh,c1,hc
dihedral_coeff	53 mbt  -14.26100   -0.53220   -0.48640    1.53000  # hc,c,c,hc
dihedral_coeff	54 mbt  -14.26100   -0.53220   -0.48640    1.53000  # hc,c,c1,hc
dihedral_coeff	55 mbt  -16.79750   -1.22960   -0.27500    1.53000  # hc,c,c1,o3e
dihedral_coeff	56 mbt  -16.79750   -1.22960   -0.27500    1.53000  # hc,c,c1,oc
dihedral_coeff	57 mbt  -14.26100   -0.53220   -0.48640    1.53000  # hc,c,c3h,hc
dihedral_coeff	58 mbt  -16.79750   -1.22960   -0.27500    1.53000  # hc,c,c3h,o3e
dihedral_coeff	59 mbt  -14.26100   -0.53220   -0.48640    1.53000  # hc,c1,c1,hc
dihedral_coeff	60 mbt  -16.79750   -1.22960   -0.27500    1.53000  # hc,c1,c1,o3e
dihedral_coeff	61 mbt  -16.79750   -1.22960   -0.27500    1.53000  # hc,c1,c1,oc
dihedral_coeff	62 mbt  -16.79750   -1.22960   -0.27500    1.53000  # hc,c1,c1,oh
dihedral_coeff	63 mbt  -14.26100   -0.53220   -0.48640    1.53000  # hc,c1,c3h,hc
dihedral_coeff	64 mbt  -16.79750   -1.22960   -0.27500    1.53000  # hc,c1,c3h,o3e
dihedral_coeff	65 mbt  -14.26100   -0.53220   -0.48640    1.53000  # hc,c3h,c3h,hc
dihedral_coeff	66 mbt  -16.79750   -1.22960   -0.27500    1.53000  # hc,c3h,c3h,o3e
dihedral_coeff	67 mbt  -17.25850   -3.61570   -0.83640    1.53000  # oc,c1,c1,oc
dihedral_coeff	68 mbt  -17.25850   -3.61570   -0.83640    1.53000  # oc,c1,c1,oh

# EndBondTorsion Coeffs

dihedral_coeff	 1 ebt   -0.07320    0.00000    0.00000   -0.07320    0.00000    0.00000    1.53000    1.53000  # c,c,c1,c1
dihedral_coeff	 2 ebt    0.08140    0.05910    0.22190    0.24860    0.24220   -0.09250    1.53000    1.10100  # c,c,c1,hc
dihedral_coeff	 3 ebt    1.15380    0.84090   -0.91380   -0.31900    0.44110   -0.71740    1.53000    1.42000  # c,c,c1,oc
dihedral_coeff	 4 ebt   -0.07320    0.00000    0.00000   -0.07320    0.00000    0.00000    1.53000    1.53000  # c,c1,c,c1
dihedral_coeff	 5 ebt    0.08140    0.05910    0.22190    0.24860    0.24220   -0.09250    1.53000    1.10100  # c,c1,c,hc
dihedral_coeff	 6 ebt   -0.07320    0.00000    0.00000   -0.07320    0.00000    0.00000    1.53000    1.53000  # c,c1,c1,c
dihedral_coeff	 7 ebt   -0.07320    0.00000    0.00000   -0.07320    0.00000    0.00000    1.53000    1.53000  # c,c1,c1,c1
dihedral_coeff	 8 ebt   -0.07320    0.00000    0.00000   -0.07320    0.00000    0.00000    1.53000    1.53000  # c,c1,c1,c3h
dihedral_coeff	 9 ebt    0.08140    0.05910    0.22190    0.24860    0.24220   -0.09250    1.53000    1.10100  # c,c1,c1,hc
dihedral_coeff	10 ebt   -0.31900    0.44110   -0.71740    1.15380    0.84090   -0.91380    1.53000    1.42000  # c,c1,c1,o3e
dihedral_coeff	11 ebt    1.15380    0.84090   -0.91380   -0.31900    0.44110   -0.71740    1.53000    1.42000  # c,c1,c1,oc
dihedral_coeff	12 ebt    1.15380    0.84090   -0.91380   -0.31900    0.44110   -0.71740    1.53000    1.42000  # c,c1,c1,oh
dihedral_coeff	13 ebt    0.47410    1.26350    0.55760   -0.24560    1.05170   -0.77950    1.53000    1.42000  # c,c1,o3e,c1
dihedral_coeff	14 ebt    0.47410    1.26350    0.55760   -0.24560    1.05170   -0.77950    1.53000    1.42000  # c,c1,oc,c1
dihedral_coeff	15 ebt   -0.07320    0.00000    0.00000   -0.07320    0.00000    0.00000    1.53000    1.53000  # c,c3h,c3h,c1
dihedral_coeff	16 ebt    0.08140    0.05910    0.22190    0.24860    0.24220   -0.09250    1.53000    1.10100  # c,c3h,c3h,hc
dihedral_coeff	17 ebt   -0.31900    0.44110   -0.71740    1.15380    0.84090   -0.91380    1.53000    1.42000  # c,c3h,c3h,o3e
dihedral_coeff	18 ebt   -0.24560    1.05170   -0.77950    0.47410    1.26350    0.55760    1.53000    1.42000  # c,c3h,o3e,c3h
dihedral_coeff	19 ebt   -0.07320    0.00000    0.00000   -0.07320    0.00000    0.00000    1.53000    1.53000  # c1,c,c,c1
dihedral_coeff	20 ebt    0.24860    0.24220   -0.09250    0.08140    0.05910    0.22190    1.53000    1.10100  # c1,c,c,hc
dihedral_coeff	21 ebt   -0.07320    0.00000    0.00000   -0.07320    0.00000    0.00000    1.53000    1.53000  # c1,c,c1,c1
dihedral_coeff	22 ebt    0.24860    0.24220   -0.09250    0.08140    0.05910    0.22190    1.53000    1.10100  # c1,c,c1,hc
dihedral_coeff	23 ebt   -0.31900    0.44110   -0.71740    1.15380    0.84090   -0.91380    1.53000    1.42000  # c1,c,c1,o3e
dihedral_coeff	24 ebt   -0.31900    0.44110   -0.71740    1.15380    0.84090   -0.91380    1.53000    1.42000  # c1,c,c1,oc
dihedral_coeff	25 ebt   -0.07320    0.00000    0.00000   -0.07320    0.00000    0.00000    1.53000    1.53000  # c1,c,c3h,c3h
dihedral_coeff	26 ebt    0.24860    0.24220   -0.09250    0.08140    0.05910    0.22190    1.53000    1.10100  # c1,c,c3h,hc
dihedral_coeff	27 ebt   -0.31900    0.44110   -0.71740    1.15380    0.84090   -0.91380    1.53000    1.42000  # c1,c,c3h,o3e
dihedral_coeff	28 ebt   -0.07320    0.00000    0.00000   -0.07320    0.00000    0.00000    1.53000    1.53000  # c1,c1,c,c3h
dihedral_coeff	29 ebt    0.24860    0.24220   -0.09250    0.08140    0.05910    0.22190    1.53000    1.10100  # c1,c1,c,hc
dihedral_coeff	30 ebt   -0.07320    0.00000    0.00000   -0.07320    0.00000    0.00000    1.53000    1.53000  # c1,c1,c1,c1
dihedral_coeff	31 ebt   -0.07320    0.00000    0.00000   -0.07320    0.00000    0.00000    1.53000    1.53000  # c1,c1,c1,c3h
dihedral_coeff	32 ebt    0.24860    0.24220   -0.09250    0.08140    0.05910    0.22190    1.53000    1.10100  # c1,c1,c1,hc
dihedral_coeff	33 ebt   -0.31900    0.44110   -0.71740    1.15380    0.84090   -0.91380    1.53000    1.42000  # c1,c1,c1,o3e
dihedral_coeff	34 ebt   -0.31900    0.44110   -0.71740    1.15380    0.84090   -0.91380    1.53000    1.42000  # c1,c1,c1,oc
dihedral_coeff	35 ebt    1.15380    0.84090   -0.91380   -0.31900    0.44110   -0.71740    1.53000    1.42000  # c1,c1,c1,oh
dihedral_coeff	36 ebt   -0.07320    0.00000    0.00000   -0.07320    0.00000    0.00000    1.53000    1.53000  # c1,c1,c3h,c3h
dihedral_coeff	37 ebt    0.24860    0.24220   -0.09250    0.08140    0.05910    0.22190    1.53000    1.10100  # c1,c1,c3h,hc
dihedral_coeff	38 ebt   -0.31900    0.44110   -0.71740    1.15380    0.84090   -0.91380    1.53000    1.42000  # c1,c1,c3h,o3e
dihedral_coeff	39 ebt   -0.24560    1.05170   -0.77950    0.47410    1.26350    0.55760    1.53000    1.42000  # c1,c1,o3e,c1
dihedral_coeff	40 ebt   -0.24560    1.05170   -0.77950    0.47410    1.26350    0.55760    1.53000    1.42000  # c1,c1,oc,c1
dihedral_coeff	41 ebt    0.00000    0.00000    0.00000    0.00000    0.00000    0.00000    1.53000    0.96000  # c1,c1,oh,h
dihedral_coeff	42 ebt    0.24860    0.24220   -0.09250    0.08140    0.05910    0.22190    1.53000    1.10100  # c1,c3h,c3h,hc
dihedral_coeff	43 ebt   -0.31900    0.44110   -0.71740    1.15380    0.84090   -0.91380    1.53000    1.42000  # c1,c3h,c3h,o3e
dihedral_coeff	44 ebt   -0.24560    1.05170   -0.77950    0.47410    1.26350    0.55760    1.53000    1.42000  # c1,c3h,o3e,c3h
dihedral_coeff	45 ebt   -0.16200    0.15640   -1.14080   -0.60540    1.33390    0.96480    1.42000    1.10100  # c1,o3e,c1,hc
dihedral_coeff	46 ebt   -0.16200    0.15640   -1.14080   -0.60540    1.33390    0.96480    1.42000    1.10100  # c1,oc,c1,hc
dihedral_coeff	47 ebt    0.08140    0.05910    0.22190    0.24860    0.24220   -0.09250    1.53000    1.10100  # c3h,c,c1,hc
dihedral_coeff	48 ebt    0.08140    0.05910    0.22190    0.24860    0.24220   -0.09250    1.53000    1.10100  # c3h,c1,c1,hc
dihedral_coeff	49 ebt    0.08140    0.05910    0.22190    0.24860    0.24220   -0.09250    1.53000    1.10100  # c3h,c3h,c,hc
dihedral_coeff	50 ebt    0.08140    0.05910    0.22190    0.24860    0.24220   -0.09250    1.53000    1.10100  # c3h,c3h,c1,hc
dihedral_coeff	51 ebt   -0.60540    1.33390    0.96480   -0.16200    0.15640   -1.14080    1.42000    1.10100  # c3h,o3e,c3h,hc
dihedral_coeff	52 ebt    0.00000    0.00000    0.00000    0.00000    0.00000    0.00000    0.96000    1.10100  # h,oh,c1,hc
dihedral_coeff	53 ebt    0.21300    0.31200    0.07770    0.21300    0.31200    0.07770    1.10100    1.10100  # hc,c,c,hc
dihedral_coeff	54 ebt    0.21300    0.31200    0.07770    0.21300    0.31200    0.07770    1.10100    1.10100  # hc,c,c1,hc
dihedral_coeff	55 ebt    0.96810    0.95510    0.04360    0.59030    0.66690    0.85840    1.10100    1.42000  # hc,c,c1,o3e
dihedral_coeff	56 ebt    0.96810    0.95510    0.04360    0.59030    0.66690    0.85840    1.10100    1.42000  # hc,c,c1,oc
dihedral_coeff	57 ebt    0.21300    0.31200    0.07770    0.21300    0.31200    0.07770    1.10100    1.10100  # hc,c,c3h,hc
dihedral_coeff	58 ebt    0.96810    0.95510    0.04360    0.59030    0.66690    0.85840    1.10100    1.42000  # hc,c,c3h,o3e
dihedral_coeff	59 ebt    0.21300    0.31200    0.07770    0.21300    0.31200    0.07770    1.10100    1.10100  # hc,c1,c1,hc
dihedral_coeff	60 ebt    0.96810    0.95510    0.04360    0.59030    0.66690    0.85840    1.10100    1.42000  # hc,c1,c1,o3e
dihedral_coeff	61 ebt    0.96810    0.95510    0.04360    0.59030    0.66690    0.85840    1.10100    1.42000  # hc,c1,c1,oc
dihedral_coeff	62 ebt    0.59030    0.66690    0.85840    0.96810    0.95510    0.04360    1.10100    1.42000  # hc,c1,c1,oh
dihedral_coeff	63 ebt    0.21300    0.31200    0.07770    0.21300    0.31200    0.07770    1.10100    1.10100  # hc,c1,c3h,hc
dihedral_coeff	64 ebt    0.96810    0.95510    0.04360    0.59030    0.66690    0.85840    1.10100    1.42000  # hc,c1,c3h,o3e
dihedral_coeff	65 ebt    0.21300    0.31200    0.07770    0.21300    0.31200    0.07770    1.10100    1.10100  # hc,c3h,c3h,hc
dihedral_coeff	66 ebt    0.96810    0.95510    0.04360    0.59030    0.66690    0.85840    1.10100    1.42000  # hc,c3h,c3h,o3e
dihedral_coeff	67 ebt    1.01650    0.75530   -0.46090    1.01650    0.75530   -0.46090    1.42000    1.42000  # oc,c1,c1,oc
dihedral_coeff	68 ebt    1.01650    0.75530   -0.46090    1.01650    0.75530   -0.46090    1.42000    1.42000  # oc,c1,c1,oh

# AngleTorsion Coeffs

dihedral_coeff	 1 at    0.38860   -0.31390    0.13890    0.38860   -0.31390    0.13890  112.67000  112.67000  # c,c,c1,c1
dihedral_coeff	 2 at    0.31130    0.45160   -0.19880   -0.24540    0.00000   -0.11360  112.67000  110.77000  # c,c,c1,hc
dihedral_coeff	 3 at    0.96720   -0.75660   -1.23310    0.56230   -0.30410   -0.40150  112.67000  111.27000  # c,c,c1,oc
dihedral_coeff	 4 at    0.38860   -0.31390    0.13890    0.38860   -0.31390    0.13890  112.67000  112.67000  # c,c1,c,c1
dihedral_coeff	 5 at    0.31130    0.45160   -0.19880   -0.24540    0.00000   -0.11360  112.67000  110.77000  # c,c1,c,hc
dihedral_coeff	 6 at    0.38860   -0.31390    0.13890    0.38860   -0.31390    0.13890  112.67000  112.67000  # c,c1,c1,c
dihedral_coeff	 7 at    0.38860   -0.31390    0.13890    0.38860   -0.31390    0.13890  112.67000  112.67000  # c,c1,c1,c1
dihedral_coeff	 8 at    0.38860   -0.31390    0.13890    0.38860   -0.31390    0.13890  112.67000  112.67000  # c,c1,c1,c3h
dihedral_coeff	 9 at    0.31130    0.45160   -0.19880   -0.24540    0.00000   -0.11360  112.67000  110.77000  # c,c1,c1,hc
dihedral_coeff	10 at    0.56230   -0.30410   -0.40150    0.96720   -0.75660   -1.23310  112.67000  111.27000  # c,c1,c1,o3e
dihedral_coeff	11 at    0.96720   -0.75660   -1.23310    0.56230   -0.30410   -0.40150  112.67000  111.27000  # c,c1,c1,oc
dihedral_coeff	12 at    0.96720   -0.75660   -1.23310    0.56230   -0.30410   -0.40150  112.67000  111.27000  # c,c1,c1,oh
dihedral_coeff	13 at    0.56760    0.94500    0.07030   -2.74660    1.48770   -0.89550  111.27000  104.50000  # c,c1,o3e,c1
dihedral_coeff	14 at    0.56760    0.94500    0.07030   -2.74660    1.48770   -0.89550  111.27000  104.50000  # c,c1,oc,c1
dihedral_coeff	15 at    0.38860   -0.31390    0.13890    0.38860   -0.31390    0.13890  112.67000  112.67000  # c,c3h,c3h,c1
dihedral_coeff	16 at    0.31130    0.45160   -0.19880   -0.24540    0.00000   -0.11360  112.67000  110.77000  # c,c3h,c3h,hc
dihedral_coeff	17 at    0.56230   -0.30410   -0.40150    0.96720   -0.75660   -1.23310  112.67000  111.27000  # c,c3h,c3h,o3e
dihedral_coeff	18 at   -2.74660    1.48770   -0.89550    0.56760    0.94500    0.07030  111.27000  104.50000  # c,c3h,o3e,c3h
dihedral_coeff	19 at    0.38860   -0.31390    0.13890    0.38860   -0.31390    0.13890  112.67000  112.67000  # c1,c,c,c1
dihedral_coeff	20 at   -0.24540    0.00000   -0.11360    0.31130    0.45160   -0.19880  112.67000  110.77000  # c1,c,c,hc
dihedral_coeff	21 at    0.38860   -0.31390    0.13890    0.38860   -0.31390    0.13890  112.67000  112.67000  # c1,c,c1,c1
dihedral_coeff	22 at   -0.24540    0.00000   -0.11360    0.31130    0.45160   -0.19880  112.67000  110.77000  # c1,c,c1,hc
dihedral_coeff	23 at    0.56230   -0.30410   -0.40150    0.96720   -0.75660   -1.23310  112.67000  111.27000  # c1,c,c1,o3e
dihedral_coeff	24 at    0.56230   -0.30410   -0.40150    0.96720   -0.75660   -1.23310  112.67000  111.27000  # c1,c,c1,oc
dihedral_coeff	25 at    0.38860   -0.31390    0.13890    0.38860   -0.31390    0.13890  112.67000  112.67000  # c1,c,c3h,c3h
dihedral_coeff	26 at   -0.24540    0.00000   -0.11360    0.31130    0.45160   -0.19880  112.67000  110.77000  # c1,c,c3h,hc
dihedral_coeff	27 at    0.56230   -0.30410   -0.40150    0.96720   -0.75660   -1.23310  112.67000  111.27000  # c1,c,c3h,o3e
dihedral_coeff	28 at    0.38860   -0.31390    0.13890    0.38860   -0.31390    0.13890  112.67000  112.67000  # c1,c1,c,c3h
dihedral_coeff	29 at   -0.24540    0.00000   -0.11360    0.31130    0.45160   -0.19880  112.67000  110.77000  # c1,c1,c,hc
dihedral_coeff	30 at    0.38860   -0.31390    0.13890    0.38860   -0.31390    0.13890  112.67000  112.67000  # c1,c1,c1,c1
dihedral_coeff	31 at    0.38860   -0.31390    0.13890    0.38860   -0.31390    0.13890  112.67000  112.67000  # c1,c1,c1,c3h
dihedral_coeff	32 at   -0.24540    0.00000   -0.11360    0.31130    0.45160   -0.19880  112.67000  110.77000  # c1,c1,c1,hc
dihedral_coeff	33 at    0.56230   -0.30410   -0.40150    0.96720   -0.75660   -1.23310  112.67000  111.27000  # c1,c1,c1,o3e
dihedral_coeff	34 at    0.56230   -0.30410   -0.40150    0.96720   -0.75660   -1.23310  112.67000  111.27000  # c1,c1,c1,oc
dihedral_coeff	35 at    0.96720   -0.75660   -1.23310    0.56230   -0.30410   -0.40150  112.67000  111.27000  # c1,c1,c1,oh
dihedral_coeff	36 at    0.38860   -0.31390    0.13890    0.38860   -0.31390    0.13890  112.67000  112.67000  # c1,c1,c3h,c3h
dihedral_coeff	37 at   -0.24540    0.00000   -0.11360    0.31130    0.45160   -0.19880  112.67000  110.77000  # c1,c1,c3h,hc
dihedral_coeff	38 at    0.56230   -0.30410   -0.40150    0.96720   -0.75660   -1.23310  112.67000  111.27000  # c1,c1,c3h,o3e
dihedral_coeff	39 at   -2.74660    1.48770   -0.89550    0.56760    0.94500    0.07030  111.27000  104.50000  # c1,c1,o3e,c1
dihedral_coeff	40 at   -2.74660    1.48770   -0.89550    0.56760    0.94500    0.07030  111.27000  104.50000  # c1,c1,oc,c1
dihedral_coeff	41 at    0.00000    0.00000    0.00000    0.00000    0.00000    0.00000  111.27000  109.00000  # c1,c1,oh,h
dihedral_coeff	42 at   -0.24540    0.00000   -0.11360    0.31130    0.45160   -0.19880  112.67000  110.77000  # c1,c3h,c3h,hc
dihedral_coeff	43 at    0.56230   -0.30410   -0.40150    0.96720   -0.75660   -1.23310  112.67000  111.27000  # c1,c3h,c3h,o3e
dihedral_coeff	44 at   -2.74660    1.48770   -0.89550    0.56760    0.94500    0.07030  111.27000  104.50000  # c1,c3h,o3e,c3h
dihedral_coeff	45 at   -0.77770    0.43400   -0.66530   -1.82340    1.63930    0.51440  104.50000  108.72800  # c1,o3e,c1,hc
dihedral_coeff	46 at   -0.77770    0.43400   -0.66530   -1.82340    1.63930    0.51440  104.50000  108.72800  # c1,oc,c1,hc
dihedral_coeff	47 at    0.31130    0.45160   -0.19880   -0.24540    0.00000   -0.11360  112.67000  110.77000  # c3h,c,c1,hc
dihedral_coeff	48 at    0.31130    0.45160   -0.19880   -0.24540    0.00000   -0.11360  112.67000  110.77000  # c3h,c1,c1,hc
dihedral_coeff	49 at    0.31130    0.45160   -0.19880   -0.24540    0.00000   -0.11360  112.67000  110.77000  # c3h,c3h,c,hc
dihedral_coeff	50 at    0.31130    0.45160   -0.19880   -0.24540    0.00000   -0.11360  112.67000  110.77000  # c3h,c3h,c1,hc
dihedral_coeff	51 at   -1.82340    1.63930    0.51440   -0.77770    0.43400   -0.66530  104.50000  108.72800  # c3h,o3e,c3h,hc
dihedral_coeff	52 at    0.00000    0.00000    0.00000    0.00000    0.00000    0.00000  109.00000  108.72800  # h,oh,c1,hc
dihedral_coeff	53 at   -0.80850    0.55690   -0.24660   -0.80850    0.55690   -0.24660  110.77000  110.77000  # hc,c,c,hc
dihedral_coeff	54 at   -0.80850    0.55690   -0.24660   -0.80850    0.55690   -0.24660  110.77000  110.77000  # hc,c,c1,hc
dihedral_coeff	55 at    2.36680    2.49200   -1.01220   -0.18920    0.49180    0.72730  110.77000  111.27000  # hc,c,c1,o3e
dihedral_coeff	56 at    2.36680    2.49200   -1.01220   -0.18920    0.49180    0.72730  110.77000  111.27000  # hc,c,c1,oc
dihedral_coeff	57 at   -0.80850    0.55690   -0.24660   -0.80850    0.55690   -0.24660  110.77000  110.77000  # hc,c,c3h,hc
dihedral_coeff	58 at    2.36680    2.49200   -1.01220   -0.18920    0.49180    0.72730  110.77000  111.27000  # hc,c,c3h,o3e
dihedral_coeff	59 at   -0.80850    0.55690   -0.24660   -0.80850    0.55690   -0.24660  110.77000  110.77000  # hc,c1,c1,hc
dihedral_coeff	60 at    2.36680    2.49200   -1.01220   -0.18920    0.49180    0.72730  110.77000  111.27000  # hc,c1,c1,o3e
dihedral_coeff	61 at    2.36680    2.49200   -1.01220   -0.18920    0.49180    0.72730  110.77000  111.27000  # hc,c1,c1,oc
dihedral_coeff	62 at   -0.18920    0.49180    0.72730    2.36680    2.49200   -1.01220  110.77000  111.27000  # hc,c1,c1,oh
dihedral_coeff	63 at   -0.80850    0.55690   -0.24660   -0.80850    0.55690   -0.24660  110.77000  110.77000  # hc,c1,c3h,hc
dihedral_coeff	64 at    2.36680    2.49200   -1.01220   -0.18920    0.49180    0.72730  110.77000  111.27000  # hc,c1,c3h,o3e
dihedral_coeff	65 at   -0.80850    0.55690   -0.24660   -0.80850    0.55690   -0.24660  110.77000  110.77000  # hc,c3h,c3h,hc
dihedral_coeff	66 at    2.36680    2.49200   -1.01220   -0.18920    0.49180    0.72730  110.77000  111.27000  # hc,c3h,c3h,o3e
dihedral_coeff	67 at    0.55110    0.97370   -0.66730    0.55110    0.97370   -0.66730  111.27000  111.27000  # oc,c1,c1,oc
dihedral_coeff	68 at    0.55110    0.97370   -0.66730    0.55110    0.97370   -0.66730  111.27000  111.27000  # oc,c1,c1,oh

# AngleAngleTorsion Coeffs

dihedral_coeff	 1 aat  -22.04500  112.67000  112.67000  # c,c,c1,c1
dihedral_coeff	 2 aat  -16.16400  112.67000  110.77000  # c,c,c1,hc
dihedral_coeff	 3 aat  -29.04200  112.67000  111.27000  # c,c,c1,oc
dihedral_coeff	 4 aat  -22.04500  112.67000  112.67000  # c,c1,c,c1
dihedral_coeff	 5 aat  -16.16400  112.67000  110.77000  # c,c1,c,hc
dihedral_coeff	 6 aat  -22.04500  112.67000  112.67000  # c,c1,c1,c
dihedral_coeff	 7 aat  -22.04500  112.67000  112.67000  # c,c1,c1,c1
dihedral_coeff	 8 aat  -22.04500  112.67000  112.67000  # c,c1,c1,c3h
dihedral_coeff	 9 aat  -16.16400  112.67000  110.77000  # c,c1,c1,hc
dihedral_coeff	10 aat  -29.04200  112.67000  111.27000  # c,c1,c1,o3e
dihedral_coeff	11 aat  -29.04200  112.67000  111.27000  # c,c1,c1,oc
dihedral_coeff	12 aat  -29.04200  112.67000  111.27000  # c,c1,c1,oh
dihedral_coeff	13 aat  -19.00590  111.27000  104.50000  # c,c1,o3e,c1
dihedral_coeff	14 aat  -19.00590  111.27000  104.50000  # c,c1,oc,c1
dihedral_coeff	15 aat  -22.04500  112.67000  112.67000  # c,c3h,c3h,c1
dihedral_coeff	16 aat  -16.16400  112.67000  110.77000  # c,c3h,c3h,hc
dihedral_coeff	17 aat  -29.04200  112.67000  111.27000  # c,c3h,c3h,o3e
dihedral_coeff	18 aat  -19.00590  111.27000  104.50000  # c,c3h,o3e,c3h
dihedral_coeff	19 aat  -22.04500  112.67000  112.67000  # c1,c,c,c1
dihedral_coeff	20 aat  -16.16400  112.67000  110.77000  # c1,c,c,hc
dihedral_coeff	21 aat  -22.04500  112.67000  112.67000  # c1,c,c1,c1
dihedral_coeff	22 aat  -16.16400  112.67000  110.77000  # c1,c,c1,hc
dihedral_coeff	23 aat  -29.04200  112.67000  111.27000  # c1,c,c1,o3e
dihedral_coeff	24 aat  -29.04200  112.67000  111.27000  # c1,c,c1,oc
dihedral_coeff	25 aat  -22.04500  112.67000  112.67000  # c1,c,c3h,c3h
dihedral_coeff	26 aat  -16.16400  112.67000  110.77000  # c1,c,c3h,hc
dihedral_coeff	27 aat  -29.04200  112.67000  111.27000  # c1,c,c3h,o3e
dihedral_coeff	28 aat  -22.04500  112.67000  112.67000  # c1,c1,c,c3h
dihedral_coeff	29 aat  -16.16400  112.67000  110.77000  # c1,c1,c,hc
dihedral_coeff	30 aat  -22.04500  112.67000  112.67000  # c1,c1,c1,c1
dihedral_coeff	31 aat  -22.04500  112.67000  112.67000  # c1,c1,c1,c3h
dihedral_coeff	32 aat  -16.16400  112.67000  110.77000  # c1,c1,c1,hc
dihedral_coeff	33 aat  -29.04200  112.67000  111.27000  # c1,c1,c1,o3e
dihedral_coeff	34 aat  -29.04200  112.67000  111.27000  # c1,c1,c1,oc
dihedral_coeff	35 aat  -29.04200  112.67000  111.27000  # c1,c1,c1,oh
dihedral_coeff	36 aat  -22.04500  112.67000  112.67000  # c1,c1,c3h,c3h
dihedral_coeff	37 aat  -16.16400  112.67000  110.77000  # c1,c1,c3h,hc
dihedral_coeff	38 aat  -29.04200  112.67000  111.27000  # c1,c1,c3h,o3e
dihedral_coeff	39 aat  -19.00590  111.27000  104.50000  # c1,c1,o3e,c1
dihedral_coeff	40 aat  -19.00590  111.27000  104.50000  # c1,c1,oc,c1
dihedral_coeff	41 aat    0.00000  111.27000  109.00000  # c1,c1,oh,h
dihedral_coeff	42 aat  -16.16400  112.67000  110.77000  # c1,c3h,c3h,hc
dihedral_coeff	43 aat  -29.04200  112.67000  111.27000  # c1,c3h,c3h,o3e
dihedral_coeff	44 aat  -19.00590  111.27000  104.50000  # c1,c3h,o3e,c3h
dihedral_coeff	45 aat  -16.44380  104.50000  108.72800  # c1,o3e,c1,hc
dihedral_coeff	46 aat  -16.44380  104.50000  108.72800  # c1,oc,c1,hc
dihedral_coeff	47 aat  -16.16400  112.67000  110.77000  # c3h,c,c1,hc
dihedral_coeff	48 aat  -16.16400  112.67000  110.77000  # c3h,c1,c1,hc
dihedral_coeff	49 aat  -16.16400  112.67000  110.77000  # c3h,c3h,c,hc
dihedral_coeff	50 aat  -16.16400  112.67000  110.77000  # c3h,c3h,c1,hc
dihedral_coeff	51 aat  -16.44380  104.50000  108.72800  # c3h,o3e,c3h,hc
dihedral_coeff	52 aat    0.00000  109.00000  108.72800  # h,oh,c1,hc
dihedral_coeff	53 aat  -12.56400  110.77000  110.77000  # hc,c,c,hc
dihedral_coeff	54 aat  -12.56400  110.77000  110.77000  # hc,c,c1,hc
dihedral_coeff	55 aat  -20.20060  110.77000  111.27000  # hc,c,c1,o3e
dihedral_coeff	56 aat  -20.20060  110.77000  111.27000  # hc,c,c1,oc
dihedral_coeff	57 aat  -12.56400  110.77000  110.77000  # hc,c,c3h,hc
dihedral_coeff	58 aat  -20.20060  110.77000  111.27000  # hc,c,c3h,o3e
dihedral_coeff	59 aat  -12.56400  110.77000  110.77000  # hc,c1,c1,hc
dihedral_coeff	60 aat  -20.20060  110.77000  111.27000  # hc,c1,c1,o3e
dihedral_coeff	61 aat  -20.20060  110.77000  111.27000  # hc,c1,c1,oc
dihedral_coeff	62 aat  -20.20060  110.77000  111.27000  # hc,c1,c1,oh
dihedral_coeff	63 aat  -12.56400  110.77000  110.77000  # hc,c1,c3h,hc
dihedral_coeff	64 aat  -20.20060  110.77000  111.27000  # hc,c1,c3h,o3e
dihedral_coeff	65 aat  -12.56400  110.77000  110.77000  # hc,c3h,c3h,hc
dihedral_coeff	66 aat  -20.20060  110.77000  111.27000  # hc,c3h,c3h,o3e
dihedral_coeff	67 aat  -14.04840  111.27000  111.27000  # oc,c1,c1,oc
dihedral_coeff	68 aat  -14.04840  111.27000  111.27000  # oc,c1,c1,oh

# BondBond13 Coeffs

dihedral_coeff	 1 bb13    0.00000    1.53000    1.53000  # c,c,c1,c1
dihedral_coeff	 2 bb13    0.00000    1.53000    1.10100  # c,c,c1,hc
dihedral_coeff	 3 bb13    0.00000    1.53000    1.42000  # c,c,c1,oc
dihedral_coeff	 4 bb13    0.00000    1.53000    1.53000  # c,c1,c,c1
dihedral_coeff	 5 bb13    0.00000    1.53000    1.10100  # c,c1,c,hc
dihedral_coeff	 6 bb13    0.00000    1.53000    1.53000  # c,c1,c1,c
dihedral_coeff	 7 bb13    0.00000    1.53000    1.53000  # c,c1,c1,c1
dihedral_coeff	 8 bb13    0.00000    1.53000    1.53000  # c,c1,c1,c3h
dihedral_coeff	 9 bb13    0.00000    1.53000    1.10100  # c,c1,c1,hc
dihedral_coeff	10 bb13    0.00000    1.53000    1.42000  # c,c1,c1,o3e
dihedral_coeff	11 bb13    0.00000    1.53000    1.42000  # c,c1,c1,oc
dihedral_coeff	12 bb13    0.00000    1.53000    1.42000  # c,c1,c1,oh
dihedral_coeff	13 bb13    0.00000    1.53000    1.42000  # c,c1,o3e,c1
dihedral_coeff	14 bb13    0.00000    1.53000    1.42000  # c,c1,oc,c1
dihedral_coeff	15 bb13    0.00000    1.53000    1.53000  # c,c3h,c3h,c1
dihedral_coeff	16 bb13    0.00000    1.53000    1.10100  # c,c3h,c3h,hc
dihedral_coeff	17 bb13    0.00000    1.53000    1.42000  # c,c3h,c3h,o3e
dihedral_coeff	18 bb13    0.00000    1.53000    1.42000  # c,c3h,o3e,c3h
dihedral_coeff	19 bb13    0.00000    1.53000    1.53000  # c1,c,c,c1
dihedral_coeff	20 bb13    0.00000    1.53000    1.10100  # c1,c,c,hc
dihedral_coeff	21 bb13    0.00000    1.53000    1.53000  # c1,c,c1,c1
dihedral_coeff	22 bb13    0.00000    1.53000    1.10100  # c1,c,c1,hc
dihedral_coeff	23 bb13    0.00000    1.53000    1.42000  # c1,c,c1,o3e
dihedral_coeff	24 bb13    0.00000    1.53000    1.42000  # c1,c,c1,oc
dihedral_coeff	25 bb13    0.00000    1.53000    1.53000  # c1,c,c3h,c3h
dihedral_coeff	26 bb13    0.00000    1.53000    1.10100  # c1,c,c3h,hc
dihedral_coeff	27 bb13    0.00000    1.53000    1.42000  # c1,c,c3h,o3e
dihedral_coeff	28 bb13    0.00000    1.53000    1.53000  # c1,c1,c,c3h
dihedral_coeff	29 bb13    0.00000    1.53000    1.10100  # c1,c1,c,hc
dihedral_coeff	30 bb13    0.00000    1.53000    1.53000  # c1,c1,c1,c1
dihedral_coeff	31 bb13    0.00000    1.53000    1.53000  # c1,c1,c1,c3h
dihedral_coeff	32 bb13    0.00000    1.53000    1.10100  # c1,c1,c1,hc
dihedral_coeff	33 bb13    0.00000    1.53000    1.42000  # c1,c1,c1,o3e
dihedral_coeff	34 bb13    0.00000    1.53000    1.42000  # c1,c1,c1,oc
dihedral_coeff	35 bb13    0.00000    1.53000    1.42000  # c1,c1,c1,oh
dihedral_coeff	36 bb13    0.00000    1.53000    1.53000  # c1,c1,c3h,c3h
dihedral_coeff	37 bb13    0.00000    1.53000    1.10100  # c1,c1,c3h,hc
dihedral_coeff	38 bb13    0.00000    1.53000    1.42000  # c1,c1,c3h,o3e
dihedral_coeff	39 bb13    0.00000    1.53000    1.42000  # c1,c1,o3e,c1
dihedral_coeff	40 bb13    0.00000    1.53000    1.42000  # c1,c1,oc,c1
dihedral_coeff	41 bb13    0.00000    1.53000    0.96000  # c1,c1,oh,h
dihedral_coeff	42 bb13    0.00000    1.53000    1.10100  # c1,c3h,c3h,hc
dihedral_coeff	43 bb13    0.00000    1.53000    1.42000  # c1,c3h,c3h,o3e
dihedral_coeff	44 bb13    0.00000    1.53000    1.42000  # c1,c3h,o3e,c3h
dihedral_coeff	45 bb13    0.00000    1.42000    1.10100  # c1,o3e,c1,hc
dihedral_coeff	46 bb13    0.00000    1.42000    1.10100  # c1,oc,c1,hc
dihedral_coeff	47 bb13    0.00000    1.53000    1.10100  # c3h,c,c1,hc
dihedral_coeff	48 bb13    0.00000    1.53000    1.10100  # c3h,c1,c1,hc
dihedral_coeff	49 bb13    0.00000    1.53000    1.10100  # c3h,c3h,c,hc
dihedral_coeff	50 bb13    0.00000    1.53000    1.10100  # c3h,c3h,c1,hc
dihedral_coeff	51 bb13    0.00000    1.42000    1.10100  # c3h,o3e,c3h,hc
dihedral_coeff	52 bb13    0.00000    0.96000    1.10100  # h,oh,c1,hc
dihedral_coeff	53 bb13    0.00000    1.10100    1.10100  # hc,c,c,hc
dihedral_coeff	54 bb13    0.00000    1.10100    1.10100  # hc,c,c1,hc
dihedral_coeff	55 bb13    0.00000    1.10100    1.42000  # hc,c,c1,o3e
dihedral_coeff	56 bb13    0.00000    1.10100    1.42000  # hc,c,c1,oc
dihedral_coeff	57 bb13    0.00000    1.10100    1.10100  # hc,c,c3h,hc
dihedral_coeff	58 bb13    0.00000    1.10100    1.42000  # hc,c,c3h,o3e
dihedral_coeff	59 bb13    0.00000    1.10100    1.10100  # hc,c1,c1,hc
dihedral_coeff	60 bb13    0.00000    1.10100    1.42000  # hc,c1,c1,o3e
dihedral_coeff	61 bb13    0.00000    1.10100    1.42000  # hc,c1,c1,oc
dihedral_coeff	62 bb13    0.00000    1.10100    1.42000  # hc,c1,c1,oh
dihedral_coeff	63 bb13    0.00000    1.10100    1.10100  # hc,c1,c3h,hc
dihedral_coeff	64 bb13    0.00000    1.10100    1.42000  # hc,c1,c3h,o3e
dihedral_coeff	65 bb13    0.00000    1.10100    1.10100  # hc,c3h,c3h,hc
dihedral_coeff	66 bb13    0.00000    1.10100    1.42000  # hc,c3h,c3h,o3e
dihedral_coeff	67 bb13    0.00000    1.42000    1.42000  # oc,c1,c1,oc
dihedral_coeff	68 bb13    0.00000    1.42000    1.42000  # oc,c1,c1,oh

# Improper Coeffs

improper_coeff	 1    0.00000    0.00000  # c,c,c1,hc
improper_coeff	 2    0.00000    0.00000  # c,c,hc,c1
improper_coeff	 3    0.00000    0.00000  # c,c,hc,hc
improper_coeff	 4    0.00000    0.00000  # c,c1,c1,hc
improper_coeff	 5    0.00000    0.00000  # c,c1,hc,c3h
improper_coeff	 6    0.00000    0.00000  # c,c1,hc,hc
improper_coeff	 7    0.00000    0.00000  # c,c3h,hc,hc
improper_coeff	 8    0.00000    0.00000  # c1,c,c,c1
improper_coeff	 9    0.00000    0.00000  # c1,c,c,hc
improper_coeff	10    0.00000    0.00000  # c1,c,c1,c1
improper_coeff	11    0.00000    0.00000  # c1,c,c1,hc
improper_coeff	12    0.00000    0.00000  # c1,c,c1,oc
improper_coeff	13    0.00000    0.00000  # c1,c,hc,c1
improper_coeff	14    0.00000    0.00000  # c1,c,hc,oc
improper_coeff	15    0.00000    0.00000  # c1,c,o3e,c1
improper_coeff	16    0.00000    0.00000  # c1,c,o3e,hc
improper_coeff	17    0.00000    0.00000  # c1,c,oc,c1
improper_coeff	18    0.00000    0.00000  # c1,c,oc,hc
improper_coeff	19    0.00000    0.00000  # c1,c1,c1,c1
improper_coeff	20    0.00000    0.00000  # c1,c1,c1,c3h
improper_coeff	21    0.00000    0.00000  # c1,c1,c1,hc
improper_coeff	22    0.00000    0.00000  # c1,c1,c1,o3e
improper_coeff	23    0.00000    0.00000  # c1,c1,c1,oc
improper_coeff	24    0.00000    0.00000  # c1,c1,c1,oh
improper_coeff	25    0.00000    0.00000  # c1,c1,c3h,hc
improper_coeff	26    0.00000    0.00000  # c1,c1,hc,c3h
improper_coeff	27    0.00000    0.00000  # c1,c1,hc,o3e
improper_coeff	28    0.00000    0.00000  # c1,c1,hc,oc
improper_coeff	29    0.00000    0.00000  # c1,c1,hc,oh
improper_coeff	30    0.00000    0.00000  # c1,c1,o3e,hc
improper_coeff	31    0.00000    0.00000  # c1,c1,oc,hc
improper_coeff	32    0.00000    0.00000  # c3h,c,hc,c3h
improper_coeff	33    0.00000    0.00000  # c3h,c,o3e,c3h
improper_coeff	34    0.00000    0.00000  # c3h,c,o3e,hc
improper_coeff	35    0.00000    0.00000  # c3h,c1,c3h,hc
improper_coeff	36    0.00000    0.00000  # c3h,c1,c3h,o3e
improper_coeff	37    0.00000    0.00000  # c3h,c1,o3e,hc
improper_coeff	38    0.00000    0.00000  # c3h,c3h,o3e,hc

# AngleAngle Coeffs

improper_coeff	 1 aa    0.00000   -1.31990    0.00000  112.67000  110.77000  110.77000  # c,c,c1,hc
improper_coeff	 2 aa    0.00000   -1.31990    0.00000  110.77000  112.67000  110.77000  # c,c,hc,c1
improper_coeff	 3 aa    0.00000   -0.48250    0.00000  110.77000  110.77000  107.66000  # c,c,hc,hc
improper_coeff	 4 aa   -1.31990   -1.31990    0.11840  112.67000  110.77000  110.77000  # c,c1,c1,hc
improper_coeff	 5 aa    0.11840    0.00000   -1.31990  110.77000  112.67000  110.77000  # c,c1,hc,c3h
improper_coeff	 6 aa    0.27380   -0.48250    0.27380  110.77000  110.77000  107.66000  # c,c1,hc,hc
improper_coeff	 7 aa    0.00000   -0.48250    0.00000  110.77000  110.77000  107.66000  # c,c3h,hc,hc
improper_coeff	 8 aa    0.00000    0.00000   -0.17290  112.67000  112.67000  112.67000  # c1,c,c,c1
improper_coeff	 9 aa    0.00000    0.00000    0.11840  112.67000  110.77000  110.77000  # c1,c,c,hc
improper_coeff	10 aa    0.00000   -0.17290    0.00000  112.67000  112.67000  112.67000  # c1,c,c1,c1
improper_coeff	11 aa    0.00000   -1.31990    0.00000  112.67000  110.77000  110.77000  # c1,c,c1,hc
improper_coeff	12 aa    0.00000   -0.83300    0.00000  112.67000  111.27000  111.27000  # c1,c,c1,oc
improper_coeff	13 aa    0.00000   -1.31990    0.00000  110.77000  112.67000  110.77000  # c1,c,hc,c1
improper_coeff	14 aa    0.00000    2.59260    0.00000  110.77000  111.27000  108.72800  # c1,c,hc,oc
improper_coeff	15 aa    0.00000   -0.83300   -0.83300  111.27000  112.67000  111.27000  # c1,c,o3e,c1
improper_coeff	16 aa    0.00000    2.59260    3.91770  111.27000  110.77000  108.72800  # c1,c,o3e,hc
improper_coeff	17 aa    0.00000   -0.83300    0.00000  111.27000  112.67000  111.27000  # c1,c,oc,c1
improper_coeff	18 aa    0.00000    2.59260    0.00000  111.27000  110.77000  108.72800  # c1,c,oc,hc
improper_coeff	19 aa   -0.17290   -0.17290   -0.17290  112.67000  112.67000  112.67000  # c1,c1,c1,c1
improper_coeff	20 aa   -0.17290   -0.17290   -0.17290  112.67000  112.67000  112.67000  # c1,c1,c1,c3h
improper_coeff	21 aa   -1.31990   -1.31990    0.11840  112.67000  110.77000  110.77000  # c1,c1,c1,hc
improper_coeff	22 aa   -0.83300   -0.83300   -3.57440  112.67000  111.27000  111.27000  # c1,c1,c1,o3e
improper_coeff	23 aa   -0.83300   -0.83300   -3.57440  112.67000  111.27000  111.27000  # c1,c1,c1,oc
improper_coeff	24 aa    0.00000    0.00000   -3.57440  112.67000  111.27000  111.27000  # c1,c1,c1,oh
improper_coeff	25 aa   -1.31990    0.00000    0.11840  112.67000  110.77000  110.77000  # c1,c1,c3h,hc
improper_coeff	26 aa    0.11840    0.00000   -1.31990  110.77000  112.67000  110.77000  # c1,c1,hc,c3h
improper_coeff	27 aa    3.91770    2.59260    0.16890  110.77000  111.27000  108.72800  # c1,c1,hc,o3e
improper_coeff	28 aa    3.91770    2.59260    0.16890  110.77000  111.27000  108.72800  # c1,c1,hc,oc
improper_coeff	29 aa    0.00000    0.00000    0.16890  110.77000  111.27000  108.72800  # c1,c1,hc,oh
improper_coeff	30 aa    0.16890    2.59260    3.91770  111.27000  110.77000  108.72800  # c1,c1,o3e,hc
improper_coeff	31 aa    0.16890    2.59260    3.91770  111.27000  110.77000  108.72800  # c1,c1,oc,hc
improper_coeff	32 aa    0.11840    0.00000    0.00000  110.77000  112.67000  110.77000  # c3h,c,hc,c3h
improper_coeff	33 aa   -3.57440    0.00000   -0.83300  111.27000  112.67000  111.27000  # c3h,c,o3e,c3h
improper_coeff	34 aa    0.00000    2.59260    3.91770  111.27000  110.77000  108.72800  # c3h,c,o3e,hc
improper_coeff	35 aa   -1.31990    0.00000    0.11840  112.67000  110.77000  110.77000  # c3h,c1,c3h,hc
improper_coeff	36 aa   -0.83300    0.00000   -3.57440  112.67000  111.27000  111.27000  # c3h,c1,c3h,o3e
improper_coeff	37 aa    0.16890    2.59260    3.91770  111.27000  110.77000  108.72800  # c3h,c1,o3e,hc
improper_coeff	38 aa    0.00000    2.59260    0.00000  111.27000  110.77000  108.72800  # c3h,c3h,o3e,hc

# ------------------------------- OPT Section -------------------------------
minimize 1.0e-5 1.0e-7 100000 400000
PPPM initialization ...
  using 12-bit tables for long-range coulomb (../kspace.cpp:342)
  G vector (1/distance) = 0.18266917
  grid = 10 10 10
  stencil order = 5
  estimated absolute RMS force accuracy = 0.02230145
  estimated relative force accuracy = 6.7160156e-05
  using double precision KISS FFT
  3d grid and FFT values/proc = 1350 200
Generated 28 of 28 mixed pair_coeff terms from sixthpower/geometric mixing rule
Neighbor list info ...
  update: every = 1 steps, delay = 0 steps, check = yes
  max neighbors/atom: 2000, page size: 100000
  master list distance cutoff = 12
  ghost atom cutoff = 12
  binsize = 6, bins = 8 8 8
  1 neighbor lists, perpetual/occasional/extra = 1 0 0
  (1) pair lj/class2/coul/long, perpetual
      attributes: half, newton on
      pair build: half/bin/newton
      stencil: half/bin/3d
      bin: standard
Per MPI rank memory allocation (min/avg/max) = 29.8 | 29.94 | 30.21 Mbytes
   Step          Temp          E_pair         E_mol          TotEng         Press     
         0   0             -7.6147155      44405.895      44398.28      -2935.6138    
        19   0             -8.0793958      44350.324      44342.245     -2946.7336    
Loop time of 2.17283 on 6 procs for 19 steps with 3976 atoms

99.2% CPU use with 6 MPI tasks x no OpenMP threads

Minimization stats:
  Stopping criterion = energy tolerance
  Energy initial, next-to-last, final = 
      44398.2801680695   44342.5083082018   44342.2449075989
  Force two-norm initial, final = 7042.9679 4969.4307
  Force max component initial, final = 2509.6584 2137.9497
  Final line search alpha, max atom move = 3.4179938e-08 7.3074988e-05
  Iterations, force evaluations = 19 268

MPI task timing breakdown:
Section |  min time  |  avg time  |  max time  |%varavg| %total
---------------------------------------------------------------
Pair    | 0.44282    | 0.52147    | 0.73639    |  15.1 | 24.00
Bond    | 0.87666    | 0.98518    | 1.1048     |   8.3 | 45.34
Kspace  | 0.27961    | 0.61449    | 0.80027    |  23.5 | 28.28
Neigh   | 0          | 0          | 0          |   0.0 |  0.00
Comm    | 0.029333   | 0.031825   | 0.033246   |   0.8 |  1.46
Output  | 0          | 0          | 0          |   0.0 |  0.00
Modify  | 0          | 0          | 0          |   0.0 |  0.00
Other   |            | 0.01988    |            |       |  0.91

Nlocal:        662.667 ave         783 max         604 min
Histogram: 1 1 2 1 0 0 0 0 0 1
Nghost:           4534 ave        4740 max        4430 min
Histogram: 1 2 1 0 1 0 0 0 0 1
Neighs:         103220 ave      142159 max       87824 min
Histogram: 4 0 0 0 0 1 0 0 0 1

Total # of neighbors = 619318
Ave neighs/atom = 155.76408
Ave special neighs/atom = 13.641348
Neighbor list builds = 0
Dangerous builds = 0
# ------------------------------- Run Section -------------------------------
#

thermo_style custom step temp pe evdwl ecoul ebond eangle edihed eimp density vol
thermo          100

neigh_modify delay 0 every 1 check yes

fix Langevin  all langevin 300 300 100.0 482432
fix moveLimit all nve/limit 0.1
run 10000
PPPM initialization ...
  using 12-bit tables for long-range coulomb (../kspace.cpp:342)
  G vector (1/distance) = 0.18266917
  grid = 10 10 10
  stencil order = 5
  estimated absolute RMS force accuracy = 0.02230145
  estimated relative force accuracy = 6.7160156e-05
  using double precision KISS FFT
  3d grid and FFT values/proc = 1350 200
Generated 28 of 28 mixed pair_coeff terms from sixthpower/geometric mixing rule
Per MPI rank memory allocation (min/avg/max) = 28.67 | 28.81 | 29.09 Mbytes
   Step          Temp          PotEng         E_vdwl         E_coul         E_bond        E_angle        E_dihed        E_impro        Density         Volume    
        19   0              44342.245      164.05032      1229.3536      3759.811       46609.972     -5923.2749     -96.183247      0.44999999     100038.64    
       100   416.24216      41575.842     -167.24121      1157.4521      2538.0533      45868.488     -6144.7503     -271.33351      0.44999999     100038.64    
       200   354.68126      40332.237     -449.97474      1156.7683      2336.6431      44849.502     -5896.0051     -256.84029      0.44999999     100038.64    
       300   324.99475      39917.621     -560.99458      1139.9215      2260.9986      44713.09      -5964.0907     -264.65951      0.44999999     100038.64    
       400   316.35358      39688.005     -559.91131      1131.5115      2181.9773      44751.847     -6127.951      -281.55893      0.44999999     100038.64    
       500   317.94113      39659.877     -625.42846      1133.796       2223.1306      44489.223     -5875.1388     -277.14016      0.44999999     100038.64    
       600   311.07876      39595.559     -582.42715      1132.1918      2192.189       44522.488     -5991.2064     -269.54045      0.44999999     100038.64    
       700   307.39814      39553.691     -593.51554      1121.8378      2207.076       44498.227     -6014.1799     -258.35175      0.44999999     100038.64    
       800   308.97993      39629.609     -600.90799      1118.2167      2283.6496      44698.98      -6181.4153     -280.96399      0.44999999     100038.64    
       900   300.70393      39638.349     -603.99368      1111.112       2269.848       44484.775     -5938.0709     -276.47218      0.44999999     100038.64    
      1000   300.99252      39492.714     -614.16206      1118.3002      2150.054       44477.777     -5968.1761     -262.5762       0.44999999     100038.64    
      1100   307.48763      39676.672     -571.16394      1116.5553      2254.6518      44521.683     -5957.7713     -278.33684      0.44999999     100038.64    
      1200   301.87857      39437.921     -601.42023      1119.1769      2120.5703      44522.193     -6039.1701     -275.231        0.44999999     100038.64    
      1300   316.61156      39553.175     -662.68804      1114.7898      2189.8749      44364.472     -5781.3567     -261.88895      0.44999999     100038.64    
      1400   311.30998      39335.885     -653.27033      1112.7351      2105.0364      44281.355     -5823.6193     -275.78565      0.44999999     100038.64    
      1500   310.76161      39330.186     -659.85954      1099.5192      2187.2108      44216.087     -5839.7005     -261.81827      0.44999999     100038.64    
      1600   338.98746      39414.468     -637.36218      1101.1553      2231.5458      44248.952     -5853.6765     -263.614        0.44999999     100038.64    
      1700   310.54548      39343.449     -643.16396      1107.9114      2194.3566      44061.044     -5693.7815     -269.85421      0.44999999     100038.64    
      1800   309.15926      39337.217     -664.67252      1100.9914      2149.8068      44217.193     -5784.7531     -267.62732      0.44999999     100038.64    
      1900   303.5738       39183.197     -687.09971      1107.9736      2174.2554      43966.206     -5707.0425     -257.76478      0.44999999     100038.64    
      2000   299.22492      39270.98      -655.97021      1100.9818      2133.7042      44221.288     -5837.9835     -278.62676      0.44999999     100038.64    
      2100   301.45286      39271.714     -666.31168      1099.6813      2183.7935      44172.759     -5833.2341     -273.12474      0.44999999     100038.64    
      2200   303.86042      39365.56      -682.68125      1111.2505      2220.93        44113.179     -5731.4472     -252.45275      0.44999999     100038.64    
      2300   308.70917      39145.785     -687.68401      1109.0662      2149.7688      43988.818     -5737.2804     -264.33058      0.44999999     100038.64    
      2400   305.18403      39130.654     -710.78738      1101.3515      2108.118       44116.933     -5799.6673     -272.79925      0.44999999     100038.64    
      2500   297.24706      39103.492     -683.24398      1097.513       2107.2818      43889.375     -5635.8318     -259.0954       0.44999999     100038.64    
      2600   305.30062      39062.724     -693.67482      1099.5253      2121.0391      43863.07      -5649.9835     -265.1007       0.44999999     100038.64    
      2700   297.07937      38964.569     -710.50346      1098.9763      2054.5538      44010.341     -5801.7933     -273.90131      0.44999999     100038.64    
      2800   292.97153      38985.648     -721.13234      1101.1401      2115.5593      43838.85      -5667.4515     -268.80764      0.44999999     100038.64    
      2900   303.6695       39111.801     -714.59296      1104.1689      2125.974       43945.284     -5679.5487     -257.40126      0.44999999     100038.64    
      3000   297.81046      39008.374     -682.38509      1090.3157      2147.4386      43880.383     -5742.8016     -271.96495      0.44999999     100038.64    
      3100   299.72398      39001.663     -715.05351      1093.6984      2119.4896      43970.014     -5775.573      -279.62527      0.44999999     100038.64    
      3200   307.32695      39067.336     -716.37756      1093.2347      2136.307       44072.332     -5825.6996     -279.96429      0.44999999     100038.64    
      3300   302.28868      39012.542     -717.24313      1096.5677      2125.4259      43896.453     -5706.3107     -270.04743      0.44999999     100038.64    
      3400   302.65656      39078.017     -712.24624      1091.5897      2060.7315      44011.482     -5694.6236     -266.52306      0.44999999     100038.64    
      3500   298.75902      39014.734     -715.43616      1087.3116      2076.8658      44060.484     -5800.5926     -281.32513      0.44999999     100038.64    
      3600   299.5056       39042.584     -704.81531      1085.3885      2139.1532      43978.739     -5765.3225     -276.91187      0.44999999     100038.64    
      3700   299.52605      39015.653     -743.36487      1098.4265      2090.375       44022.198     -5761.6534     -276.20006      0.44999999     100038.64    
      3800   299.25175      39013.526     -735.27105      1095.5723      2098.5663      44055.299     -5811.7051     -274.67943      0.44999999     100038.64    
      3900   303.34397      39037.975     -721.03862      1088.2624      2078.9296      44024.775     -5750.1704     -268.54351      0.44999999     100038.64    
      4000   300.32477      38977.677     -726.93412      1095.452       2025.9911      44001.515     -5726.2417     -277.8399       0.44999999     100038.64    
      4100   300.17101      39143.68      -721.1961       1096.05        2206.7693      43925.126     -5685.547      -263.61998      0.44999999     100038.64    
      4200   298.50318      39069.655     -725.1522       1093.7261      2130.2003      43979.526     -5718.2399     -276.40098      0.44999999     100038.64    
      4300   298.41033      39075.82      -740.13781      1089.4223      2156.8136      44118.06      -5846.2354     -288.5345       0.44999999     100038.64    
      4400   299.68048      39020.359     -722.21435      1089.5737      2107.5048      44004.004     -5765.3935     -280.40231      0.44999999     100038.64    
      4500   311.31711      39038.163     -744.56406      1088.191       2113.8633      44043.715     -5785.6458     -263.54295      0.44999999     100038.64    
      4600   305.8184       39097.291     -711.66214      1089.4729      2152.1633      43877.091     -5631.2925     -265.09852      0.44999999     100038.64    
      4700   305.54602      39038.227     -750.50701      1090.2548      2097.0198      43909.176     -5625.8271     -267.65981      0.44999999     100038.64    
      4800   300.39907      39024.982     -738.6374       1089.027       2126.181       43939.06      -5699.1286     -276.86688      0.44999999     100038.64    
      4900   300.10692      38986.135     -762.69358      1092.0558      2130.3816      43895.729     -5688.9658     -265.02091      0.44999999     100038.64    
      5000   299.17577      38971.353     -744.098        1083.0873      2155.6782      43788.739     -5626.3629     -269.85991      0.44999999     100038.64    
      5100   299.10606      38970.917     -773.51633      1085.3662      2132.4434      43893.654     -5690.656      -260.90427      0.44999999     100038.64    
      5200   302.0012       38986.618     -766.42703      1078.6718      2084.0871      43991.898     -5710.7506     -275.0908       0.44999999     100038.64    
      5300   300.60456      38982.029     -746.70957      1081.8571      2113.5679      43924.334     -5698.1669     -276.60218      0.44999999     100038.64    
      5400   292.02511      39030.864     -758.46056      1072.7606      2138.6996      44009.254     -5748.9204     -267.44554      0.44999999     100038.64    
      5500   304.3409       38962.555     -754.69755      1083.7624      2113.0766      43925.304     -5713.1864     -276.68321      0.44999999     100038.64    
      5600   292.69803      38994.384     -748.67554      1079.5312      2126.0926      43911.125     -5691.3717     -267.31817      0.44999999     100038.64    
      5700   296.56981      38949.977     -774.65079      1087.4447      2127.9191      43894.627     -5687.2477     -283.1511       0.44999999     100038.64    
      5800   297.12745      39005.557     -759.46141      1087.2957      2123.2693      43885.143     -5657.7859     -257.40984      0.44999999     100038.64    
      5900   298.60154      38942.205     -760.48328      1083.8207      2052.5344      43923.687     -5672.3128     -269.50395      0.44999999     100038.64    
      6000   296.38018      38992.941     -769.74577      1087.4033      2137.9034      43877.656     -5674.2679     -250.07988      0.44999999     100038.64    
      6100   303.2413       38898.751     -756.84956      1090.057       2060.2526      43891.337     -5695.6922     -274.92131      0.44999999     100038.64    
      6200   300.24937      39009.429     -768.04088      1091.4094      2107.9688      43988.799     -5730.8207     -264.51063      0.44999999     100038.64    
      6300   299.59178      38927.398     -788.16601      1086.5388      2142.1518      43779.104     -5628.9933     -249.09884      0.44999999     100038.64    
      6400   296.57247      38927.861     -783.07671      1093.5787      2111.4401      43826.956     -5639.4763     -267.87258      0.44999999     100038.64    
      6500   301.15269      38993.113     -747.31137      1093.3519      2144.8632      43860.221     -5679.2752     -264.35342      0.44999999     100038.64    
      6600   296.6568       39032.64      -736.30839      1086.9761      2098.7111      43922.78      -5654.311      -272.11566      0.44999999     100038.64    
      6700   300.18898      38972.586     -786.93246      1093.4149      2165.251       43844.369     -5656.4768     -273.93974      0.44999999     100038.64    
      6800   299.03092      38974.459     -766.0415       1094.3917      2142.1855      43858.523     -5669.0383     -271.35823      0.44999999     100038.64    
      6900   297.95616      38953.128     -814.07287      1097.6251      2098.4367      43940.11      -5678.3257     -276.24921      0.44999999     100038.64    
      7000   304.56281      39008.339     -765.26058      1100.6781      2097.8175      43801.968     -5552.4617     -259.99571      0.44999999     100038.64    
      7100   303.94619      39035.156     -773.84643      1095.9777      2152.2771      43927.084     -5682.9626     -269.21875      0.44999999     100038.64    
      7200   302.17572      39013.908     -746.34299      1092.7645      2164.991       43991.051     -5793.6928     -280.54328      0.44999999     100038.64    
      7300   297.8719       38991.962     -761.81974      1099.4483      2105.4354      43872.708     -5646.4389     -263.29409      0.44999999     100038.64    
      7400   298.14739      39002.624     -776.4641       1096.3565      2103.0734      43823.291     -5563.7081     -266.539        0.44999999     100038.64    
      7500   300.43597      38978.535     -751.24484      1099.213       2148.7123      43924.532     -5749.7311     -278.6623       0.44999999     100038.64    
      7600   304.89983      38909.157     -795.80076      1094.4477      2150.5752      43792.883     -5652.7488     -265.87439      0.44999999     100038.64    
      7700   303.49648      38954.344     -783.47622      1091.4546      2194.911       43891.104     -5744.1147     -282.42544      0.44999999     100038.64    
      7800   302.66937      39021.407     -779.60901      1093.7931      2137.9996      43868.638     -5637.1454     -248.58267      0.44999999     100038.64    
      7900   304.21374      38934.797     -804.18915      1094.1623      2102.4292      43866.255     -5635.9211     -273.0325       0.44999999     100038.64    
      8000   299.93587      38993.351     -754.53926      1088.5397      2126.8594      43783.487     -5567.8383     -268.81671      0.44999999     100038.64    
      8100   303.17933      38978.305     -771.14816      1088.5157      2103.2281      43908.748     -5673.1646     -262.51257      0.44999999     100038.64    
      8200   301.64978      38932.954     -786.98692      1084.8534      2060.6614      43904.016     -5637.8869     -276.64784      0.44999999     100038.64    
      8300   294.85622      38935.128     -759.24117      1089.0006      2143.8076      43934.462     -5785.3909     -272.11178      0.44999999     100038.64    
      8400   306.84133      38907.424     -776.52193      1090.0727      2087.7092      43834.088     -5643.2671     -268.23344      0.44999999     100038.64    
      8500   296.52801      38958.117     -785.2652       1091.4038      2209.9753      43781.334     -5651.9959     -270.47805      0.44999999     100038.64    
      8600   299.17606      38971.752     -787.56292      1093.1962      2085.488       44033.462     -5755.8828     -281.1009       0.44999999     100038.64    
      8700   307.62384      38969.29      -790.56175      1084.0589      2151.55        43816.179     -5617.4582     -258.93633      0.44999999     100038.64    
      8800   299.88834      38904.895     -778.71874      1080.7812      2092.5781      43883.635     -5676.8268     -281.32788      0.44999999     100038.64    
      8900   298.45218      39036.363     -780.2481       1087.0001      2121.93        44072.093     -5777.9552     -271.48002      0.44999999     100038.64    
      9000   302.31584      38987.272     -784.2408       1085.3801      2108.5535      44014.284     -5744.4257     -278.34368      0.44999999     100038.64    
      9100   301.7246       38948.362     -786.17538      1084.3321      2178.3946      43904.579     -5749.7094     -269.2849       0.44999999     100038.64    
      9200   307.51021      38977.384     -778.7051       1087.0311      2091.0904      43950.251     -5681.3811     -276.65018      0.44999999     100038.64    
      9300   301.61727      39013.833     -798.90725      1081.7015      2087.1479      43992.132     -5671.395      -262.04357      0.44999999     100038.64    
      9400   300.50306      39003.465     -795.1611       1081.7565      2109.0267      44112.714     -5819.9062     -270.5385       0.44999999     100038.64    
      9500   299.50586      38845.857     -769.97262      1073.6086      2093.2419      43813.39      -5671.8184     -277.72143      0.44999999     100038.64    
      9600   300.89521      38936.19      -796.51655      1083.1859      2087.3251      43891.345     -5644.6191     -269.15512      0.44999999     100038.64    
      9700   300.46814      38928.186     -790.84697      1078.9003      2090.02        43871.565     -5637.621      -268.30089      0.44999999     100038.64    
      9800   303.45439      38973.985     -796.2519       1085.5218      2114.9589      43957.222     -5700.93       -270.89112      0.44999999     100038.64    
      9900   303.4304       39002.856     -780.98963      1085.832       2165.8107      43871.843     -5667.5268     -256.84154      0.44999999     100038.64    
     10000   308.37739      38936.972     -795.06351      1083.242       2129.3745      43731.59      -5537.9121     -258.39197      0.44999999     100038.64    
     10019   300.3759       38979.701     -760.78679      1082.9285      2113.8026      43906.341     -5673.4331     -273.15967      0.44999999     100038.64    
Loop time of 65.77 on 6 procs for 10000 steps with 3976 atoms

Performance: 13.137 ns/day, 1.827 hours/ns, 152.045 timesteps/s, 604.531 katom-step/s
99.2% CPU use with 6 MPI tasks x no OpenMP threads

MPI task timing breakdown:
Section |  min time  |  avg time  |  max time  |%varavg| %total
---------------------------------------------------------------
Pair    | 11.21      | 13.223     | 18.473     |  66.3 | 20.10
Bond    | 23.198     | 29.057     | 36.124     |  79.9 | 44.18
Kspace  | 8.1832     | 20.269     | 26.978     | 133.6 | 30.82
Neigh   | 1.0729     | 1.08       | 1.0846     |   0.4 |  1.64
Comm    | 1.237      | 1.4715     | 1.5391     |   8.9 |  2.24
Output  | 0.0041528  | 0.0054236  | 0.010776   |   3.3 |  0.01
Modify  | 0.29546    | 0.33333    | 0.40485    |   5.9 |  0.51
Other   |            | 0.3308     |            |       |  0.50

Nlocal:        662.667 ave         852 max         552 min
Histogram: 1 0 2 2 0 0 0 0 0 1
Nghost:        4574.33 ave        4798 max        4415 min
Histogram: 2 0 0 1 1 0 1 0 0 1
Neighs:         105133 ave      155780 max       88026 min
Histogram: 2 3 0 0 0 0 0 0 0 1

Total # of neighbors = 630797
Ave neighs/atom = 158.65116
Ave special neighs/atom = 13.641348
Neighbor list builds = 263
Dangerous builds = 0
unfix Langevin
unfix moveLimit

fix 		relax all npt temp 300.0 300.0 100 iso 1.0 1.0 1000
run 25000
PPPM initialization ...
  using 12-bit tables for long-range coulomb (../kspace.cpp:342)
  G vector (1/distance) = 0.18266917
  grid = 10 10 10
  stencil order = 5
  estimated absolute RMS force accuracy = 0.02230145
  estimated relative force accuracy = 6.7160156e-05
  using double precision KISS FFT
  3d grid and FFT values/proc = 1350 200
Generated 28 of 28 mixed pair_coeff terms from sixthpower/geometric mixing rule
Per MPI rank memory allocation (min/avg/max) = 28.68 | 29 | 29.09 Mbytes
   Step          Temp          PotEng         E_vdwl         E_coul         E_bond        E_angle        E_dihed        E_impro        Density         Volume    
     10019   300.3759       38979.701     -760.78679      1082.9285      2113.8026      43906.341     -5673.4331     -273.15967      0.44999999     100038.64    
     10100   302.20431      38948.643     -788.62378      1082.1299      2145.5917      43949.965     -5749.6894     -274.75584      0.45058317     99909.167    
     10200   298.85613      38942.242     -769.42189      1078.8796      2083.3336      43932.225     -5692.5127     -274.54426      0.45294829     99387.48     
     10300   292.10422      38915.483     -791.4298       1078.2049      2037.0441      43963.063     -5680.8617     -274.1037       0.4569095      98525.833    
     10400   294.81699      38871.773     -793.37813      1072.1523      2059.666       43887.06      -5670.551      -266.39423      0.46213378     97412.029    
     10500   300.32194      38896.238     -818.48657      1073.0703      2090.8281      43896.337     -5659.0598     -270.60454      0.46689463     96418.733    
     10600   301.8192       38918.511     -870.51781      1072.8643      2170.8645      44000.758     -5772.1025     -266.34776      0.47108289     95561.503    
     10700   303.58814      38866.403     -825.30691      1074.4489      2079.4817      43948.132     -5728.9598     -265.8279       0.4743786      94897.597    
     10800   300.14187      38850.562     -862.52193      1074.8935      2060.2592      43928.714     -5659.3166     -274.63606      0.47684628     94406.502    
     10900   298.85525      38800.77      -870.61049      1077.4531      2041.1217      43869.904     -5624.3985     -278.07775      0.4798836      93808.976    
     11000   297.09794      38801.947     -861.09819      1065.9992      2090.9702      43826.375     -5633.0179     -272.08009      0.48352135     93103.208    
     11100   303.57787      38793.872     -879.37027      1075.7889      2051.7375      43921.084     -5695.5533     -265.86203      0.48724758     92391.2      
     11200   307.62957      38850.785     -903.03678      1072.8854      2196.7814      43846.2       -5672.565      -275.06029      0.49112183     91662.366    
     11300   300.18306      38851.354     -897.61396      1070.4853      2080.0202      43881.653     -5604.1636     -265.84214      0.4960321      90754.991    
     11400   300.89166      38749.977     -945.38519      1071.3846      2041.5709      44036.252     -5766.6437     -274.13072      0.50095351     89863.407    
     11500   297.67808      38731.629     -933.19304      1066.3172      2075.3544      43918.087     -5702.7699     -278.8744       0.50614375     88941.904    
     11600   300.16426      38664.407     -940.63303      1060.0394      2031.2787      43829.306     -5627.7671     -274.12929      0.51118185     88065.311    
     11700   292.1829       38713.862     -971.91534      1066.515       2033.1981      44043         -5761.8063     -281.57809      0.51630812     87190.936    
     11800   293.74986      38649.521     -962.01643      1069.0559      2074.4164      43921.1       -5768.5882     -269.26065      0.52093077     86417.22     
     11900   296.91662      38633.738     -969.63524      1060.7857      2061.664       43895.791     -5724.756      -274.85867      0.52484558     85772.636    
     12000   297.29672      38711.639     -989.40864      1062.2571      2133.5656      43862.032     -5667.4335     -274.19135      0.52878502     85133.631    
     12100   307.08646      38613.093     -1028.3651      1068.5864      2022.1943      43972.402     -5738.8976     -267.54096      0.53276086     84498.304    
     12200   303.25765      38569.51      -979.50139      1070.4183      2052.3161      43854.354     -5739.0919     -274.18498      0.5367154      83875.717    
     12300   301.28195      38509.325     -1008.9035      1073.8114      1982.6358      43816.603     -5668.839      -271.1384       0.5408685      83231.671    
     12400   296.77212      38597.635     -1047.0314      1070.4455      2031.0608      43978.477     -5737.6393     -283.37378      0.54497304     82604.8      
     12500   305.19113      38547.452     -1039.6756      1058.7838      1988.9467      43854.315     -5638.3414     -262.94726      0.54985019     81872.099    
     12600   301.95925      38607.22      -1067.3564      1062.1376      2077.4188      43884.55      -5676.6613     -258.15635      0.55448223     81188.154    
     12700   297.96986      38563.65      -1007.4111      1057.974       1985.1368      43896.59      -5683.2768     -271.22347      0.55896366     80537.238    
     12800   295.16113      38495.345     -1034.1492      1057.9359      1957.4343      43904.326     -5718.444      -256.85166      0.56280903     79986.97     
     12900   294.90728      38545.517     -1015.9869      1057.1503      2025.7778      43841.874     -5666.5583     -281.36952      0.56575849     79569.974    
     13000   303.26932      38532.218     -1044.1177      1064.2634      2027.0938      43917.15      -5752.8979     -264.54163      0.56798624     79257.886    
     13100   304.33312      38553.622     -1044.7921      1066.2852      2054.204       43886.174     -5730.453      -263.64158      0.56981481     79003.544    
     13200   301.77583      38553.766     -1058.0111      1070.8535      2006.8608      43795.103     -5588.7573     -258.06755      0.57219401     78675.045    
     13300   296.59709      38505.698     -1096.48        1073.7394      2049.8393      43765.191     -5609.0049     -263.65053      0.57465215     78338.502    
     13400   300.09783      38417.59      -1094.2502      1076.8315      1996.781       43754.519     -5648.2665     -253.63222      0.57723601     77987.839    
     13500   298.61479      38481.356     -1053.6182      1078.6844      1993.5757      43940.542     -5788.0869     -273.5194       0.58012931     77598.887    
     13600   295.98947      38565.933     -1078.6946      1086.2185      2047.9955      43891.842     -5701.8259     -262.96348      0.58203515     77344.794    
     13700   298.50455      38575.077     -1044.0638      1075.8231      2051.478       43777.334     -5602.8935     -267.21086      0.58425328     77051.153    
     13800   297.15153      38580.673     -1091.1165      1078.5227      2110.1385      43810.818     -5643.0932     -269.22465      0.58765196     76605.529    
     13900   291.56841      38539.525     -1130.2919      1076.363       2021.1088      43977.693     -5727.6522     -261.50225      0.59267823     75955.868    
     14000   291.27005      38486.065     -1080.7766      1075.9405      2000.0582      43827.42      -5656.4378     -262.81222      0.59894631     75160.976    
     14100   299.11322      38451.003     -1107.7486      1069.9903      2050.0413      43838.088     -5716.7022     -265.44805      0.6052557      74377.472    
     14200   299.16067      38504.933     -1108.1138      1074.9304      2033.6753      43865.937     -5670.9727     -273.44823      0.6107742      73705.452    
     14300   307.51984      38409.808     -1122.9242      1071.6668      2075.2324      43846.365     -5773.2303     -271.55969      0.61586006     73096.783    
     14400   298.38012      38451.945     -1134.541       1075.7086      2018.4462      43893.281     -5708.0646     -276.68483      0.62118237     72470.487    
     14500   295.03306      38416.694     -1133.4827      1076.6188      2084.6273      43782.317     -5704.7058     -273.44462      0.62556556     71962.704    
     14600   294.29153      38400.935     -1108.1515      1070.3718      2024.5449      43772.476     -5676.1338     -267.78086      0.62920297     71546.688    
     14700   300.251        38463.911     -1147.1532      1073.9242      2010.9252      43851.362     -5651.1384     -259.82385      0.63151498     71284.752    
     14800   305.50657      38438.126     -1174.566       1083.1635      2089.3932      43791.48      -5668.8408     -268.87076      0.63368486     71040.657    
     14900   305.01553      38323.719     -1199.7977      1084.0044      2027.5889      43731.03      -5649.376      -257.15282      0.63734651     70632.518    
     15000   298.92736      38314.332     -1168.8701      1083.5776      1988.0972      43835.158     -5732.9244     -278.37381      0.6415787      70166.589    
     15100   300.53885      38263.603     -1159.846       1084.4063      1981.9828      43801.445     -5748.6301     -283.93288      0.64543612     69747.241    
     15200   306.26289      38194.709     -1254.0514      1078.8809      1999.2121      43733.777     -5688.3614     -263.84341      0.64961375     69298.701    
     15300   301.61875      38234.822     -1235.4471      1080.4778      2012.089       43782.846     -5714.5177     -280.5769       0.6554852      68677.964    
     15400   301.69455      38152.046     -1243.8217      1075.4918      1993.5488      43731.782     -5727.406      -266.71954      0.66228465     67972.871    
     15500   295.28969      38178.36      -1228.6069      1071.1694      2016.6587      43644.626     -5646.0047     -267.12321      0.66864194     67326.6      
     15600   296.89959      38246.878     -1247.7192      1071.2229      1996.7761      43785.632     -5682.6898     -262.7713       0.67241027     66949.288    
     15700   303.2763       38232.53      -1235.8922      1071.5443      2037.6571      43874.178     -5821.9983     -280.0567       0.67494314     66698.047    
     15800   297.61462      38302.292     -1196.5629      1081.4817      2074.8837      43710.063     -5686.2438     -268.14226      0.67742603     66453.586    
     15900   298.82751      38268.035     -1239.8238      1087.4112      2020.2346      43784.621     -5697.6056     -272.81412      0.67883414     66315.741    
     16000   296.64293      38265.662     -1247.2629      1077.3546      1988.6598      43877.738     -5742.7023     -273.70138      0.68039057     66164.04     
     16100   298.38154      38165.216     -1219.255       1074.8014      1923.762       43750.376     -5678.0224     -270.25744      0.68291756     65919.214    
     16200   291.55217      38214.681     -1214.7697      1075.2479      1942.879       43785.09      -5688.4395     -269.1166       0.68585727     65636.672    
     16300   300.33936      38224.516     -1227.292       1079.78        1935.6811      43854.093     -5729.2743     -271.56468      0.6877311      65457.835    
     16400   302.71899      38245.309     -1232.3017      1066.0553      1958.827       43824.308     -5685.5807     -268.34064      0.68940627     65298.781    
     16500   296.10104      38309.091     -1258.7821      1077.4593      2031.5858      43852.717     -5716.7853     -259.78439      0.69089781     65157.811    
     16600   302.70396      38177.279     -1181.6429      1063.1044      1987.5336      43773.921     -5766.5114     -281.72089      0.69327684     64934.217    
     16700   296.51001      38170.959     -1262.7821      1075.7572      1947.2747      43674.986     -5584.6835     -262.08953      0.69597197     64682.761    
     16800   299.2417       38082.077     -1275.6244      1079.9448      1937.5057      43827.425     -5797.2975     -275.30774      0.7006527      64250.646    
     16900   301.79444      38144.158     -1269.6628      1081.1433      1949.6665      43752.062     -5677.4359     -275.36598      0.70696708     63676.783    
     17000   300.55142      38244.713     -1268.1638      1080.4906      1995.7531      43803.238     -5686.0077     -265.25153      0.71357795     63086.855    
     17100   303.64296      38219.619     -1269.004       1075.5992      2022.6025      43822.013     -5747.3435     -269.30713      0.71838356     62664.837    
     17200   301.35396      38175.367     -1278.8999      1075.6598      2030.5578      43835.689     -5794.2493     -278.88814      0.72211406     62341.105    
     17300   297.22808      38145.488     -1280.052       1080.4469      2044.1115      43743.531     -5758.3036     -270.71071      0.72518895     62076.771    
     17400   296.60358      38155.733     -1319.0673      1074.2975      1970.8941      43813.433     -5685.9376     -284.59455      0.72848486     61795.916    
     17500   303.54214      38093.177     -1302.2382      1070.2867      2001.1876      43711.546     -5714.0584     -260.58703      0.73247828     61459.009    
     17600   297.72937      38181.451     -1269.5495      1071.4833      1977.4167      43777.16      -5693.4529     -268.8675       0.73544578     61211.023    
     17700   298.0201       38195.516     -1306.5817      1069.6581      2007.286       43973.113     -5849.6289     -285.01405      0.7372213      61063.603    
     17800   297.69913      38187.939     -1305.1198      1081.2803      2052.0711      43808.015     -5748.5015     -286.8792       0.73915966     60903.471    
     17900   297.11956      38152.082     -1315.9879      1084.2881      2025.112       43809.578     -5766.396      -270.20541      0.7419451      60674.825    
     18000   295.76966      38118.056     -1327.0411      1075.5494      1949.9442      43831.602     -5729.3332     -268.56857      0.74497389     60428.143    
     18100   295.76925      38088.019     -1334.5558      1078.295       2003.2627      43808.784     -5773.7568     -279.85057      0.74753066     60221.461    
     18200   299.89708      38125.715     -1331.7379      1076.9587      1988.4246      43708.207     -5642.1375     -259.06965      0.74979523     60039.577    
     18300   305.94783      38111.896     -1344.2036      1061.1051      2004.5387      43789.801     -5719.381      -264.83841      0.75218866     59848.534    
     18400   298.90818      38165.114     -1314.9529      1059.6941      2033.4039      43844.732     -5766.2582     -275.79669      0.75374067     59725.302    
     18500   297.77284      38085.998     -1319.2154      1066.9412      1976.7652      43746.57      -5694.3457     -274.00512      0.75439471     59673.521    
     18600   294.01496      38069.349     -1329.6236      1061.1368      1994.1366      43651.016     -5630.8545     -259.1495       0.7555609      59581.416    
     18700   298.45879      38045.738     -1324.2508      1061.7909      2008.3575      43698.216     -5707.9683     -274.73922      0.75818267     59375.386    
     18800   299.49212      38081.834     -1358.81        1070           2061.4249      43765.257     -5773.7333     -265.89888      0.76115154     59143.792    
     18900   299.20985      38142.104     -1370.2542      1057.9311      2006.0053      43823.406     -5691.7146     -267.42439      0.76355246     58957.82     
     19000   305.09172      38104.406     -1385.3907      1058.9937      1987.3134      43835.627     -5712.7683     -259.50024      0.7644947      58885.155    
     19100   298.2973       38085.84      -1339.0139      1055.2006      2006.0266      43788.73      -5734.0555     -270.81481      0.76626061     58749.449    
     19200   297.63283      38034.109     -1337.1682      1057.4916      2056.3084      43686.768     -5749.6766     -259.80444      0.76852601     58576.272    
     19300   298.55386      38075.635     -1369.5981      1065.6944      1930.8483      43801.023     -5670.2389     -263.08557      0.7707072      58410.495    
     19400   304.52597      38065.073     -1386.7635      1047.587       2014.2915      43735.336     -5670.7195     -255.25035      0.77292311     58243.036    
     19500   298.32347      38144.539     -1352.2101      1054.6874      2086.4996      43735.74      -5699.3263     -261.95579      0.77550087     58049.437    
     19600   301.71268      38050.034     -1396.9844      1057.229       1987.819       43830.204     -5739.6978     -268.61888      0.77717471     57924.413    
     19700   294.06308      37999.219     -1381.205       1052.0126      1946.5859      43874.668     -5800.7305     -271.97893      0.77895562     57791.981    
     19800   295.79338      37996.073     -1385.7803      1061.6294      1993.3589      43661.037     -5648.3007     -265.25936      0.78318387     57479.975    
     19900   297.22056      38056.949     -1387.1449      1054.7959      2067.8307      43642.859     -5637.2786     -262.83688      0.78850145     57092.335    
     20000   298.10823      38100.935     -1378.6902      1048.1209      2022.7676      43804.295     -5709.1402     -265.4946       0.79418718     56683.6      
     20100   306.60176      38004.612     -1390.4187      1060.6436      1995.9304      43708.245     -5682.6404     -265.79195      0.79763336     56438.698    
     20200   297.49373      38042.757     -1433.6063      1068.8797      2013.7183      43797.785     -5718.9785     -263.64548      0.80017926     56259.13     
     20300   294.0593       38013.765     -1363.7972      1061.0676      1982.9737      43703.324     -5686.5771     -261.52859      0.80258711     56090.346    
     20400   298.54806      37990.443     -1420.3441      1059.2575      1965.3157      43770.845     -5699.4576     -264.41834      0.80279392     56075.897    
     20500   306.45436      37909.116     -1431.8122      1065.6273      1979.3479      43702.737     -5718.8348     -269.3973       0.80321475     56046.517    
     20600   302.48528      37944.67      -1430.6639      1056.0049      1999.9833      43668.884     -5665.354      -266.60083      0.80600185     55852.711    
     20700   296.99838      38003.505     -1454.2092      1061.6845      2010.4845      43773.13      -5708.8459     -261.2647       0.80985051     55587.282    
     20800   301.03163      37972.967     -1433.2773      1065.2544      2034.4746      43690.857     -5698.4151     -268.40859      0.81296466     55374.349    
     20900   302.14136      38019.654     -1413.4746      1057.7973      2002.485       43657.11      -5608.5422     -257.87343      0.81512727     55227.436    
     21000   300.28171      38096.889     -1437.3907      1061.4414      1990.4346      43857.876     -5697.1448     -260.48162      0.81621566     55153.792    
     21100   304.09         38024.112     -1425.9284      1068.0026      2049.4837      43758.736     -5739.1643     -268.58344      0.81654243     55131.72     
     21200   297.59662      37990.733     -1434.8173      1073.2091      2036.1141      43737.763     -5731.0611     -272.01189      0.81567612     55190.274    
     21300   296.05082      37999.889     -1407.7056      1066.0873      2001.386       43740.575     -5700.2849     -279.98804      0.81652452     55132.929    
     21400   294.83875      38085.261     -1424.0354      1066.6897      1997.6969      43902.336     -5768.3654     -267.6681       0.81863328     54990.91     
     21500   305.35084      38010.998     -1400.9375      1058.8965      2016.9345      43747.697     -5716.6649     -274.59281      0.82182482     54777.354    
     21600   300.90829      38055.786     -1412.2009      1057.1237      1960.0833      43767.233     -5628.5218     -268.07934      0.82470432     54586.095    
     21700   298.24274      38051.555     -1437.2337      1052.6556      2045.0385      43821.195     -5755.7895     -254.63656      0.8272363      54419.02     
     21800   296.97133      38019.822     -1405.6595      1056.0955      2046.1135      43716.36      -5705.2853     -269.0186       0.8298475      54247.785    
     21900   294.93487      37962.108     -1453.6076      1054.7678      1976.9944      43804.288     -5739.2514     -262.63808      0.83284727     54052.394    
     22000   290.63827      37974.262     -1436.402       1047.028       1992.5707      43843.231     -5763.2586     -288.19684      0.83679365     53797.479    
     22100   298.90446      37991.985     -1474.4467      1057.3737      2075.6072      43782.875     -5772.0065     -258.36287      0.84146016     53499.133    
     22200   304.61919      37967.906     -1495.4163      1053.8098      1996.1902      43846.531     -5737.6417     -275.78946      0.84774412     53102.567    
     22300   298.20358      38015.059     -1462.0724      1055.1599      2091.3879      43710.536     -5688.2888     -271.50863      0.8536989      52732.162    
     22400   303.58295      37879.343     -1504.1242      1060.6814      1878.4837      43684.149     -5566.1456     -252.54049      0.85807064     52463.5      
     22500   296.01827      37889.613     -1506.2878      1060.0491      2035.3236      43720.436     -5738.6252     -259.80679      0.86171029     52241.907    
     22600   297.20952      37916.115     -1473.9756      1052.8131      1982.4813      43814.423     -5764.9052     -272.9769       0.86453284     52071.346    
     22700   304.85601      37995.089     -1515.4941      1055.0094      2017.9679      43795.124     -5667.4952     -267.92951      0.86617323     51972.732    
     22800   303.59624      37948.61      -1504.8513      1052.097       2030.7987      43743.819     -5675.584      -276.3545       0.86782132     51874.03     
     22900   300.63749      37878.376     -1501.2886      1053.1021      2004.5649      43725.292     -5716.4833     -265.245        0.86859733     51827.685    
     23000   296.25456      37883.198     -1472.7503      1057.3559      2009.2132      43734.446     -5743.8741     -278.72347      0.86947567     51775.329    
     23100   293.73423      37927.302     -1498.6419      1046.6274      1966.0592      43828.717     -5724.9698     -267.12273      0.86897348     51805.251    
     23200   304.99383      37870.326     -1466.077       1048.7364      2022.7129      43620.874     -5655.7351     -275.5719       0.86946376     51776.038    
     23300   308.0301       37906.721     -1509.3695      1046.7438      2067.119       43582.987     -5604.5271     -251.59882      0.87004424     51741.494    
     23400   301.44893      37952.654     -1452.8653      1051.231       2054.0513      43673.275     -5691.5296     -255.93609      0.872448       51598.936    
     23500   300.51391      37914.394     -1473.9936      1052.8245      1988.8021      43802.113     -5739.5918     -291.67163      0.8768273      51341.226    
     23600   295.3722       37949.137     -1480.9793      1054.918       2039.0623      43732.9       -5690.9393     -280.82543      0.88198983     51040.712    
     23700   299.2596       37893.773     -1529.3708      1049.2994      2056.0249      43714.146     -5694.7719     -276.56462      0.88733021     50733.524    
     23800   303.70076      37794.256     -1531.0557      1046.8066      1964.0029      43684.647     -5679.3596     -265.22262      0.89293102     50415.304    
     23900   296.93497      37772.566     -1570.3435      1043.7701      2005.4172      43688.276     -5697.4299     -272.05351      0.89750102     50158.593    
     24000   298.37927      37740.882     -1530.8773      1043.3157      2017.5686      43507.797     -5597.7829     -273.99696      0.90229326     49892.192    
     24100   298.35097      37852.706     -1561.0736      1039.7511      1956.6805      43831.781     -5714.3841     -276.08094      0.90563519     49708.082    
     24200   299.38705      37866.276     -1549.2215      1044.6692      1972.3366      43687.048     -5596.9333     -267.84299      0.90867127     49541.996    
     24300   300.76962      37830.122     -1572.354       1048.7659      2017.6794      43710.448     -5686.982      -263.85717      0.91025766     49455.655    
     24400   303.8781       37730.257     -1606.5685      1048.6366      1960.3291      43692.339     -5666.4062     -273.18696      0.9115246      49386.916    
     24500   296.58037      37736.505     -1604.0529      1048.8626      1934.017       43769.601     -5713.0748     -275.62143      0.91479207     49210.515    
     24600   295.27723      37775.474     -1578.6539      1044.7386      1988.8552      43706.038     -5684.5773     -275.66513      0.91912537     48978.508    
     24700   299.06858      37776.557     -1626.0105      1051.8483      1965.3521      43798.169     -5719.9579     -268.57765      0.92378993     48731.197    
     24800   298.64372      37806.684     -1595.1472      1050.3538      1979.8998      43678.508     -5609.9016     -273.35875      0.92875419     48470.725    
     24900   303.50768      37764.544     -1574.5139      1043.7968      2042.7694      43692.284     -5739.8847     -276.17347      0.93119938     48343.448    
     25000   305.285        37752.872     -1616.7293      1039.2092      1988.2669      43789.239     -5747.8077     -275.00977      0.93181406     48311.558    
     25100   298.25898      37768.522     -1613.4187      1045.9002      1950.8861      43810.58      -5724.3359     -277.47789      0.93290095     48255.272    
     25200   292.70731      37745.431     -1590.3886      1043.2363      1977.8987      43693.686     -5681.2009     -274.1867       0.93495077     48149.475    
     25300   300.1136       37686.742     -1611.8372      1038.0066      1941.1987      43775.844     -5757.9879     -274.98893      0.93704013     48042.114    
     25400   301.53339      37763.616     -1634.6399      1044.6765      1974.0444      43782.089     -5708.8076     -269.69657      0.9392549      47928.83     
     25500   304.5647       37745.591     -1588.2143      1034.9133      1989.7         43683.814     -5674.7432     -275.42439      0.94122162     47828.681    
     25600   299.52106      37793.393     -1578.4241      1035.124       2010.6113      43684.779     -5665.1638     -269.80854      0.94257587     47759.963    
     25700   301.40004      37734.567     -1619.6098      1033.4291      2008.9429      43646.229     -5645.7184     -265.11993      0.94244413     47766.639    
     25800   295.95346      37730.235     -1561.6782      1032.598       1951.1695      43656.783     -5655.6742     -269.87597      0.94209377     47784.404    
     25900   300.64022      37681.832     -1608.1899      1041.5449      1955.7919      43632.558     -5645.3631     -271.80186      0.94155223     47811.887    
     26000   302.0814       37791.273     -1605.6068      1042.113       1975.0757      43782.52      -5710.8339     -270.19882      0.94256687     47760.419    
     26100   303.46373      37815.958     -1616.9214      1050.9753      2035.4676      43778.33      -5731.2684     -278.25189      0.94460769     47657.233    
     26200   301.08683      37795.753     -1603.4543      1035.2946      1981.5446      43815.097     -5730.0632     -279.05008      0.94880818     47446.248    
     26300   303.68002      37688.253     -1601.2486      1029.8588      1967.0867      43701.12      -5709.8087     -275.5545       0.95402285     47186.908    
     26400   297.43542      37744.844     -1620.5182      1032.7188      2021.5598      43664.088     -5670.8672     -258.39426      0.95878709     46952.435    
     26500   299.09336      37759.096     -1665.0424      1039.286       2029.2164      43695.374     -5654.6511     -260.81081      0.96447302     46675.633    
     26600   309.04352      37768.091     -1646.2983      1035.6662      2029.8137      43723.655     -5683.8179     -265.64221      0.9707295      46374.802    
     26700   303.95261      37806.199     -1603.709       1029.5934      2023.6818      43727.163     -5671.1881     -273.85993      0.97423706     46207.839    
     26800   302.02652      37724.08      -1666.1867      1035.7263      2013.5685      43722.663     -5692.9898     -263.09333      0.97452311     46194.275    
     26900   300.73386      37677.279     -1659.4687      1024.111       1929.1271      43797.706     -5707.4103     -281.94126      0.97361252     46237.479    
     27000   293.56287      37745.543     -1622.155       1035.8992      2011.6861      43732.351     -5705.7289     -282.50237      0.97202129     46313.172    
     27100   299.98779      37723.246     -1639.4012      1042.4054      1979.7112      43795.959     -5752.5623     -278.89433      0.9696508      46426.393    
     27200   305.23903      37779.424     -1646.7554      1035.4815      1980.4931      43787.508     -5683.3283     -270.28623      0.96805937     46502.715    
     27300   299.5447       37835.809     -1657.4134      1040.7359      2100.1095      43712.71      -5665.2301     -272.23121      0.96711129     46548.302    
     27400   300.62982      37754.195     -1653.8324      1053.3462      2046.4333      43685.215     -5687.8525     -267.22359      0.96848265     46482.391    
     27500   299.1581       37725.647     -1654.4082      1043.0846      1979.2639      43742.632     -5690.5781     -272.74991      0.97294971     46268.978    
     27600   295.23276      37769.505     -1663.2686      1042.9456      2014.3028      43709.861     -5649.1274     -264.49421      0.97919716     45973.774    
     27700   299.6564       37744.818     -1641.5232      1050.531       2045.9575      43695.621     -5710.1384     -276.44783      0.98588804     45661.766    
     27800   305.2225       37791.785     -1664.599       1043.8873      1999.2577      43811.188     -5715.2478     -262.05279      0.99027207     45459.617    
     27900   303.03721      37845.827     -1673.1758      1043.7475      2032.8893      43886.751     -5747.2763     -276.75633      0.99066731     45441.48     
     28000   299.78252      37767.83      -1675.1855      1046.4419      2035.8523      43771.92      -5716.5092     -273.99523      0.98849085     45541.533    
     28100   298.63125      37715.76      -1673.5317      1048.9456      2018.6617      43682.439     -5674.0419     -266.00726      0.98547322     45680.986    
     28200   296.00487      37742.412     -1656.5559      1054.3762      2005.5452      43730.359     -5707.492      -263.59501      0.982226       45832.007    
     28300   305.26448      37700.089     -1679.3714      1057.4844      2048.089       43614.513     -5657.9454     -262.33909      0.97992143     45939.794    
     28400   303.02071      37782.255     -1685.677       1057.7139      1985.9532      43800.917     -5692.911      -261.31514      0.98144098     45868.666    
     28500   301.37082      37730.631     -1661.2292      1046.4163      2058.6786      43730.273     -5752.0135     -269.24523      0.98657054     45630.177    
     28600   300.3112       37634.055     -1696.6732      1057.5482      1940.6275      43700.144     -5685.859      -260.2646       0.99202788     45379.157    
     28700   302.46109      37623.241     -1719.0545      1049.8949      1963.7128      43711.437     -5698.4207     -261.97926      0.99803025     45106.237    
     28800   306.20154      37635.143     -1700.0549      1046.8198      1976.5959      43647.177     -5642.3557     -269.42135      1.0035357      44858.783    
     28900   299.65137      37762.574     -1713.8153      1048.6464      2017.8468      43743.608     -5662.5111     -249.11656      1.0062851      44736.216    
     29000   305.46051      37733.646     -1687.0495      1038.9664      1948.8466      43837.188     -5704.0023     -277.30454      1.0073656      44688.235    
     29100   303.17519      37701.719     -1752.1664      1040.1595      2017.3184      43724.753     -5644.1692     -260.06819      1.0066643      44719.364    
     29200   303.50499      37588.492     -1695.3945      1030.2331      1902.0841      43707.647     -5657.9457     -274.11581      1.0060471      44746.799    
     29300   299.81288      37597.439     -1721.5345      1039.7786      1985.9352      43687.487     -5714.1108     -256.85474      1.0057891      44758.277    
     29400   294.3949       37673.172     -1667.4033      1034.5734      2040.7428      43645.343     -5677.4035     -278.85924      1.0060046      44748.69     
     29500   299.01727      37724.853     -1699.4397      1048.4767      2022.8022      43710.418     -5670.118      -264.66064      1.0049918      44793.789    
     29600   303.85561      37728.15      -1704.9005      1044.8787      2023.4996      43744.518     -5685.2401     -272.44008      1.0023094      44913.665    
     29700   294.36908      37791.107     -1697.7295      1042.5529      2030.3784      43773.876     -5659.9355     -275.08464      1.0003036      45003.727    
     29800   297.59466      37691.471     -1691.912       1044.6603      2002.735       43808.854     -5772.2016     -278.26605      0.9998339      45024.867    
     29900   299.80344      37650.738     -1701.7721      1041.0097      1985.7986      43730.487     -5721.0681     -263.35481      1.0013902      44954.895    
     30000   304.20319      37664.225     -1700.8403      1037.2741      1959.1668      43751.59      -5680.8107     -279.49349      1.0042265      44827.926    
     30100   308.15353      37746.832     -1682.3583      1040.7901      2016.233       43805.074     -5739.2389     -271.54525      1.006446       44729.064    
     30200   299.33229      37807.097     -1708.6394      1042.5263      2014.3965      43791.231     -5636.6503     -274.71871      1.00638        44731.997    
     30300   302.08537      37685.887     -1711.6398      1038.3246      2063.794       43729.392     -5739.9976     -271.11208      1.0056977      44762.345    
     30400   298.47949      37666.556     -1739.5202      1035.1903      2012.1901      43729.489     -5672.6398     -274.91551      1.004831       44800.956    
     30500   296.89305      37663.194     -1753.6148      1045.3587      2049.9149      43665.929     -5659.1009     -261.5393       1.00496        44795.206    
     30600   299.288        37703.051     -1708.1584      1033.743       2014.966       43738.473     -5681.1417     -269.74886      1.0058656      44754.873    
     30700   302.53872      37747.938     -1721.5711      1030.8029      2062.3229      43731.409     -5654.4245     -275.32526      1.0067493      44715.589    
     30800   308.1951       37657.002     -1692.0051      1027.607       1977.5585      43765.622     -5729.5252     -266.21958      1.0060274      44747.678    
     30900   304.50854      37650.19      -1687.9751      1033.8523      1939.1125      43752.701     -5689.3916     -271.27874      1.0037214      44850.484    
     31000   298.18629      37685.429     -1710.3832      1026.4884      2025.2172      43776.749     -5727.9955     -277.81638      1.0018043      44936.309    
     31100   300.65544      37641.334     -1714.7108      1025.276       2000.0696      43737.732     -5710.4499     -268.90294      1.0018812      44932.86     
     31200   298.68624      37672.548     -1720.2422      1032.8853      1986.8201      43772.902     -5709.8752     -263.09164      1.0041172      44832.803    
     31300   301.31673      37661.572     -1692.3348      1035.2222      2008.6768      43701.502     -5691.9374     -272.37494      1.0080413      44658.276    
     31400   301.97507      37664.696     -1718.3386      1051.0762      2103.5198      43691.427     -5757.9092     -278.23346      1.01197        44484.902    
     31500   301.77544      37677.059     -1732.9434      1051.7199      2014.3481      43788.864     -5740.6475     -278.35427      1.0150874      44348.288    
     31600   298.79102      37703.102     -1700.1106      1046.774       2054.901       43748.282     -5746.2012     -275.93172      1.0170234      44263.867    
     31700   296.69006      37709.225     -1751.0029      1056.1668      2065.4767      43691.336     -5654.173      -274.01703      1.0164547      44288.631    
     31800   299.62744      37656.893     -1723.6932      1041.7437      2032.7404      43682.607     -5682.1715     -269.67389      1.0155359      44328.704    
     31900   299.69611      37689.779     -1729.8909      1037.9944      2051.7132      43733.827     -5701.8457     -277.57189      1.0130503      44437.465    
     32000   299.87772      37719.853     -1734.0339      1041.0831      2090.4659      43726.405     -5713.1216     -266.24293      1.0102891      44558.918    
     32100   297.87173      37735.54      -1723.6709      1028.7851      2027.9717      43794.112     -5692.3015     -273.4952       1.0089114      44619.765    
     32200   301.50729      37602.011     -1732.7689      1024.6889      2004.0803      43702.414     -5705.1114     -264.22861      1.0085992      44633.575    
     32300   296.62068      37614.326     -1718.7759      1036.3575      2044.6169      43674.95      -5724.0414     -273.14292      1.0094363      44596.562    
     32400   300.93525      37630.932     -1743.5474      1030.2881      2043.3805      43719.158     -5725.0376     -267.38828      1.0114263      44508.818    
     32500   300.16804      37724.446     -1748.8716      1033.1958      2016.6128      43703.498     -5602.6207     -251.92932      1.0148957      44356.666    
     32600   308.59322      37598.631     -1748.4789      1031.8768      1926.2785      43775.731     -5700.0302     -261.57232      1.0180342      44219.917    
     32700   300.14119      37650.366     -1737.115       1027.4412      2041.7028      43766.027     -5744.9443     -277.29146      1.019887       44139.583    
     32800   294.99882      37670.98      -1711.7014      1028.869       2003.2044      43809.943     -5750.9704     -281.19161      1.0195862      44152.607    
     32900   290.67415      37759.188     -1791.6906      1039.9586      2047.1304      43882.768     -5739.1686     -254.02782      1.017926       44224.62     
     33000   304.97006      37717.204     -1702.8116      1049.1787      2075.7363      43691.03      -5689.1755     -281.50648      1.0156033      44325.76     
     33100   304.31918      37709.801     -1767.1346      1036.6307      2077.594       43718.645     -5673.3997     -257.90696      1.0135579      44415.213    
     33200   295.71583      37728.866     -1733.0733      1030.3383      2007.9996      43853.092     -5735.1249     -269.71576      1.0141339      44389.985    
     33300   296.08722      37709.614     -1736.0701      1035.3936      2023.1009      43732.965     -5658.2568     -262.4576       1.0150758      44348.797    
     33400   298.81843      37687.752     -1762.2304      1033.3881      2058.3897      43774.138     -5727.1256     -264.09972      1.0168029      44273.468    
     33500   298.64222      37706.314     -1753.6602      1032.373       2048.4553      43839.356     -5756.0009     -280.19806      1.0196671      44149.105    
     33600   303.66604      37689.619     -1728.6331      1030.9572      2104.2292      43666.174     -5693.1179     -267.06521      1.0220696      44045.325    
     33700   300.50183      37735.659     -1715.6318      1036.7643      2009.6135      43803.772     -5697.0303     -278.62067      1.021362       44075.839    
     33800   300.52759      37663.901     -1752.3563      1040.2477      2015.435       43724.386     -5665.2397     -273.06702      1.0210445      44089.546    
     33900   295.05195      37659.451     -1756.6312      1040.4502      2051.747       43789.412     -5774.0835     -265.9996       1.0213916      44074.562    
     34000   297.22683      37649.587     -1743.4743      1037.2862      2014.8584      43657.626     -5620.9482     -271.80636      1.0224042      44030.912    
     34100   301.27778      37689.192     -1771.4957      1032.0401      2050.0148      43749.037     -5682.3868     -262.26163      1.0232463      43994.675    
     34200   304.19405      37730.091     -1780.5216      1033.4287      2024.2991      43789.473     -5645.9639     -265.18352      1.0240009      43962.255    
     34300   302.19755      37700.933     -1755.5888      1037.7418      2051.0484      43731.828     -5681.6038     -256.63222      1.0256124      43893.178    
     34400   300.31153      37677.852     -1754.4498      1038.6978      2042.1466      43748.601     -5706.4151     -265.09178      1.0275114      43812.058    
     34500   299.03263      37630.437     -1778.5655      1041.9639      2001.2401      43765.099     -5699.522      -274.52771      1.0303359      43691.955    
     34600   295.22804      37629.636     -1758.3246      1031.8154      2012.4286      43659.011     -5622.5734     -267.5205       1.0340892      43533.37     
     34700   298.04248      37585.895     -1785.5755      1040.5992      2037.3101      43630.471     -5651.8047     -260.15787      1.038261       43358.452    
     34800   302.61264      37647.861     -1816.0923      1034.5386      2078.983       43722.772     -5682.0111     -264.61647      1.0412009      43236.026    
     34900   305.47683      37652.337     -1766.3458      1028.5392      2044.5528      43697.002     -5663.3845     -261.8705       1.0421104      43198.292    
     35000   302.3195       37632.102     -1793.7494      1039.9483      2034.1979      43761.67      -5707.6539     -276.95856      1.0388186      43335.177    
     35019   297.61176      37674.34      -1805.9552      1039.662       2113.9676      43680.178     -5669.8421     -258.39121      1.0379056      43373.299    
Loop time of 201.713 on 6 procs for 25000 steps with 3976 atoms

Performance: 10.708 ns/day, 2.241 hours/ns, 123.938 timesteps/s, 492.779 katom-step/s
99.1% CPU use with 6 MPI tasks x no OpenMP threads

MPI task timing breakdown:
Section |  min time  |  avg time  |  max time  |%varavg| %total
---------------------------------------------------------------
Pair    | 50.692     | 58.499     | 69.067     |  79.7 | 29.00
Bond    | 61.341     | 78.822     | 90.201     | 114.8 | 39.08
Kspace  | 32.017     | 52.293     | 77.462     | 217.9 | 25.92
Neigh   | 4.3099     | 4.3186     | 4.3263     |   0.3 |  2.14
Comm    | 4.3389     | 4.5421     | 4.7556     |   6.2 |  2.25
Output  | 0.047694   | 0.055139   | 0.070936   |   3.2 |  0.03
Modify  | 1.7821     | 1.9864     | 2.2254     |  11.7 |  0.98
Other   |            | 1.197      |            |       |  0.59

Nlocal:        662.667 ave         676 max         650 min
Histogram: 1 0 0 2 1 0 0 1 0 1
Nghost:        7377.33 ave        7425 max        7327 min
Histogram: 1 1 0 0 1 0 1 0 1 1
Neighs:         219239 ave      232347 max      207001 min
Histogram: 1 1 0 0 1 0 2 0 0 1

Total # of neighbors = 1315434
Ave neighs/atom = 330.84356
Ave special neighs/atom = 13.641348
Neighbor list builds = 712
Dangerous builds = 0
unfix relax

molecule 	pre1 pre1
Read molecule template pre1:
  1 molecules
  0 fragments
  33 atoms with max type 7
  35 bonds with max type 13
  70 angles with max type 35
  112 dihedrals with max type 66
  44 impropers with max type 38
molecule	post1 post1
Read molecule template post1:
  1 molecules
  0 fragments
  33 atoms with max type 7
  35 bonds with max type 9
  70 angles with max type 33
  115 dihedrals with max type 67
  44 impropers with max type 31
molecule 	pre2 pre2
Read molecule template pre2:
  1 molecules
  0 fragments
  40 atoms with max type 7
  44 bonds with max type 13
  93 angles with max type 35
  162 dihedrals with max type 66
  60 impropers with max type 38
molecule	post2 post2
Read molecule template post2:
  1 molecules
  0 fragments
  40 atoms with max type 7
  44 bonds with max type 9
  93 angles with max type 33
  165 dihedrals with max type 67
  60 impropers with max type 31
molecule 	pre3 pre3
Read molecule template pre3:
  1 molecules
  0 fragments
  34 atoms with max type 7
  37 bonds with max type 9
  76 angles with max type 33
  126 dihedrals with max type 61
  48 impropers with max type 30
molecule	post3 post3
Read molecule template post3:
  1 molecules
  0 fragments
  34 atoms with max type 7
  37 bonds with max type 9
  76 angles with max type 33
  129 dihedrals with max type 67
  48 impropers with max type 31
molecule 	pre4 pre4
Read molecule template pre4:
  1 molecules
  0 fragments
  32 atoms with max type 7
  34 bonds with max type 9
  69 angles with max type 33
  111 dihedrals with max type 61
  44 impropers with max type 30
molecule	post4 post4
Read molecule template post4:
  1 molecules
  0 fragments
  32 atoms with max type 7
  34 bonds with max type 9
  69 angles with max type 33
  114 dihedrals with max type 67
  44 impropers with max type 31

fix		fxrct all bond/react stabilization yes statted_grp .03 		 react rxn1 all 100 0.0 5.0 pre1 post1 semi.map1 stabilize_steps 100 molecule inter 		 react rxn2 all 100 0.0 5.0 pre2 post2 semi.map2 stabilize_steps 100 molecule inter 		 react rxn2 all 100 0.0 5.0 pre3 post3 semi.map3 stabilize_steps 100 molecule inter 		 react rxn2 all 100 0.0 5.0 pre4 post4 semi.map4 stabilize_steps 100 molecule inter
dynamic group bond_react_MASTER_group defined
dynamic group statted_grp_REACT defined
fix 		npt statted_grp_REACT npt temp 500.0 500.0 100 iso 1.0 1.0 1000
fix 		reacted bond_react_MASTER_group temp/rescale 1 300.0 300.0 1 1


thermo_style custom step temp pe evdwl ecoul ebond eangle edihed eimp density vol f_fxrct[*]
thermo     100


compute 1 all property/local btype batom1 batom2

dump DumpPos all custom 1000 dump.pos id type x y z mol
dump DumpBond all local 1000 bonds.dump index c_1[*]


run 400000

CITE-CITE-CITE-CITE-CITE-CITE-CITE-CITE-CITE-CITE-CITE-CITE-CITE

Your simulation uses code contributions which should be cited:

- fix bond/react: reacter.org doi:10.1016/j.polymer.2017.09.038, doi:10.1021/acs.macromol.0c02012

@Article{Gissinger17,
 author = {J. R. Gissinger and B. D. Jensen and K. E. Wise},
 title = {Modeling Chemical Reactions in Classical Molecular Dynamics Simulations},
 journal = {Polymer},
 year =    2017,
 volume =  128,
 pages =   {211--217}
}

@Article{Gissinger20,
 author = {J. R. Gissinger, B. D. Jensen, K. E. Wise},
 title = {{REACTER}: A Heuristic Method for Reactive Molecular Dynamics},
 journal = {Macromolecules},
 year =    2020,
 volume =  53,
 number =  22,
 pages =   {9953--9961}
}

CITE-CITE-CITE-CITE-CITE-CITE-CITE-CITE-CITE-CITE-CITE-CITE-CITE

PPPM initialization ...
  using 12-bit tables for long-range coulomb (../kspace.cpp:342)
  G vector (1/distance) = 0.1993992
  grid = 9 9 9
  stencil order = 5
  estimated absolute RMS force accuracy = 0.017866805
  estimated relative force accuracy = 5.3805352e-05
  using double precision KISS FFT
  3d grid and FFT values/proc = 1120 162
Generated 28 of 28 mixed pair_coeff terms from sixthpower/geometric mixing rule
Neighbor list info ...
  update: every = 1 steps, delay = 0 steps, check = yes
  max neighbors/atom: 2000, page size: 100000
  master list distance cutoff = 12
  ghost atom cutoff = 12
  binsize = 6, bins = 6 6 6
  2 neighbor lists, perpetual/occasional/extra = 1 1 0
  (1) pair lj/class2/coul/long, perpetual
      attributes: half, newton on
      pair build: half/bin/newton
      stencil: half/bin/3d
      bin: standard
  (2) fix bond/react, occasional, copy from (1)
      attributes: half, newton on
      pair build: copy
      stencil: none
      bin: none
Per MPI rank memory allocation (min/avg/max) = 32.15 | 32.16 | 32.18 Mbytes
   Step          Temp          PotEng         E_vdwl         E_coul         E_bond        E_angle        E_dihed        E_impro        Density         Volume       f_fxrct[1]     f_fxrct[2]     f_fxrct[3]     f_fxrct[4]  
     35019   297.61176      37673.978     -1805.9552      1165.9374      2113.9676      43680.178     -5669.8421     -258.39121      1.0379056      43373.299      0              0              0              0            
     35100   320.79384      155020.21      3228.3988      1150.8232      114226.98      43774.956     -5558.4809     -251.21093      1.0378229      43376.754      0              0              0              2            
     35200   356.76927      37910.379     -1793.582       1138.4674      2223.9703      43861.296     -5721.0181     -248.40166      1.0977442      41008.996      0              0              0              2            
     35300   401.52678      38188.763     -1773.3651      1140.2208      2379.6749      43831.19      -5566.3854     -270.47806      1.1002048      40917.28       0              0              0              2            
     35400   430.39583      38658.067     -1704.9836      1134.8289      2575.2502      44115.537     -5637.3759     -274.79783      1.0887358      41348.313      0              0              0              2            
     35500   454.33737      39154.325     -1705.5474      1170.5487      2729.5616      44359.798     -5580.5489     -272.03513      1.0724828      41974.93       0              0              0              2            
     35600   485.65621      39463.524     -1663.0328      1160.0921      2856.3397      44667.503     -5740.3809     -270.94961      1.0573245      42576.7        0              0              0              2            
     35700   500.21724      39809.195     -1617.337       1175.5579      2930.5357      44571.763     -5460.7664     -244.23225      1.0422144      43193.979      0              0              0              2            
     35800   511.05266      39927.698     -1498.7998      1179.4265      3013.6123      44725.772     -5680.8247     -265.73425      1.0294936      43727.703      0              0              0              2            
     35900   509.79105      39875.304     -1552.8433      1176.1752      2939.5534      44717.364     -5594.725      -265.10031      1.0175022      44243.039      0              0              0              2            
     36000   500.73291      39727.461     -1588.8317      1186.5973      2918.2383      44775.581     -5739.9704     -278.4724       1.0074193      44685.853      0              0              0              2            
     36100   491.85875      39647.161     -1550.4448      1176.8675      2952.5571      44567.119     -5674.2669     -277.7506       0.99866496     45077.569      0              0              0              2            
     36200   488.56955      39741.087     -1544.203       1183.1207      2916.3309      44683.985     -5697.4455     -256.00818      0.99095129     45428.458      0              0              0              2            
     36300   501.73705      39859.546     -1494.1269      1187.5143      2905.3612      44643.124     -5564.4995     -274.17778      0.9839293      45752.666      0              0              0              2            
     36400   510.00378      39995.305     -1517.4706      1180.6607      3091.189       44667.69      -5621.24       -262.56238      0.97745222     46055.846      0              0              0              2            
     36500   510.14575      39956.464     -1516.3306      1193.8069      2917.948       44866.73      -5711.1222     -252.61393      0.97228479     46300.62       0              0              0              2            
     36600   487.53137      40029.705     -1482.6776      1195.2783      3087.1977      44629.946     -5607.169      -250.32018      0.96746893     46531.095      0              0              0              2            
     36700   497.12343      39789.733     -1491.4403      1188.1002      2944.1805      44486.831     -5513.0259     -281.66548      0.96209651     46790.928      0              0              0              2            
     36800   504.11329      39749.967     -1520.3137      1190.2526      2869.1683      44699.918     -5688.8787     -256.1337       0.95800571     46990.731      0              0              0              2            
     36900   502.11202      39967.198     -1497.0109      1190.1076      2966.3787      44787.784     -5669.4659     -263.75224      0.95383117     47196.391      0              0              0              2            
     37000   504.2914       40070.99      -1474.575       1176.3264      3115.3112      44705.537     -5632.4        -272.0167       0.95079961     47346.874      0              0              0              2            
     37100   496.14207      40065.053     -1515.8023      1193.7897      3041.158       44696.329     -5536.7914     -265.80526      0.94891409     47440.953      0              0              0              2            
     37200   498.8217       39859.218     -1451.5622      1191.1305      2959.476       44613.674     -5636.8786     -268.86408      0.9469902      47537.333      0              0              0              2            
     37300   495.6662       39853.655     -1476.3662      1187.4441      2975.696       44702.408     -5715.848      -270.84125      0.94434248     47670.617      0              0              0              2            
     37400   493.11427      40000.18      -1450.1629      1178.7766      2948.8713      44604.277     -5475.057      -257.14591      0.94224981     47776.49       0              0              0              2            
     37500   500.11024      40089.953     -1448.5797      1186.1278      3124.0677      44628.073     -5586.9069     -261.90025      0.94028193     47876.48       0              0              0              2            
     37600   504.56449      40074.589     -1434.8706      1171.568       2984.8785      44781.767     -5593.3367     -283.48112      0.9394145      47920.688      0              0              0              2            
     37700   493.2383       92630.243      280.512        1173.9866      53861.695      44857.666     -5714.2959     -278.13503      0.93923498     47929.847      0              0              0              3            
     37800   493.18848      39802.728     -1491.3133      1158.7543      2893.1063      44577.077     -5510.7798     -272.52918      0.97319104     46257.504      0              0              0              3            
     37900   498.6627       39660.508     -1544.587       1156.6673      2931.9973      44601.397     -5676.5787     -258.42705      0.97812707     46024.07       0              0              0              3            
     38000   501.0821       39638.744     -1562.9052      1165.934       2968.0721      44590.697     -5693.9978     -280.2169       0.97696516     46078.807      0              0              0              3            
     38100   497.55263      39764.893     -1556.814       1172.9186      3018.0771      44471.765     -5515.6476     -275.44201      0.97488782     46176.994      0              0              0              3            
     38200   505.59934      39792.708     -1428.2323      1161.2407      3045.1513      44514.927     -5684.6059     -267.80296      0.97133932     46345.688      0              0              0              3            
     38300   508.59399      39837.131     -1522.67        1173.5717      2964.2011      44592.303     -5570.1727     -250.77421      0.96676428     46565.01       0              0              0              3            
     38400   511.10056      39766.882     -1499.4437      1169.0245      2954.6019      44517.878     -5556.4222     -268.98074      0.96265321     46763.87       0              0              0              3            
     38500   498.89987      39765.723     -1483.3395      1171.6835      2989.4573      44652.932     -5732.3726     -284.91982      0.96015427     46885.579      0              0              0              3            
     38600   496.45259      39723.06      -1479.7015      1151.9664      3056.6308      44357.712     -5564.3391     -250.19965      0.95776717     47002.435      0              0              0              3            
     38700   503.91317      39713.41      -1472.7587      1160.4244      2931.0349      44560.129     -5627.6652     -288.41926      0.95508717     47134.325      0              0              0              3            
     38800   500.9785       39876.103     -1477.5742      1163.6004      3008.5909      44648.445     -5643.1618     -273.19906      0.95286903     47244.047      0              0              0              3            
     38900   505.67035      39891.728     -1445.5882      1152.9769      3018.7384      44684.654     -5687.6543     -282.06026      0.95047156     47363.215      0              0              0              3            
     39000   509.11181      39816.263     -1486.6205      1161.5078      2967.383       44582.091     -5595.6641     -264.07124      0.94865612     47453.854      0              0              0              3            
     39100   499.50966      39842.59      -1433.4117      1169.2498      3041.9058      44366.757     -5480.1725     -273.96169      0.94681601     47546.079      0              0              0              3            
     39200   507.09301      39690.536     -1444.6648      1162.8637      2877.7081      44587.753     -5685.9524     -259.80714      0.94563584     47605.417      0              0              0              3            
     39300   495.31384      39861.941     -1460.2022      1165.9289      3016.588       44567.693     -5622.7356     -259.26476      0.94505238     47634.808      0              0              0              3            
     39400   500.35983      39910.274     -1410.0254      1154.161       3086.7151      44507.285     -5599.2933     -279.34541      0.94455651     47659.816      0              0              0              3            
     39500   504.82893      39911.795     -1447.0244      1158.2308      2925.1766      44585.573     -5491.1855     -270.4129       0.94444438     47665.474      0              0              0              3            
     39600   506.25504      39817.476     -1462.7658      1160.3909      2997.8649      44526.07      -5602.2034     -253.44605      0.94386175     47694.897      0              0              0              3            
     39700   496.49435      39813.488     -1406.1669      1163.6317      2976.3709      44425.856     -5540.7132     -256.53467      0.9433681      47719.855      0              0              0              3            
     39800   489.97881      39849.885     -1454.296       1163.012       3049.323       44506.329     -5590.2922     -274.90781      0.94172092     47803.323      0              0              0              3            
     39900   493.09712      39896.945     -1478.1305      1164.0437      2991.5281      44728.329     -5693.762      -266.13917      0.94072252     47854.057      0              0              0              3            
     40000   509.01716      39832.891     -1476.2072      1160.7948      3058.055       44554.833     -5642.2079     -274.74655      0.941209       47829.322      0              0              0              3            
     40100   505.0306       39851.027     -1474.7256      1161.9268      3061.2589      44477.222     -5560.8384     -266.99248      0.9427011      47753.619      0              0              0              3            
     40200   493.96389      39787.244     -1489.4067      1169.7206      3040.5472      44483.913     -5601.5176     -269.94543      0.94513499     47630.645      0              0              0              3            
     40300   495.04425      39730.348     -1482.1211      1160.2856      2993.5441      44521.573     -5657.8468     -259.38972      0.94801344     47486.024      0              0              0              3            
     40400   501.45149      39725.996     -1485.9379      1165.9446      3011.9271      44382.643     -5533.4974     -270.59086      0.9505422      47359.695      0              0              0              3            
     40500   499.95641      39844.959     -1438.6321      1167.125       2994.6313      44506.683     -5586.2836     -252.72866      0.95142104     47315.948      0              0              0              3            
     40600   506.4096       39843.204     -1471.9009      1168.3425      2961.8782      44462.62      -5481.3492     -251.43947      0.95069904     47351.882      0              0              0              3            
     40700   503.49176      39872.478     -1458.7519      1163.3085      3009.5232      44606.785     -5646.745      -255.99724      0.94831925     47470.711      0              0              0              3            
     40800   491.35379      39788.054     -1446.4175      1163.1774      2950.9005      44438.016     -5512.0714     -258.45647      0.94499557     47637.672      0              0              0              3            
     40900   484.19227      39846.252     -1479.1936      1165.8382      2988.0828      44551.289     -5550.2228     -281.28558      0.94062671     47858.931      0              0              0              3            
     41000   498.17868      39851.057     -1478.4382      1177.5235      3000.3324      44638.921     -5669.9228     -269.28132      0.93637072     48076.459      0              0              0              3            
     41100   494.68522      39994.327     -1439.7257      1169.0047      3104.6773      44631.191     -5649.4694     -274.59718      0.93351834     48223.358      0              0              0              3            
     41200   503.93683      39919.314     -1451.1745      1171.6484      3009.7877      44506.034     -5506.8762     -263.59656      0.93108826     48349.217      0              0              0              3            
     41300   512.02965      39835.99      -1462.6837      1166.6277      3011.4516      44438.077     -5516.6004     -255.53024      0.92889122     48463.575      0              0              0              3            
     41400   495.99936      39928.579     -1445.3162      1165.5336      3004.737       44589.845     -5581.164      -261.34497      0.92791185     48514.725      0              0              0              3            
     41500   492.55443      39827.328     -1478.1874      1166.7031      2970.7045      44557.962     -5576.1749     -268.50033      0.92883657     48466.426      0              0              0              3            
     41600   495.7571       39822.844     -1458.8238      1160.4161      3067.6192      44384.311     -5539.1314     -246.03079      0.93135802     48335.213      0              0              0              3            
     41700   497.75395      106012.71      338.74546      1158.2552      67356.373      44639.131     -5665.1074     -267.22613      0.93423471     48186.38       0              0              0              4            
     41800   507.21406      39821.408     -1458.0277      1153.2088      2958.2885      44593.59      -5612.897      -263.32025      0.97544356     46150.686      0              0              0              4            
     41900   512.35066      39680.327     -1544.3924      1146.2653      2987.7238      44575         -5649.9907     -284.8716       0.97847234     46007.83       0              0              0              4            
     42000   502.67058      39638.972     -1511.8814      1140.3678      2936.3567      44510.567     -5640.4595     -248.09933      0.97690209     46081.782      0              0              0              4            
     42100   500.91573      39616.594     -1524.0162      1141.6328      2979.5105      44437.849     -5613.2738     -257.4605       0.97350157     46242.749      0              0              0              4            
     42200   496.59018      39651.07      -1531.401       1140.8883      3046.0062      44373.002     -5570.7835     -257.20359      0.96913896     46450.912      0              0              0              4            
     42300   494.79154      39616.825     -1498.4437      1141.7464      2971.7397      44440.166     -5633.767      -256.17922      0.96562079     46620.153      0              0              0              4            
     42400   492.55027      39568.29      -1550.6622      1141.5263      2969.6246      44523.027     -5701.7098     -263.35846      0.96221911     46784.966      0              0              0              4            
     42500   493.23884      39639.536     -1508.6588      1147.8557      3067.2463      44241.621     -5490.6765     -267.83209      0.95964241     46910.587      0              0              0              4            
     42600   493.80754      39802.278     -1459.8025      1148.4122      3087.7998      44428.385     -5572.645      -279.50089      0.95682994     47048.474      0              0              0              4            
     42700   498.86138      39766.212     -1451.0357      1147.2504      3012.9939      44534.747     -5666.2116     -263.79377      0.95423986     47176.177      0              0              0              4            
     42800   495.71523      39758.63      -1435.1111      1151.7529      2990.4089      44595.443     -5723.1575     -272.81114      0.95149389     47312.325      0              0              0              4            
     42900   496.9515       39669.46      -1495.7259      1147.2337      3000.4513      44400.264     -5570.6339     -264.3442       0.94847893     47462.719      0              0              0              4            
     43000   496.65454      39569.043     -1498.0594      1142.8402      2973.124       44313.739     -5557.1977     -256.92971      0.94607322     47583.409      0              0              0              4            
     43100   488.88938      39695.68      -1467.532       1141.5075      2983.5012      44491.934     -5631.6023     -273.48344      0.94399736     47688.045      0              0              0              4            
     43200   500.57832      39746.556     -1465.9163      1145.1251      2961.9538      44433.16      -5509.5667     -269.16345      0.94168362     47805.216      0              0              0              4            
     43300   497.97209      39834.665     -1466.0043      1134.8187      3018.9714      44483.508     -5538.966      -250.14861      0.93903428     47940.091      0              0              0              4            
     43400   506.19362      39710.223     -1413.4868      1131.2231      2966.9615      44425.7       -5589.8064     -261.10984      0.93671788     48058.641      0              0              0              4            
     43500   495.318        39741.057     -1489.2995      1148.1108      3063.9315      44401.799     -5566.5861     -266.44102      0.93507759     48142.945      0              0              0              4            
     43600   490.13118      39642.717     -1494.1396      1155.701       3012.5089      44553.178     -5749.6126     -288.40164      0.93459279     48167.918      0              0              0              4            
     43700   488.85227      39702.884     -1404.8279      1148.9732      3032.2043      44394.268     -5654.6383     -264.18085      0.93560992     48115.553      0              0              0              4            
     43800   499.76073      39793.146     -1454.1385      1145.9083      3025.6822      44613.738     -5696.6018     -293.52201      0.93622156     48084.119      0              0              0              4            
     43900   507.89188      39726.214     -1441.9285      1152.8996      2960.9242      44466.736     -5592.6576     -270.30436      0.93733071     48027.221      0              0              0              4            
     44000   501.73356      39743.62      -1504.7322      1143.3904      3004.6943      44668.007     -5737.2731     -282.69298      0.93924423     47929.375      0              0              0              4            
     44100   497.53261      39678.099     -1485.8544      1148.377       2979.6305      44432.565     -5588.0773     -259.29906      0.94204265     47786.997      0              0              0              4            
     44200   495.36873      39662.609     -1486.6309      1142.3909      3047.2324      44379.654     -5607.609      -264.16179      0.94462459     47656.38       0              0              0              4            
     44300   499.15399      39768.906     -1487.0005      1149.3906      3093.9814      44553.961     -5718.7829     -274.10826      0.94578725     47597.796      0              0              0              4            
     44400   506.98165      39812.3       -1494.3605      1151.8011      3175.4515      44555.5       -5764.2843     -262.2445       0.94610227     47581.948      0              0              0              4            
     44500   498.94573      39839.498     -1507.8472      1157.4762      3058.0914      44491.689     -5554.2588     -257.13109      0.94572412     47600.973      0              0              0              4            
     44600   497.99589      39726.41      -1448.504       1150.2465      3102.8143      44273.516     -5545.0831     -255.24382      0.94560941     47606.748      0              0              0              4            
     44700   498.92912      39672.005     -1469.8748      1155.9847      2997.5071      44405.545     -5605.1985     -259.24398      0.94450859     47662.234      0              0              0              4            
     44800   506.60651      39621.025     -1491.9001      1159.7178      3012.3311      44353.201     -5607.3123     -253.98693      0.94273824     47751.738      0              0              0              4            
     44900   505.87538      39680.295     -1469.5649      1139.6847      2964.643       44513.447     -5633.0576     -282.20404      0.94003687     47888.961      0              0              0              4            
     45000   506.32346      39699.256     -1447.0518      1136.186       3054.819       44394.999     -5615.2666     -273.41904      0.93733252     48027.128      0              0              0              4            
     45100   504.38189      39725.861     -1482.2422      1142.4422      3038.1436      44378.904     -5544.0995     -258.83117      0.93517216     48138.076      0              0              0              4            
     45200   504.31105      39713.672     -1442.8727      1143.0166      3037.7463      44389.927     -5608.4058     -259.15845      0.93372148     48212.866      0              0              0              4            
     45300   495.63063      39799.826     -1436.7979      1155.9376      3039.2021      44472.555     -5604.2946     -281.59659      0.9331987      48239.875      0              0              0              4            
     45400   498.78593      39756.527     -1466.02        1160.0205      3108.9977      44356.153     -5595.8307     -262.09233      0.93374573     48211.614      0              0              0              4            
     45500   508.30065      39659.053     -1471.9883      1155.0851      2964.1205      44381.512     -5569.1788     -256.55965      0.93485055     48154.637      0              0              0              4            
     45600   497.27871      39880.904     -1416.1393      1151.5412      3001.2566      44562.333     -5595.1354     -276.54312      0.93575505     48108.091      0              0              0              4            
     45700   515.2039       39760.171     -1452.6         1153.2199      3149.4232      44375.005     -5647.4069     -271.46042      0.9360412      48093.384      0              0              0              4            
     45800   501.5936       39819.505     -1458.2498      1151.792       3072.4168      44293.185     -5453.2093     -241.95878      0.93599237     48095.893      0              0              0              4            
     45900   501.83709      39666.133     -1467.8737      1153.2922      2984.3493      44309.23      -5507.2642     -259.39926      0.93506324     48143.684      0              0              0              4            
     46000   502.3433       39660.412     -1488.326       1164.7278      2966.3259      44417.864     -5586.4995     -266.10717      0.93355169     48221.635      0              0              0              4            
     46100   506.84161      39660.231     -1467.7536      1165.7919      3016.9162      44346.425     -5589.5139     -264.98634      0.93296946     48251.728      0              0              0              4            
     46200   492.72237      39895.306     -1402.3894      1172.1301      3050.4254      44450.904     -5562.6657     -268.32493      0.93446652     48174.426      0              0              0              4            
     46300   508.39651      39925.316     -1476.0851      1166.3029      3087.0394      44581.249     -5613.021      -275.11762      0.93521426     48135.909      0              0              0              4            
     46400   519.32017      39777.017     -1434.4297      1155.5489      3037.4711      44468.18      -5629.59       -270.58268      0.93518006     48137.669      0              0              0              4            
     46500   500.98145      39824.75      -1473.8678      1161.8058      3144.3132      44311.17      -5504.5946     -263.53836      0.93457673     48168.746      0              0              0              4            
     46600   500.36487      39730.75      -1475.3489      1155.4325      3032.5911      44470.675     -5640.2262     -261.28109      0.93427616     48184.242      0              0              0              4            
     46700   497.48391      39737.187     -1503.3058      1146.9206      3022.1101      44476.228     -5590.0068     -264.42879      0.93412044     48192.275      0              0              0              4            
     46800   505.09723      39637.135     -1456.1584      1156.2584      2916.4544      44490.817     -5644.6424     -275.90595      0.93487023     48153.623      0              0              0              4            
     46900   504.69459      39733.298     -1490.9414      1158.0352      3050.0949      44461.277     -5627.409      -269.03772      0.93542579     48125.024      0              0              0              4            
     47000   505.27186      39878.063     -1441.3958      1149.5472      3167.29        44553.498     -5723.3728     -278.75962      0.93636893     48076.551      0              0              0              4            
     47100   504.53545      39854.896     -1429.6025      1148.1542      3073.4885      44409.88      -5541.4753     -256.93401      0.93750977     48018.048      0              0              0              4            
     47200   497.4098       39772.988     -1451.2639      1149.5097      3075.1679      44369.75      -5564.5895     -257.92644      0.93782324     48001.997      0              0              0              4            
     47300   497.98105      39694.71      -1428.3502      1146.8403      3007.173       44332.613     -5551.646      -264.19403      0.93843414     47970.749      0              0              0              4            
     47400   500.97746      39678.986     -1485.9135      1149.7769      3000.3881      44475.524     -5654.195      -256.31587      0.93937149     47922.882      0              0              0              4            
     47500   498.31991      39781.452     -1439.5336      1139.1044      3070.6744      44432.811     -5590.0249     -280.42914      0.94000598     47890.534      0              0              0              4            
     47600   506.89878      39789.019     -1464.6574      1144.3027      3071.7885      44517.056     -5645.1539     -282.15018      0.94008366     47886.577      0              0              0              4            
     47700   512.39031      39855.032     -1503.3289      1139.9557      3051.1966      44640.86      -5655.7297     -264.92495      0.93855        47964.828      0              0              0              4            
     47800   513.02417      39749.703     -1452.4639      1141.9763      3083.3935      44450.515     -5660.0721     -260.922        0.93591712     48099.76       0              0              0              4            
     47900   497.56629      39739.694     -1467.2089      1135.5026      3034.6976      44312.465     -5472.1887     -252.31844      0.93357901     48220.224      0              0              0              4            
     48000   500.71111      39663.93      -1468.7494      1145.6983      3045.9461      44323.286     -5579.5935     -252.45061      0.93120161     48343.332      0              0              0              4            
     48100   496.31166      39770.376     -1422.5426      1142.1339      3044.4325      44533.249     -5690.4671     -286.53398      0.92926583     48444.037      0              0              0              4            
     48200   506.95244      39790.898     -1464.1549      1146.8917      3060.2455      44631.378     -5752.9498     -281.79855      0.927421       48540.403      0              0              0              4            
     48300   506.0209       39862.535     -1414.722       1152.0539      3017.7731      44448.028     -5540.8811     -252.33366      0.92541333     48645.711      0              0              0              4            
     48400   502.41238      39810.664     -1450.0313      1147.5849      3037.9891      44500.756     -5608.9714     -271.26845      0.92251484     48798.553      0              0              0              4            
     48500   498.06944      39637.278     -1428.083       1146.9821      2954.1065      44430.661     -5643.4183     -275.86378      0.92086955     48885.739      0              0              0              4            
     48600   495.12693      39723.497     -1446.4248      1151.24        3066.8583      44327.892     -5558.8117     -270.36056      0.92000075     48931.904      0              0              0              4            
     48700   499.22246      39820.112     -1407.5296      1153.4363      3040.2692      44364.481     -5538.5508     -244.30681      0.92086899     48885.769      0              0              0              4            
     48800   497.60654      39913.404     -1439.0327      1151.6419      3017.4931      44629.899     -5631.0131     -268.39439      0.92170952     48841.189      0              0              0              4            
     48900   504.92747      39822.058     -1418.2678      1150.2845      3109.6298      44436.429     -5636.1418     -272.29888      0.92255548     48796.403      0              0              0              4            
     49000   511.0186       39618.827     -1460.6978      1163.4073      3020.5886      44279.288     -5576.8214     -258.28959      0.92345794     48748.716      0              0              0              4            
     49100   491.62899      39686.658     -1482.678       1163.2403      3025.2846      44283.564     -5491.8186     -263.70207      0.92526025     48653.759      0              0              0              4            
     49200   494.74095      39705.361     -1421.8388      1161.4654      2998.9308      44456.067     -5680.8389     -261.02385      0.92824052     48497.548      0              0              0              4            
     49300   510.21431      39659.838     -1437.0734      1152.9621      3009.764       44319.268     -5574.7186     -263.13055      0.93069873     48369.453      0              0              0              4            
     49400   498.86399      39834.882     -1468.2737      1153.8128      3047.694       44439.24      -5543.9118     -245.84884      0.93242119     48280.101      0              0              0              4            
     49500   505.87403      39735.736     -1435.0821      1160.4467      3091.3005      44475.46      -5735.9188     -272.16532      0.93393828     48201.674      0              0              0              4            
     49600   503.00638      39722.47      -1455.5189      1160.5786      2955.9036      44482.617     -5599.4088     -273.3068       0.93568899     48111.487      0              0              0              4            
     49700   493.1265       39671.801     -1437.825       1149.0533      3037.9345      44408.269     -5657.9939     -279.28565      0.93769964     48008.325      0              0              0              4            
     49800   492.00117      39659.355     -1432.558       1150.6947      3007.2513      44562.044     -5788.2365     -293.05708      0.94070867     47854.761      0              0              0              4            
     49900   493.51722      39804.475     -1445.4405      1159.9469      3121.4703      44418.437     -5648.2596     -256.09512      0.94435451     47670.01       0              0              0              4            
     50000   494.14925      39896.119     -1451.637       1151.6404      3063.7681      44571.011     -5632.2114     -261.29608      0.94737697     47517.926      0              0              0              4            
     50100   499.37235      39799.55      -1471.5079      1145.4613      3066.1671      44444.488     -5572.6037     -266.59407      0.94856966     47458.179      0              0              0              4            
     50200   498.70043      39729.154     -1499.1882      1147.8715      3040.1211      44405.769     -5555.229      -261.10575      0.94904565     47434.377      0              0              0              4            
     50300   498.8703       39618.474     -1467.7262      1143.0691      2972.9542      44344.619     -5560.1744     -264.04034      0.94951392     47410.984      0              0              0              4            
     50400   489.37268      39587.648     -1533.8695      1146.1054      3025.6015      44440.339     -5666.4888     -275.03665      0.95039125     47367.217      0              0              0              4            
     50500   490.90216      39520.079     -1496.2788      1145.4716      2974.8477      44415.933     -5694.6484     -275.65182      0.95285491     47244.747      0              0              0              4            
     50600   500.96885      39621.559     -1505.2264      1137.0839      3022.7985      44399.43      -5607.5105     -275.81479      0.955204       47128.56       0              0              0              4            
     50700   506.44491      39660.37      -1506.4309      1145.6726      3118.7306      44330.229     -5617.0145     -262.50948      0.95642075     47068.603      0              0              0              4            
     50800   510.41098      39631.169     -1482.2556      1145.2137      2980.8988      44416.968     -5617.52       -263.08048      0.95623583     47077.706      0              0              0              4            
     50900   512.22634      39569.441     -1528.3351      1162.1329      3030.6916      44243.202     -5532.8078     -257.49235      0.95429569     47173.417      0              0              0              4            
     51000   496.90799      39649.408     -1474.2364      1150.2522      3034.0064      44299.117     -5547.3794     -263.92474      0.95153539     47310.262      0              0              0              4            
     51100   485.7047       39706.323     -1508.0796      1132.3556      3019.6253      44434.617     -5549.8316     -273.86844      0.94820913     47476.224      0              0              0              4            
     51200   495.31712      39660.184     -1488.4813      1136.3749      3030.9248      44449.524     -5657.5671     -260.89162      0.94477816     47648.634      0              0              0              4            
     51300   497.43362      39835.726     -1473.9873      1137.4728      3029.1555      44488.735     -5521.8977     -271.36998      0.94169586     47804.594      0              0              0              4            
     51400   498.2831       39859.41      -1458.05        1136.8112      3050.029       44410.675     -5482.3041     -245.36162      0.93879216     47952.455      0              0              0              4            
     51500   504.66836      39706.311     -1483.515       1143.6823      3133.2712      44320.394     -5596.819      -258.74337      0.9364826      48070.716      0              0              0              4            
     51600   499.54062      39636.246     -1469.1045      1142.4849      2905.6817      44340.816     -5477.0831     -256.40818      0.9347184      48161.445      0              0              0              4            
     51700   499.21695      39604.651     -1477.0566      1137.4361      3033.7931      44380.553     -5649.5832     -271.03908      0.93418883     48188.747      0              0              0              4            
     51800   516.78297      39626.152     -1456.4728      1148.2948      2982.3367      44316.667     -5556.4395     -260.55431      0.93470813     48161.974      0              0              0              4            
     51900   504.71007      39841.305     -1505.493       1151.8209      3035.0504      44677.062     -5702.1729     -268.63182      0.93738562     48024.407      0              0              0              4            
     52000   502.87677      39780.369     -1431.5722      1141.8182      3116.7078      44357.632     -5599.411      -257.64253      0.94125394     47827.039      0              0              0              4            
     52100   497.22424      39721.883     -1475.9019      1147.3052      3120.6452      44380.937     -5623.1142     -282.02899      0.94446289     47664.54       0              0              0              4            
     52200   509.50028      39516.349     -1480.6882      1149.3172      2850.6992      44404.409     -5587.5002     -272.47997      0.94728435     47522.572      0              0              0              4            
     52300   501.82329      39724.452     -1489.7291      1158.7622      3086.6089      44326.926     -5548.3492     -261.67228      0.95085871     47343.931      0              0              0              4            
     52400   501.12882      39922.904     -1487.2286      1161.9565      3148.0572      44454.324     -5553.5931     -254.91378      0.95390473     47192.751      0              0              0              4            
     52500   507.62459      39784.765     -1485.2811      1151.2265      3090.5687      44539.177     -5689.2612     -275.73555      0.95589094     47094.691      0              0              0              4            
     52600   505.74671      39661.349     -1508.6851      1140.0885      3017.9409      44448.789     -5626.449      -261.29105      0.95527812     47124.903      0              0              0              4            
     52700   496.54275      39690.256     -1513.5688      1153.3169      3002.9856      44425.962     -5573.4256     -257.06148      0.95399316     47188.377      0              0              0              4            
     52800   496.93395      39685.329     -1495.68        1164.6857      3033.9937      44437.052     -5620.6393     -285.54366      0.9526709      47253.872      0              0              0              4            
     52900   498.86871      39755.483     -1443.7534      1156.17        2984.4998      44494.733     -5621.0809     -267.0824       0.95106965     47333.43       0              0              0              4            
     53000   504.53977      39852.528     -1521.5473      1153.47        3047.6539      44555.498     -5580.6494     -253.56695      0.94869305     47452.007      0              0              0              4            
     53100   511.44849      39876.435     -1458.2289      1150.3507      3085.6615      44303.194     -5411.6225     -243.29636      0.94649197     47562.357      0              0              0              4            
     53200   503.93801      39792.58      -1469.3134      1150.4649      3044.0008      44381.19      -5510.8305     -253.92992      0.94456547     47659.363      0              0              0              4            
     53300   490.83241      39768.031     -1447.0775      1147.2221      2991.516       44470.56      -5589.3493     -254.57273      0.94319361     47728.683      0              0              0              4            
     53400   496.26115      39674.792     -1510.8362      1147.9526      3047.0588      44418.484     -5611.7981     -265.49916      0.94296006     47740.505      0              0              0              4            
     53500   497.20181      39736.12      -1487.6272      1138.1224      3052.8105      44324.375     -5494.5881     -245.24751      0.94456955     47659.157      0              0              0              4            
     53600   500.15919      39818.337     -1445.8424      1138.0801      3109.7501      44490.65      -5637.1456     -287.21031      0.94742834     47515.349      0              0              0              4            
     53700   504.01878      39822.16      -1488.2166      1144.5907      3046.0302      44419.663     -5502.3021     -247.61342      0.95078309     47347.696      0              0              0              4            
     53800   506.20921      39705.343     -1504.8884      1150.6032      3072.2494      44397.778     -5593.426      -266.76324      0.95308854     47233.165      0              0              0              4            
     53900   491.46222      39704.734     -1501.5326      1139.3153      2986.6649      44358.772     -5473.631      -254.03061      0.9536824      47203.754      0              0              0              4            
     54000   490.65782      39716.82      -1544.1167      1155.1942      3081.6442      44440.486     -5615.034      -252.32447      0.9530313      47236.003      0              0              0              4            
     54100   502.0727       39694.74      -1494.669       1144.5047      2969.576       44487.556     -5600.2595     -263.53337      0.95239227     47267.696      0              0              0              4            
     54200   511.14399      39721.672     -1504.8327      1147.2621      3167.1246      44312.901     -5571.4371     -281.70506      0.95080225     47346.742      0              0              0              4            
     54300   507.79773      39746.194     -1566.6167      1149.8063      3048.3272      44477.645     -5543.8084     -272.03517      0.94861242     47456.04       0              0              0              4            
     54400   501.98134      39757.046     -1519.3873      1153.0324      3052.2293      44386.493     -5507.9818     -260.98352      0.94539887     47617.35       0              0              0              4            
     54500   499.55003      39717.209     -1482.8014      1147.3878      3099.4973      44399.024     -5613.5073     -283.14533      0.9415462      47812.193      0              0              0              4            
     54600   494.7479       39740.173     -1467.5303      1139.5917      2995.6737      44593.427     -5693.4008     -277.09038      0.93695993     48046.226      0              0              0              4            
     54700   502.43929      39734.57      -1443.1528      1144.7948      2992.6472      44444.686     -5589.1817     -265.75596      0.9331891      48240.372      0              0              0              4            
     54800   511.14945      39816.879     -1429.5594      1151.8841      3084.324       44405.351     -5579.3594     -265.67081      0.92987257     48412.428      0              0              0              4            
     54900   506.80645      39839.65      -1382.5009      1141.2483      3028.1902      44474.477     -5591.2549     -279.61618      0.92795223     48512.6