LAMMPS (22 Dec 2022)
WARNING: Using I/O redirection is unreliable with parallel runs. Better to use the -in switch to read input files. (../lammps.cpp:531)
# PREREQUISITES:
#
#     You must use moltemplate.sh to create 3 files:
#        system.data  system.in.init  system.in.settings
#     (Follow the instructions in README_setup.sh,
#      or run the file as a script using ./README_setup.sh)

# ------------------------------- Initialization Section --------------------

units real
atom_style full
pair_style lj/class2/coul/cut 10.0
bond_style class2
angle_style class2
dihedral_style class2
improper_style class2


# ------------------------------- Atom Definition Section -------------------

read_data       "pack_mol.data" extra/bond/per/atom 1 extra/angle/per/atom 12 extra/dihedral/per/atom 12 extra/improper/per/atom 12 extra/special/per/atom 12
Reading data file ...
  orthogonal box = (0 0 0) to (46.421867 46.421867 46.421867)
  1 by 2 by 3 MPI processor grid
  reading atoms ...
  3976 atoms
  scanning bonds ...
  5 = max bonds/atom
  scanning angles ...
  18 = max angles/atom
  scanning dihedrals ...
  30 = max dihedrals/atom
  scanning impropers ...
  16 = max impropers/atom
  reading bonds ...
  4628 bonds
  reading angles ...
  10230 angles
  reading dihedrals ...
  18834 dihedrals
  reading impropers ...
  6600 impropers
Finding 1-2 1-3 1-4 neighbors ...
  special bond factors lj:    0        0        0       
  special bond factors coul:  0        0        0       
     4 = max # of 1-2 neighbors
     9 = max # of 1-3 neighbors
    25 = max # of 1-4 neighbors
    36 = max # of special neighbors
  special bonds CPU = 0.019 seconds
  read_data CPU = 0.404 seconds

include calc.pram

# Masses

mass		1    12.01115  # c
mass		2    12.01115  # c1
mass		3    12.01115  # c3h
mass		4     1.00797  # h
mass		5     1.00797  # hc
mass		6    15.99940  # o3e
mass		7    15.99940  # oc
mass		8    15.99940  # oh

# Potentials

pair_coeff	 1  1    0.05400    4.01000  # c,c
pair_coeff	 2  2    0.05400    4.01000  # c1,c1
pair_coeff	 3  3    0.05400    4.01000  # c3h,c3h
pair_coeff	 4  4    0.02000    2.99500  # h,h
pair_coeff	 5  5    0.02000    2.99500  # hc,hc
pair_coeff	 6  6    0.24000    3.53500  # o3e,o3e
pair_coeff	 7  7    0.24000    3.53500  # oc,oc
pair_coeff	 8  8    0.24000    3.53500  # oh,oh

# Bond Coeffs

bond_coeff	 1    1.53000  299.67000 -501.77000  679.81000  # c,c
bond_coeff	 2    1.53000  299.67000 -501.77000  679.81000  # c,c1
bond_coeff	 3    1.53000  299.67000 -501.77000  679.81000  # c,c3h
bond_coeff	 4    1.10100  345.00000 -691.89000  844.60000  # c,hc
bond_coeff	 5    1.53000  299.67000 -501.77000  679.81000  # c1,c1
bond_coeff	 6    1.53000  299.67000 -501.77000  679.81000  # c1,c3h
bond_coeff	 7    1.10100  345.00000 -691.89000  844.60000  # c1,hc
bond_coeff	 8    1.42000  400.39540 -835.19510 1313.01420  # c1,o3e
bond_coeff	 9    1.42000  400.39540 -835.19510 1313.01420  # c1,oc
bond_coeff	10    1.42000  400.39540 -835.19510 1313.01420  # c1,oh
bond_coeff	11    1.53000  299.67000 -501.77000  679.81000  # c3h,c3h
bond_coeff	12    1.10100  345.00000 -691.89000  844.60000  # c3h,hc
bond_coeff	13    1.42000  400.39540 -835.19510 1313.01420  # c3h,o3e
bond_coeff	14    0.96000  493.84800    0.00000    0.00000  # h,oh

# Angle Coeffs

angle_coeff	 1  112.67000   39.51600   -7.44300   -9.55830  # c,c,c1
angle_coeff	 2  110.77000   41.45300  -10.60400    5.12900  # c,c,hc
angle_coeff	 3  112.67000   39.51600   -7.44300   -9.55830  # c,c1,c
angle_coeff	 4  112.67000   39.51600   -7.44300   -9.55830  # c,c1,c1
angle_coeff	 5  110.77000   41.45300  -10.60400    5.12900  # c,c1,hc
angle_coeff	 6  111.27000   54.53810   -8.36420  -13.08380  # c,c1,o3e
angle_coeff	 7  111.27000   54.53810   -8.36420  -13.08380  # c,c1,oc
angle_coeff	 8  112.67000   39.51600   -7.44300   -9.55830  # c,c3h,c3h
angle_coeff	 9  110.77000   41.45300  -10.60400    5.12900  # c,c3h,hc
angle_coeff	10  111.27000   54.53810   -8.36420  -13.08380  # c,c3h,o3e
angle_coeff	11  112.67000   39.51600   -7.44300   -9.55830  # c1,c,c1
angle_coeff	12  112.67000   39.51600   -7.44300   -9.55830  # c1,c,c3h
angle_coeff	13  110.77000   41.45300  -10.60400    5.12900  # c1,c,hc
angle_coeff	14  112.67000   39.51600   -7.44300   -9.55830  # c1,c1,c1
angle_coeff	15  112.67000   39.51600   -7.44300   -9.55830  # c1,c1,c3h
angle_coeff	16  110.77000   41.45300  -10.60400    5.12900  # c1,c1,hc
angle_coeff	17  111.27000   54.53810   -8.36420  -13.08380  # c1,c1,o3e
angle_coeff	18  111.27000   54.53810   -8.36420  -13.08380  # c1,c1,oc
angle_coeff	19  111.27000   54.53810   -8.36420  -13.08380  # c1,c1,oh
angle_coeff	20  112.67000   39.51600   -7.44300   -9.55830  # c1,c3h,c3h
angle_coeff	21  110.77000   41.45300  -10.60400    5.12900  # c1,c3h,hc
angle_coeff	22  111.27000   54.53810   -8.36420  -13.08380  # c1,c3h,o3e
angle_coeff	23  104.50000   35.74540  -10.00670   -6.27290  # c1,o3e,c1
angle_coeff	24  104.50000   35.74540  -10.00670   -6.27290  # c1,oc,c1
angle_coeff	25  109.00000   58.50000    0.00000    0.00000  # c1,oh,h
angle_coeff	26  110.77000   41.45300  -10.60400    5.12900  # c3h,c,hc
angle_coeff	27  110.77000   41.45300  -10.60400    5.12900  # c3h,c1,hc
angle_coeff	28  110.77000   41.45300  -10.60400    5.12900  # c3h,c3h,hc
angle_coeff	29  111.27000   54.53810   -8.36420  -13.08380  # c3h,c3h,o3e
angle_coeff	30  104.50000   35.74540  -10.00670   -6.27290  # c3h,o3e,c3h
angle_coeff	31  107.66000   39.64100  -12.92100   -2.43180  # hc,c,hc
angle_coeff	32  108.72800   58.54460  -10.80880  -12.40060  # hc,c1,o3e
angle_coeff	33  108.72800   58.54460  -10.80880  -12.40060  # hc,c1,oc
angle_coeff	34  108.72800   58.54460  -10.80880  -12.40060  # hc,c1,oh
angle_coeff	35  108.72800   58.54460  -10.80880  -12.40060  # hc,c3h,o3e

# BondBond Coeffs

angle_coeff	 1 bb    0.00000    1.53000    1.53000  # c,c,c1
angle_coeff	 2 bb    3.38720    1.53000    1.10100  # c,c,hc
angle_coeff	 3 bb    0.00000    1.53000    1.53000  # c,c1,c
angle_coeff	 4 bb    0.00000    1.53000    1.53000  # c,c1,c1
angle_coeff	 5 bb    3.38720    1.53000    1.10100  # c,c1,hc
angle_coeff	 6 bb   11.43180    1.53000    1.42000  # c,c1,o3e
angle_coeff	 7 bb   11.43180    1.53000    1.42000  # c,c1,oc
angle_coeff	 8 bb    0.00000    1.53000    1.53000  # c,c3h,c3h
angle_coeff	 9 bb    3.38720    1.53000    1.10100  # c,c3h,hc
angle_coeff	10 bb   11.43180    1.53000    1.42000  # c,c3h,o3e
angle_coeff	11 bb    0.00000    1.53000    1.53000  # c1,c,c1
angle_coeff	12 bb    0.00000    1.53000    1.53000  # c1,c,c3h
angle_coeff	13 bb    3.38720    1.53000    1.10100  # c1,c,hc
angle_coeff	14 bb    0.00000    1.53000    1.53000  # c1,c1,c1
angle_coeff	15 bb    0.00000    1.53000    1.53000  # c1,c1,c3h
angle_coeff	16 bb    3.38720    1.53000    1.10100  # c1,c1,hc
angle_coeff	17 bb   11.43180    1.53000    1.42000  # c1,c1,o3e
angle_coeff	18 bb   11.43180    1.53000    1.42000  # c1,c1,oc
angle_coeff	19 bb   11.43180    1.53000    1.42000  # c1,c1,oh
angle_coeff	20 bb    0.00000    1.53000    1.53000  # c1,c3h,c3h
angle_coeff	21 bb    3.38720    1.53000    1.10100  # c1,c3h,hc
angle_coeff	22 bb   11.43180    1.53000    1.42000  # c1,c3h,o3e
angle_coeff	23 bb   -7.11310    1.42000    1.42000  # c1,o3e,c1
angle_coeff	24 bb   -7.11310    1.42000    1.42000  # c1,oc,c1
angle_coeff	25 bb    0.00000    1.42000    0.96000  # c1,oh,h
angle_coeff	26 bb    3.38720    1.53000    1.10100  # c3h,c,hc
angle_coeff	27 bb    3.38720    1.53000    1.10100  # c3h,c1,hc
angle_coeff	28 bb    3.38720    1.53000    1.10100  # c3h,c3h,hc
angle_coeff	29 bb   11.43180    1.53000    1.42000  # c3h,c3h,o3e
angle_coeff	30 bb   -7.11310    1.42000    1.42000  # c3h,o3e,c3h
angle_coeff	31 bb    5.33160    1.10100    1.10100  # hc,c,hc
angle_coeff	32 bb   23.19790    1.10100    1.42000  # hc,c1,o3e
angle_coeff	33 bb   23.19790    1.10100    1.42000  # hc,c1,oc
angle_coeff	34 bb   23.19790    1.10100    1.42000  # hc,c1,oh
angle_coeff	35 bb   23.19790    1.10100    1.42000  # hc,c3h,o3e

# BondAngle Coeffs

angle_coeff	 1 ba    8.01600    8.01600    1.53000    1.53000  # c,c,c1
angle_coeff	 2 ba   11.42100   20.75400    1.53000    1.10100  # c,c,hc
angle_coeff	 3 ba    8.01600    8.01600    1.53000    1.53000  # c,c1,c
angle_coeff	 4 ba    8.01600    8.01600    1.53000    1.53000  # c,c1,c1
angle_coeff	 5 ba   11.42100   20.75400    1.53000    1.10100  # c,c1,hc
angle_coeff	 6 ba    2.68680   20.40330    1.53000    1.42000  # c,c1,o3e
angle_coeff	 7 ba   20.40330    2.68680    1.53000    1.42000  # c,c1,oc
angle_coeff	 8 ba    8.01600    8.01600    1.53000    1.53000  # c,c3h,c3h
angle_coeff	 9 ba   11.42100   20.75400    1.53000    1.10100  # c,c3h,hc
angle_coeff	10 ba    2.68680   20.40330    1.53000    1.42000  # c,c3h,o3e
angle_coeff	11 ba    8.01600    8.01600    1.53000    1.53000  # c1,c,c1
angle_coeff	12 ba    8.01600    8.01600    1.53000    1.53000  # c1,c,c3h
angle_coeff	13 ba   20.75400   11.42100    1.53000    1.10100  # c1,c,hc
angle_coeff	14 ba    8.01600    8.01600    1.53000    1.53000  # c1,c1,c1
angle_coeff	15 ba    8.01600    8.01600    1.53000    1.53000  # c1,c1,c3h
angle_coeff	16 ba   20.75400   11.42100    1.53000    1.10100  # c1,c1,hc
angle_coeff	17 ba    2.68680   20.40330    1.53000    1.42000  # c1,c1,o3e
angle_coeff	18 ba    2.68680   20.40330    1.53000    1.42000  # c1,c1,oc
angle_coeff	19 ba   20.40330    2.68680    1.53000    1.42000  # c1,c1,oh
angle_coeff	20 ba    8.01600    8.01600    1.53000    1.53000  # c1,c3h,c3h
angle_coeff	21 ba   20.75400   11.42100    1.53000    1.10100  # c1,c3h,hc
angle_coeff	22 ba    2.68680   20.40330    1.53000    1.42000  # c1,c3h,o3e
angle_coeff	23 ba   -2.81120   -2.81120    1.42000    1.42000  # c1,o3e,c1
angle_coeff	24 ba   -2.81120   -2.81120    1.42000    1.42000  # c1,oc,c1
angle_coeff	25 ba    0.00000    0.00000    1.42000    0.96000  # c1,oh,h
angle_coeff	26 ba   11.42100   20.75400    1.53000    1.10100  # c3h,c,hc
angle_coeff	27 ba   11.42100   20.75400    1.53000    1.10100  # c3h,c1,hc
angle_coeff	28 ba   11.42100   20.75400    1.53000    1.10100  # c3h,c3h,hc
angle_coeff	29 ba   20.40330    2.68680    1.53000    1.42000  # c3h,c3h,o3e
angle_coeff	30 ba   -2.81120   -2.81120    1.42000    1.42000  # c3h,o3e,c3h
angle_coeff	31 ba   18.10300   18.10300    1.10100    1.10100  # hc,c,hc
angle_coeff	32 ba    4.61890   55.32700    1.10100    1.42000  # hc,c1,o3e
angle_coeff	33 ba    4.61890   55.32700    1.10100    1.42000  # hc,c1,oc
angle_coeff	34 ba   55.32700    4.61890    1.10100    1.42000  # hc,c1,oh
angle_coeff	35 ba    4.61890   55.32700    1.10100    1.42000  # hc,c3h,o3e

# Dihedral Coeffs

dihedral_coeff	 1    0.00000    0.00000    0.05140    0.00000   -0.14300    0.00000  # c,c,c1,c1
dihedral_coeff	 2    0.00000    0.00000    0.03160    0.00000   -0.16810    0.00000  # c,c,c1,hc
dihedral_coeff	 3    0.71370    0.00000    0.26600    0.00000   -0.25450    0.00000  # c,c,c1,oc
dihedral_coeff	 4    0.00000    0.00000    0.05140    0.00000   -0.14300    0.00000  # c,c1,c,c1
dihedral_coeff	 5    0.00000    0.00000    0.03160    0.00000   -0.16810    0.00000  # c,c1,c,hc
dihedral_coeff	 6    0.00000    0.00000    0.05140    0.00000   -0.14300    0.00000  # c,c1,c1,c
dihedral_coeff	 7    0.00000    0.00000    0.05140    0.00000   -0.14300    0.00000  # c,c1,c1,c1
dihedral_coeff	 8    0.00000    0.00000    0.05140    0.00000   -0.14300    0.00000  # c,c1,c1,c3h
dihedral_coeff	 9    0.00000    0.00000    0.03160    0.00000   -0.16810    0.00000  # c,c1,c1,hc
dihedral_coeff	10    0.71370    0.00000    0.26600    0.00000   -0.25450    0.00000  # c,c1,c1,o3e
dihedral_coeff	11    0.71370    0.00000    0.26600    0.00000   -0.25450    0.00000  # c,c1,c1,oc
dihedral_coeff	12    0.71370    0.00000    0.26600    0.00000   -0.25450    0.00000  # c,c1,c1,oh
dihedral_coeff	13   -0.52030    0.00000   -0.30280    0.00000   -0.34500    0.00000  # c,c1,o3e,c1
dihedral_coeff	14   -0.52030    0.00000   -0.30280    0.00000   -0.34500    0.00000  # c,c1,oc,c1
dihedral_coeff	15    0.00000    0.00000    0.05140    0.00000   -0.14300    0.00000  # c,c3h,c3h,c1
dihedral_coeff	16    0.00000    0.00000    0.03160    0.00000   -0.16810    0.00000  # c,c3h,c3h,hc
dihedral_coeff	17    0.71370    0.00000    0.26600    0.00000   -0.25450    0.00000  # c,c3h,c3h,o3e
dihedral_coeff	18   -0.52030    0.00000   -0.30280    0.00000   -0.34500    0.00000  # c,c3h,o3e,c3h
dihedral_coeff	19    0.00000    0.00000    0.05140    0.00000   -0.14300    0.00000  # c1,c,c,c1
dihedral_coeff	20    0.00000    0.00000    0.03160    0.00000   -0.16810    0.00000  # c1,c,c,hc
dihedral_coeff	21    0.00000    0.00000    0.05140    0.00000   -0.14300    0.00000  # c1,c,c1,c1
dihedral_coeff	22    0.00000    0.00000    0.03160    0.00000   -0.16810    0.00000  # c1,c,c1,hc
dihedral_coeff	23    0.71370    0.00000    0.26600    0.00000   -0.25450    0.00000  # c1,c,c1,o3e
dihedral_coeff	24    0.71370    0.00000    0.26600    0.00000   -0.25450    0.00000  # c1,c,c1,oc
dihedral_coeff	25    0.00000    0.00000    0.05140    0.00000   -0.14300    0.00000  # c1,c,c3h,c3h
dihedral_coeff	26    0.00000    0.00000    0.03160    0.00000   -0.16810    0.00000  # c1,c,c3h,hc
dihedral_coeff	27    0.71370    0.00000    0.26600    0.00000   -0.25450    0.00000  # c1,c,c3h,o3e
dihedral_coeff	28    0.00000    0.00000    0.05140    0.00000   -0.14300    0.00000  # c1,c1,c,c3h
dihedral_coeff	29    0.00000    0.00000    0.03160    0.00000   -0.16810    0.00000  # c1,c1,c,hc
dihedral_coeff	30    0.00000    0.00000    0.05140    0.00000   -0.14300    0.00000  # c1,c1,c1,c1
dihedral_coeff	31    0.00000    0.00000    0.05140    0.00000   -0.14300    0.00000  # c1,c1,c1,c3h
dihedral_coeff	32    0.00000    0.00000    0.03160    0.00000   -0.16810    0.00000  # c1,c1,c1,hc
dihedral_coeff	33    0.71370    0.00000    0.26600    0.00000   -0.25450    0.00000  # c1,c1,c1,o3e
dihedral_coeff	34    0.71370    0.00000    0.26600    0.00000   -0.25450    0.00000  # c1,c1,c1,oc
dihedral_coeff	35    0.71370    0.00000    0.26600    0.00000   -0.25450    0.00000  # c1,c1,c1,oh
dihedral_coeff	36    0.00000    0.00000    0.05140    0.00000   -0.14300    0.00000  # c1,c1,c3h,c3h
dihedral_coeff	37    0.00000    0.00000    0.03160    0.00000   -0.16810    0.00000  # c1,c1,c3h,hc
dihedral_coeff	38    0.71370    0.00000    0.26600    0.00000   -0.25450    0.00000  # c1,c1,c3h,o3e
dihedral_coeff	39   -0.52030    0.00000   -0.30280    0.00000   -0.34500    0.00000  # c1,c1,o3e,c1
dihedral_coeff	40   -0.52030    0.00000   -0.30280    0.00000   -0.34500    0.00000  # c1,c1,oc,c1
dihedral_coeff	41    0.00000    0.00000    0.00000    0.00000    0.13000  180.00000  # c1,c1,oh,h
dihedral_coeff	42    0.00000    0.00000    0.03160    0.00000   -0.16810    0.00000  # c1,c3h,c3h,hc
dihedral_coeff	43    0.71370    0.00000    0.26600    0.00000   -0.25450    0.00000  # c1,c3h,c3h,o3e
dihedral_coeff	44   -0.52030    0.00000   -0.30280    0.00000   -0.34500    0.00000  # c1,c3h,o3e,c3h
dihedral_coeff	45    0.53020    0.00000    0.00000    0.00000   -0.39660    0.00000  # c1,o3e,c1,hc
dihedral_coeff	46    0.53020    0.00000    0.00000    0.00000   -0.39660    0.00000  # c1,oc,c1,hc
dihedral_coeff	47    0.00000    0.00000    0.03160    0.00000   -0.16810    0.00000  # c3h,c,c1,hc
dihedral_coeff	48    0.00000    0.00000    0.03160    0.00000   -0.16810    0.00000  # c3h,c1,c1,hc
dihedral_coeff	49    0.00000    0.00000    0.03160    0.00000   -0.16810    0.00000  # c3h,c3h,c,hc
dihedral_coeff	50    0.00000    0.00000    0.03160    0.00000   -0.16810    0.00000  # c3h,c3h,c1,hc
dihedral_coeff	51    0.53020    0.00000    0.00000    0.00000   -0.39660    0.00000  # c3h,o3e,c3h,hc
dihedral_coeff	52    0.00000    0.00000    0.00000    0.00000    0.13000  180.00000  # h,oh,c1,hc
dihedral_coeff	53   -0.14320    0.00000    0.06170    0.00000   -0.10830    0.00000  # hc,c,c,hc
dihedral_coeff	54   -0.14320    0.00000    0.06170    0.00000   -0.10830    0.00000  # hc,c,c1,hc
dihedral_coeff	55   -0.14350    0.00000    0.25300    0.00000   -0.09050    0.00000  # hc,c,c1,o3e
dihedral_coeff	56   -0.14350    0.00000    0.25300    0.00000   -0.09050    0.00000  # hc,c,c1,oc
dihedral_coeff	57   -0.14320    0.00000    0.06170    0.00000   -0.10830    0.00000  # hc,c,c3h,hc
dihedral_coeff	58   -0.14350    0.00000    0.25300    0.00000   -0.09050    0.00000  # hc,c,c3h,o3e
dihedral_coeff	59   -0.14320    0.00000    0.06170    0.00000   -0.10830    0.00000  # hc,c1,c1,hc
dihedral_coeff	60   -0.14350    0.00000    0.25300    0.00000   -0.09050    0.00000  # hc,c1,c1,o3e
dihedral_coeff	61   -0.14350    0.00000    0.25300    0.00000   -0.09050    0.00000  # hc,c1,c1,oc
dihedral_coeff	62   -0.14350    0.00000    0.25300    0.00000   -0.09050    0.00000  # hc,c1,c1,oh
dihedral_coeff	63   -0.14320    0.00000    0.06170    0.00000   -0.10830    0.00000  # hc,c1,c3h,hc
dihedral_coeff	64   -0.14350    0.00000    0.25300    0.00000   -0.09050    0.00000  # hc,c1,c3h,o3e
dihedral_coeff	65   -0.14320    0.00000    0.06170    0.00000   -0.10830    0.00000  # hc,c3h,c3h,hc
dihedral_coeff	66   -0.14350    0.00000    0.25300    0.00000   -0.09050    0.00000  # hc,c3h,c3h,o3e
dihedral_coeff	67   -0.18200    0.00000   -0.10840    0.00000   -0.70470    0.00000  # oc,c1,c1,oc
dihedral_coeff	68   -0.18200    0.00000   -0.10840    0.00000   -0.70470    0.00000  # oc,c1,c1,oh

# MiddleBondTorsion Coeffs

dihedral_coeff	 1 mbt  -17.78700   -7.18770    0.00000    1.53000  # c,c,c1,c1
dihedral_coeff	 2 mbt  -14.87900   -3.65810   -0.31380    1.53000  # c,c,c1,hc
dihedral_coeff	 3 mbt  -21.88420   -7.67640   -0.68680    1.53000  # c,c,c1,oc
dihedral_coeff	 4 mbt  -17.78700   -7.18770    0.00000    1.53000  # c,c1,c,c1
dihedral_coeff	 5 mbt  -14.87900   -3.65810   -0.31380    1.53000  # c,c1,c,hc
dihedral_coeff	 6 mbt  -17.78700   -7.18770    0.00000    1.53000  # c,c1,c1,c
dihedral_coeff	 7 mbt  -17.78700   -7.18770    0.00000    1.53000  # c,c1,c1,c1
dihedral_coeff	 8 mbt  -17.78700   -7.18770    0.00000    1.53000  # c,c1,c1,c3h
dihedral_coeff	 9 mbt  -14.87900   -3.65810   -0.31380    1.53000  # c,c1,c1,hc
dihedral_coeff	10 mbt  -21.88420   -7.67640   -0.68680    1.53000  # c,c1,c1,o3e
dihedral_coeff	11 mbt  -21.88420   -7.67640   -0.68680    1.53000  # c,c1,c1,oc
dihedral_coeff	12 mbt  -21.88420   -7.67640   -0.68680    1.53000  # c,c1,c1,oh
dihedral_coeff	13 mbt   -5.92880   -2.70070   -0.31750    1.42000  # c,c1,o3e,c1
dihedral_coeff	14 mbt   -5.92880   -2.70070   -0.31750    1.42000  # c,c1,oc,c1
dihedral_coeff	15 mbt  -17.78700   -7.18770    0.00000    1.53000  # c,c3h,c3h,c1
dihedral_coeff	16 mbt  -14.87900   -3.65810   -0.31380    1.53000  # c,c3h,c3h,hc
dihedral_coeff	17 mbt  -21.88420   -7.67640   -0.68680    1.53000  # c,c3h,c3h,o3e
dihedral_coeff	18 mbt   -5.92880   -2.70070   -0.31750    1.42000  # c,c3h,o3e,c3h
dihedral_coeff	19 mbt  -17.78700   -7.18770    0.00000    1.53000  # c1,c,c,c1
dihedral_coeff	20 mbt  -14.87900   -3.65810   -0.31380    1.53000  # c1,c,c,hc
dihedral_coeff	21 mbt  -17.78700   -7.18770    0.00000    1.53000  # c1,c,c1,c1
dihedral_coeff	22 mbt  -14.87900   -3.65810   -0.31380    1.53000  # c1,c,c1,hc
dihedral_coeff	23 mbt  -21.88420   -7.67640   -0.68680    1.53000  # c1,c,c1,o3e
dihedral_coeff	24 mbt  -21.88420   -7.67640   -0.68680    1.53000  # c1,c,c1,oc
dihedral_coeff	25 mbt  -17.78700   -7.18770    0.00000    1.53000  # c1,c,c3h,c3h
dihedral_coeff	26 mbt  -14.87900   -3.65810   -0.31380    1.53000  # c1,c,c3h,hc
dihedral_coeff	27 mbt  -21.88420   -7.67640   -0.68680    1.53000  # c1,c,c3h,o3e
dihedral_coeff	28 mbt  -17.78700   -7.18770    0.00000    1.53000  # c1,c1,c,c3h
dihedral_coeff	29 mbt  -14.87900   -3.65810   -0.31380    1.53000  # c1,c1,c,hc
dihedral_coeff	30 mbt  -17.78700   -7.18770    0.00000    1.53000  # c1,c1,c1,c1
dihedral_coeff	31 mbt  -17.78700   -7.18770    0.00000    1.53000  # c1,c1,c1,c3h
dihedral_coeff	32 mbt  -14.87900   -3.65810   -0.31380    1.53000  # c1,c1,c1,hc
dihedral_coeff	33 mbt  -21.88420   -7.67640   -0.68680    1.53000  # c1,c1,c1,o3e
dihedral_coeff	34 mbt  -21.88420   -7.67640   -0.68680    1.53000  # c1,c1,c1,oc
dihedral_coeff	35 mbt  -21.88420   -7.67640   -0.68680    1.53000  # c1,c1,c1,oh
dihedral_coeff	36 mbt  -17.78700   -7.18770    0.00000    1.53000  # c1,c1,c3h,c3h
dihedral_coeff	37 mbt  -14.87900   -3.65810   -0.31380    1.53000  # c1,c1,c3h,hc
dihedral_coeff	38 mbt  -21.88420   -7.67640   -0.68680    1.53000  # c1,c1,c3h,o3e
dihedral_coeff	39 mbt   -5.92880   -2.70070   -0.31750    1.42000  # c1,c1,o3e,c1
dihedral_coeff	40 mbt   -5.92880   -2.70070   -0.31750    1.42000  # c1,c1,oc,c1
dihedral_coeff	41 mbt    0.00000    0.00000    0.00000    1.42000  # c1,c1,oh,h
dihedral_coeff	42 mbt  -14.87900   -3.65810   -0.31380    1.53000  # c1,c3h,c3h,hc
dihedral_coeff	43 mbt  -21.88420   -7.67640   -0.68680    1.53000  # c1,c3h,c3h,o3e
dihedral_coeff	44 mbt   -5.92880   -2.70070   -0.31750    1.42000  # c1,c3h,o3e,c3h
dihedral_coeff	45 mbt   -6.80070   -4.65460   -1.41010    1.42000  # c1,o3e,c1,hc
dihedral_coeff	46 mbt   -6.80070   -4.65460   -1.41010    1.42000  # c1,oc,c1,hc
dihedral_coeff	47 mbt  -14.87900   -3.65810   -0.31380    1.53000  # c3h,c,c1,hc
dihedral_coeff	48 mbt  -14.87900   -3.65810   -0.31380    1.53000  # c3h,c1,c1,hc
dihedral_coeff	49 mbt  -14.87900   -3.65810   -0.31380    1.53000  # c3h,c3h,c,hc
dihedral_coeff	50 mbt  -14.87900   -3.65810   -0.31380    1.53000  # c3h,c3h,c1,hc
dihedral_coeff	51 mbt   -6.80070   -4.65460   -1.41010    1.42000  # c3h,o3e,c3h,hc
dihedral_coeff	52 mbt    0.00000    0.00000    0.00000    1.42000  # h,oh,c1,hc
dihedral_coeff	53 mbt  -14.26100   -0.53220   -0.48640    1.53000  # hc,c,c,hc
dihedral_coeff	54 mbt  -14.26100   -0.53220   -0.48640    1.53000  # hc,c,c1,hc
dihedral_coeff	55 mbt  -16.79750   -1.22960   -0.27500    1.53000  # hc,c,c1,o3e
dihedral_coeff	56 mbt  -16.79750   -1.22960   -0.27500    1.53000  # hc,c,c1,oc
dihedral_coeff	57 mbt  -14.26100   -0.53220   -0.48640    1.53000  # hc,c,c3h,hc
dihedral_coeff	58 mbt  -16.79750   -1.22960   -0.27500    1.53000  # hc,c,c3h,o3e
dihedral_coeff	59 mbt  -14.26100   -0.53220   -0.48640    1.53000  # hc,c1,c1,hc
dihedral_coeff	60 mbt  -16.79750   -1.22960   -0.27500    1.53000  # hc,c1,c1,o3e
dihedral_coeff	61 mbt  -16.79750   -1.22960   -0.27500    1.53000  # hc,c1,c1,oc
dihedral_coeff	62 mbt  -16.79750   -1.22960   -0.27500    1.53000  # hc,c1,c1,oh
dihedral_coeff	63 mbt  -14.26100   -0.53220   -0.48640    1.53000  # hc,c1,c3h,hc
dihedral_coeff	64 mbt  -16.79750   -1.22960   -0.27500    1.53000  # hc,c1,c3h,o3e
dihedral_coeff	65 mbt  -14.26100   -0.53220   -0.48640    1.53000  # hc,c3h,c3h,hc
dihedral_coeff	66 mbt  -16.79750   -1.22960   -0.27500    1.53000  # hc,c3h,c3h,o3e
dihedral_coeff	67 mbt  -17.25850   -3.61570   -0.83640    1.53000  # oc,c1,c1,oc
dihedral_coeff	68 mbt  -17.25850   -3.61570   -0.83640    1.53000  # oc,c1,c1,oh

# EndBondTorsion Coeffs

dihedral_coeff	 1 ebt   -0.07320    0.00000    0.00000   -0.07320    0.00000    0.00000    1.53000    1.53000  # c,c,c1,c1
dihedral_coeff	 2 ebt    0.08140    0.05910    0.22190    0.24860    0.24220   -0.09250    1.53000    1.10100  # c,c,c1,hc
dihedral_coeff	 3 ebt    1.15380    0.84090   -0.91380   -0.31900    0.44110   -0.71740    1.53000    1.42000  # c,c,c1,oc
dihedral_coeff	 4 ebt   -0.07320    0.00000    0.00000   -0.07320    0.00000    0.00000    1.53000    1.53000  # c,c1,c,c1
dihedral_coeff	 5 ebt    0.08140    0.05910    0.22190    0.24860    0.24220   -0.09250    1.53000    1.10100  # c,c1,c,hc
dihedral_coeff	 6 ebt   -0.07320    0.00000    0.00000   -0.07320    0.00000    0.00000    1.53000    1.53000  # c,c1,c1,c
dihedral_coeff	 7 ebt   -0.07320    0.00000    0.00000   -0.07320    0.00000    0.00000    1.53000    1.53000  # c,c1,c1,c1
dihedral_coeff	 8 ebt   -0.07320    0.00000    0.00000   -0.07320    0.00000    0.00000    1.53000    1.53000  # c,c1,c1,c3h
dihedral_coeff	 9 ebt    0.08140    0.05910    0.22190    0.24860    0.24220   -0.09250    1.53000    1.10100  # c,c1,c1,hc
dihedral_coeff	10 ebt   -0.31900    0.44110   -0.71740    1.15380    0.84090   -0.91380    1.53000    1.42000  # c,c1,c1,o3e
dihedral_coeff	11 ebt    1.15380    0.84090   -0.91380   -0.31900    0.44110   -0.71740    1.53000    1.42000  # c,c1,c1,oc
dihedral_coeff	12 ebt    1.15380    0.84090   -0.91380   -0.31900    0.44110   -0.71740    1.53000    1.42000  # c,c1,c1,oh
dihedral_coeff	13 ebt    0.47410    1.26350    0.55760   -0.24560    1.05170   -0.77950    1.53000    1.42000  # c,c1,o3e,c1
dihedral_coeff	14 ebt    0.47410    1.26350    0.55760   -0.24560    1.05170   -0.77950    1.53000    1.42000  # c,c1,oc,c1
dihedral_coeff	15 ebt   -0.07320    0.00000    0.00000   -0.07320    0.00000    0.00000    1.53000    1.53000  # c,c3h,c3h,c1
dihedral_coeff	16 ebt    0.08140    0.05910    0.22190    0.24860    0.24220   -0.09250    1.53000    1.10100  # c,c3h,c3h,hc
dihedral_coeff	17 ebt   -0.31900    0.44110   -0.71740    1.15380    0.84090   -0.91380    1.53000    1.42000  # c,c3h,c3h,o3e
dihedral_coeff	18 ebt   -0.24560    1.05170   -0.77950    0.47410    1.26350    0.55760    1.53000    1.42000  # c,c3h,o3e,c3h
dihedral_coeff	19 ebt   -0.07320    0.00000    0.00000   -0.07320    0.00000    0.00000    1.53000    1.53000  # c1,c,c,c1
dihedral_coeff	20 ebt    0.24860    0.24220   -0.09250    0.08140    0.05910    0.22190    1.53000    1.10100  # c1,c,c,hc
dihedral_coeff	21 ebt   -0.07320    0.00000    0.00000   -0.07320    0.00000    0.00000    1.53000    1.53000  # c1,c,c1,c1
dihedral_coeff	22 ebt    0.24860    0.24220   -0.09250    0.08140    0.05910    0.22190    1.53000    1.10100  # c1,c,c1,hc
dihedral_coeff	23 ebt   -0.31900    0.44110   -0.71740    1.15380    0.84090   -0.91380    1.53000    1.42000  # c1,c,c1,o3e
dihedral_coeff	24 ebt   -0.31900    0.44110   -0.71740    1.15380    0.84090   -0.91380    1.53000    1.42000  # c1,c,c1,oc
dihedral_coeff	25 ebt   -0.07320    0.00000    0.00000   -0.07320    0.00000    0.00000    1.53000    1.53000  # c1,c,c3h,c3h
dihedral_coeff	26 ebt    0.24860    0.24220   -0.09250    0.08140    0.05910    0.22190    1.53000    1.10100  # c1,c,c3h,hc
dihedral_coeff	27 ebt   -0.31900    0.44110   -0.71740    1.15380    0.84090   -0.91380    1.53000    1.42000  # c1,c,c3h,o3e
dihedral_coeff	28 ebt   -0.07320    0.00000    0.00000   -0.07320    0.00000    0.00000    1.53000    1.53000  # c1,c1,c,c3h
dihedral_coeff	29 ebt    0.24860    0.24220   -0.09250    0.08140    0.05910    0.22190    1.53000    1.10100  # c1,c1,c,hc
dihedral_coeff	30 ebt   -0.07320    0.00000    0.00000   -0.07320    0.00000    0.00000    1.53000    1.53000  # c1,c1,c1,c1
dihedral_coeff	31 ebt   -0.07320    0.00000    0.00000   -0.07320    0.00000    0.00000    1.53000    1.53000  # c1,c1,c1,c3h
dihedral_coeff	32 ebt    0.24860    0.24220   -0.09250    0.08140    0.05910    0.22190    1.53000    1.10100  # c1,c1,c1,hc
dihedral_coeff	33 ebt   -0.31900    0.44110   -0.71740    1.15380    0.84090   -0.91380    1.53000    1.42000  # c1,c1,c1,o3e
dihedral_coeff	34 ebt   -0.31900    0.44110   -0.71740    1.15380    0.84090   -0.91380    1.53000    1.42000  # c1,c1,c1,oc
dihedral_coeff	35 ebt    1.15380    0.84090   -0.91380   -0.31900    0.44110   -0.71740    1.53000    1.42000  # c1,c1,c1,oh
dihedral_coeff	36 ebt   -0.07320    0.00000    0.00000   -0.07320    0.00000    0.00000    1.53000    1.53000  # c1,c1,c3h,c3h
dihedral_coeff	37 ebt    0.24860    0.24220   -0.09250    0.08140    0.05910    0.22190    1.53000    1.10100  # c1,c1,c3h,hc
dihedral_coeff	38 ebt   -0.31900    0.44110   -0.71740    1.15380    0.84090   -0.91380    1.53000    1.42000  # c1,c1,c3h,o3e
dihedral_coeff	39 ebt   -0.24560    1.05170   -0.77950    0.47410    1.26350    0.55760    1.53000    1.42000  # c1,c1,o3e,c1
dihedral_coeff	40 ebt   -0.24560    1.05170   -0.77950    0.47410    1.26350    0.55760    1.53000    1.42000  # c1,c1,oc,c1
dihedral_coeff	41 ebt    0.00000    0.00000    0.00000    0.00000    0.00000    0.00000    1.53000    0.96000  # c1,c1,oh,h
dihedral_coeff	42 ebt    0.24860    0.24220   -0.09250    0.08140    0.05910    0.22190    1.53000    1.10100  # c1,c3h,c3h,hc
dihedral_coeff	43 ebt   -0.31900    0.44110   -0.71740    1.15380    0.84090   -0.91380    1.53000    1.42000  # c1,c3h,c3h,o3e
dihedral_coeff	44 ebt   -0.24560    1.05170   -0.77950    0.47410    1.26350    0.55760    1.53000    1.42000  # c1,c3h,o3e,c3h
dihedral_coeff	45 ebt   -0.16200    0.15640   -1.14080   -0.60540    1.33390    0.96480    1.42000    1.10100  # c1,o3e,c1,hc
dihedral_coeff	46 ebt   -0.16200    0.15640   -1.14080   -0.60540    1.33390    0.96480    1.42000    1.10100  # c1,oc,c1,hc
dihedral_coeff	47 ebt    0.08140    0.05910    0.22190    0.24860    0.24220   -0.09250    1.53000    1.10100  # c3h,c,c1,hc
dihedral_coeff	48 ebt    0.08140    0.05910    0.22190    0.24860    0.24220   -0.09250    1.53000    1.10100  # c3h,c1,c1,hc
dihedral_coeff	49 ebt    0.08140    0.05910    0.22190    0.24860    0.24220   -0.09250    1.53000    1.10100  # c3h,c3h,c,hc
dihedral_coeff	50 ebt    0.08140    0.05910    0.22190    0.24860    0.24220   -0.09250    1.53000    1.10100  # c3h,c3h,c1,hc
dihedral_coeff	51 ebt   -0.60540    1.33390    0.96480   -0.16200    0.15640   -1.14080    1.42000    1.10100  # c3h,o3e,c3h,hc
dihedral_coeff	52 ebt    0.00000    0.00000    0.00000    0.00000    0.00000    0.00000    0.96000    1.10100  # h,oh,c1,hc
dihedral_coeff	53 ebt    0.21300    0.31200    0.07770    0.21300    0.31200    0.07770    1.10100    1.10100  # hc,c,c,hc
dihedral_coeff	54 ebt    0.21300    0.31200    0.07770    0.21300    0.31200    0.07770    1.10100    1.10100  # hc,c,c1,hc
dihedral_coeff	55 ebt    0.96810    0.95510    0.04360    0.59030    0.66690    0.85840    1.10100    1.42000  # hc,c,c1,o3e
dihedral_coeff	56 ebt    0.96810    0.95510    0.04360    0.59030    0.66690    0.85840    1.10100    1.42000  # hc,c,c1,oc
dihedral_coeff	57 ebt    0.21300    0.31200    0.07770    0.21300    0.31200    0.07770    1.10100    1.10100  # hc,c,c3h,hc
dihedral_coeff	58 ebt    0.96810    0.95510    0.04360    0.59030    0.66690    0.85840    1.10100    1.42000  # hc,c,c3h,o3e
dihedral_coeff	59 ebt    0.21300    0.31200    0.07770    0.21300    0.31200    0.07770    1.10100    1.10100  # hc,c1,c1,hc
dihedral_coeff	60 ebt    0.96810    0.95510    0.04360    0.59030    0.66690    0.85840    1.10100    1.42000  # hc,c1,c1,o3e
dihedral_coeff	61 ebt    0.96810    0.95510    0.04360    0.59030    0.66690    0.85840    1.10100    1.42000  # hc,c1,c1,oc
dihedral_coeff	62 ebt    0.59030    0.66690    0.85840    0.96810    0.95510    0.04360    1.10100    1.42000  # hc,c1,c1,oh
dihedral_coeff	63 ebt    0.21300    0.31200    0.07770    0.21300    0.31200    0.07770    1.10100    1.10100  # hc,c1,c3h,hc
dihedral_coeff	64 ebt    0.96810    0.95510    0.04360    0.59030    0.66690    0.85840    1.10100    1.42000  # hc,c1,c3h,o3e
dihedral_coeff	65 ebt    0.21300    0.31200    0.07770    0.21300    0.31200    0.07770    1.10100    1.10100  # hc,c3h,c3h,hc
dihedral_coeff	66 ebt    0.96810    0.95510    0.04360    0.59030    0.66690    0.85840    1.10100    1.42000  # hc,c3h,c3h,o3e
dihedral_coeff	67 ebt    1.01650    0.75530   -0.46090    1.01650    0.75530   -0.46090    1.42000    1.42000  # oc,c1,c1,oc
dihedral_coeff	68 ebt    1.01650    0.75530   -0.46090    1.01650    0.75530   -0.46090    1.42000    1.42000  # oc,c1,c1,oh

# AngleTorsion Coeffs

dihedral_coeff	 1 at    0.38860   -0.31390    0.13890    0.38860   -0.31390    0.13890  112.67000  112.67000  # c,c,c1,c1
dihedral_coeff	 2 at    0.31130    0.45160   -0.19880   -0.24540    0.00000   -0.11360  112.67000  110.77000  # c,c,c1,hc
dihedral_coeff	 3 at    0.96720   -0.75660   -1.23310    0.56230   -0.30410   -0.40150  112.67000  111.27000  # c,c,c1,oc
dihedral_coeff	 4 at    0.38860   -0.31390    0.13890    0.38860   -0.31390    0.13890  112.67000  112.67000  # c,c1,c,c1
dihedral_coeff	 5 at    0.31130    0.45160   -0.19880   -0.24540    0.00000   -0.11360  112.67000  110.77000  # c,c1,c,hc
dihedral_coeff	 6 at    0.38860   -0.31390    0.13890    0.38860   -0.31390    0.13890  112.67000  112.67000  # c,c1,c1,c
dihedral_coeff	 7 at    0.38860   -0.31390    0.13890    0.38860   -0.31390    0.13890  112.67000  112.67000  # c,c1,c1,c1
dihedral_coeff	 8 at    0.38860   -0.31390    0.13890    0.38860   -0.31390    0.13890  112.67000  112.67000  # c,c1,c1,c3h
dihedral_coeff	 9 at    0.31130    0.45160   -0.19880   -0.24540    0.00000   -0.11360  112.67000  110.77000  # c,c1,c1,hc
dihedral_coeff	10 at    0.56230   -0.30410   -0.40150    0.96720   -0.75660   -1.23310  112.67000  111.27000  # c,c1,c1,o3e
dihedral_coeff	11 at    0.96720   -0.75660   -1.23310    0.56230   -0.30410   -0.40150  112.67000  111.27000  # c,c1,c1,oc
dihedral_coeff	12 at    0.96720   -0.75660   -1.23310    0.56230   -0.30410   -0.40150  112.67000  111.27000  # c,c1,c1,oh
dihedral_coeff	13 at    0.56760    0.94500    0.07030   -2.74660    1.48770   -0.89550  111.27000  104.50000  # c,c1,o3e,c1
dihedral_coeff	14 at    0.56760    0.94500    0.07030   -2.74660    1.48770   -0.89550  111.27000  104.50000  # c,c1,oc,c1
dihedral_coeff	15 at    0.38860   -0.31390    0.13890    0.38860   -0.31390    0.13890  112.67000  112.67000  # c,c3h,c3h,c1
dihedral_coeff	16 at    0.31130    0.45160   -0.19880   -0.24540    0.00000   -0.11360  112.67000  110.77000  # c,c3h,c3h,hc
dihedral_coeff	17 at    0.56230   -0.30410   -0.40150    0.96720   -0.75660   -1.23310  112.67000  111.27000  # c,c3h,c3h,o3e
dihedral_coeff	18 at   -2.74660    1.48770   -0.89550    0.56760    0.94500    0.07030  111.27000  104.50000  # c,c3h,o3e,c3h
dihedral_coeff	19 at    0.38860   -0.31390    0.13890    0.38860   -0.31390    0.13890  112.67000  112.67000  # c1,c,c,c1
dihedral_coeff	20 at   -0.24540    0.00000   -0.11360    0.31130    0.45160   -0.19880  112.67000  110.77000  # c1,c,c,hc
dihedral_coeff	21 at    0.38860   -0.31390    0.13890    0.38860   -0.31390    0.13890  112.67000  112.67000  # c1,c,c1,c1
dihedral_coeff	22 at   -0.24540    0.00000   -0.11360    0.31130    0.45160   -0.19880  112.67000  110.77000  # c1,c,c1,hc
dihedral_coeff	23 at    0.56230   -0.30410   -0.40150    0.96720   -0.75660   -1.23310  112.67000  111.27000  # c1,c,c1,o3e
dihedral_coeff	24 at    0.56230   -0.30410   -0.40150    0.96720   -0.75660   -1.23310  112.67000  111.27000  # c1,c,c1,oc
dihedral_coeff	25 at    0.38860   -0.31390    0.13890    0.38860   -0.31390    0.13890  112.67000  112.67000  # c1,c,c3h,c3h
dihedral_coeff	26 at   -0.24540    0.00000   -0.11360    0.31130    0.45160   -0.19880  112.67000  110.77000  # c1,c,c3h,hc
dihedral_coeff	27 at    0.56230   -0.30410   -0.40150    0.96720   -0.75660   -1.23310  112.67000  111.27000  # c1,c,c3h,o3e
dihedral_coeff	28 at    0.38860   -0.31390    0.13890    0.38860   -0.31390    0.13890  112.67000  112.67000  # c1,c1,c,c3h
dihedral_coeff	29 at   -0.24540    0.00000   -0.11360    0.31130    0.45160   -0.19880  112.67000  110.77000  # c1,c1,c,hc
dihedral_coeff	30 at    0.38860   -0.31390    0.13890    0.38860   -0.31390    0.13890  112.67000  112.67000  # c1,c1,c1,c1
dihedral_coeff	31 at    0.38860   -0.31390    0.13890    0.38860   -0.31390    0.13890  112.67000  112.67000  # c1,c1,c1,c3h
dihedral_coeff	32 at   -0.24540    0.00000   -0.11360    0.31130    0.45160   -0.19880  112.67000  110.77000  # c1,c1,c1,hc
dihedral_coeff	33 at    0.56230   -0.30410   -0.40150    0.96720   -0.75660   -1.23310  112.67000  111.27000  # c1,c1,c1,o3e
dihedral_coeff	34 at    0.56230   -0.30410   -0.40150    0.96720   -0.75660   -1.23310  112.67000  111.27000  # c1,c1,c1,oc
dihedral_coeff	35 at    0.96720   -0.75660   -1.23310    0.56230   -0.30410   -0.40150  112.67000  111.27000  # c1,c1,c1,oh
dihedral_coeff	36 at    0.38860   -0.31390    0.13890    0.38860   -0.31390    0.13890  112.67000  112.67000  # c1,c1,c3h,c3h
dihedral_coeff	37 at   -0.24540    0.00000   -0.11360    0.31130    0.45160   -0.19880  112.67000  110.77000  # c1,c1,c3h,hc
dihedral_coeff	38 at    0.56230   -0.30410   -0.40150    0.96720   -0.75660   -1.23310  112.67000  111.27000  # c1,c1,c3h,o3e
dihedral_coeff	39 at   -2.74660    1.48770   -0.89550    0.56760    0.94500    0.07030  111.27000  104.50000  # c1,c1,o3e,c1
dihedral_coeff	40 at   -2.74660    1.48770   -0.89550    0.56760    0.94500    0.07030  111.27000  104.50000  # c1,c1,oc,c1
dihedral_coeff	41 at    0.00000    0.00000    0.00000    0.00000    0.00000    0.00000  111.27000  109.00000  # c1,c1,oh,h
dihedral_coeff	42 at   -0.24540    0.00000   -0.11360    0.31130    0.45160   -0.19880  112.67000  110.77000  # c1,c3h,c3h,hc
dihedral_coeff	43 at    0.56230   -0.30410   -0.40150    0.96720   -0.75660   -1.23310  112.67000  111.27000  # c1,c3h,c3h,o3e
dihedral_coeff	44 at   -2.74660    1.48770   -0.89550    0.56760    0.94500    0.07030  111.27000  104.50000  # c1,c3h,o3e,c3h
dihedral_coeff	45 at   -0.77770    0.43400   -0.66530   -1.82340    1.63930    0.51440  104.50000  108.72800  # c1,o3e,c1,hc
dihedral_coeff	46 at   -0.77770    0.43400   -0.66530   -1.82340    1.63930    0.51440  104.50000  108.72800  # c1,oc,c1,hc
dihedral_coeff	47 at    0.31130    0.45160   -0.19880   -0.24540    0.00000   -0.11360  112.67000  110.77000  # c3h,c,c1,hc
dihedral_coeff	48 at    0.31130    0.45160   -0.19880   -0.24540    0.00000   -0.11360  112.67000  110.77000  # c3h,c1,c1,hc
dihedral_coeff	49 at    0.31130    0.45160   -0.19880   -0.24540    0.00000   -0.11360  112.67000  110.77000  # c3h,c3h,c,hc
dihedral_coeff	50 at    0.31130    0.45160   -0.19880   -0.24540    0.00000   -0.11360  112.67000  110.77000  # c3h,c3h,c1,hc
dihedral_coeff	51 at   -1.82340    1.63930    0.51440   -0.77770    0.43400   -0.66530  104.50000  108.72800  # c3h,o3e,c3h,hc
dihedral_coeff	52 at    0.00000    0.00000    0.00000    0.00000    0.00000    0.00000  109.00000  108.72800  # h,oh,c1,hc
dihedral_coeff	53 at   -0.80850    0.55690   -0.24660   -0.80850    0.55690   -0.24660  110.77000  110.77000  # hc,c,c,hc
dihedral_coeff	54 at   -0.80850    0.55690   -0.24660   -0.80850    0.55690   -0.24660  110.77000  110.77000  # hc,c,c1,hc
dihedral_coeff	55 at    2.36680    2.49200   -1.01220   -0.18920    0.49180    0.72730  110.77000  111.27000  # hc,c,c1,o3e
dihedral_coeff	56 at    2.36680    2.49200   -1.01220   -0.18920    0.49180    0.72730  110.77000  111.27000  # hc,c,c1,oc
dihedral_coeff	57 at   -0.80850    0.55690   -0.24660   -0.80850    0.55690   -0.24660  110.77000  110.77000  # hc,c,c3h,hc
dihedral_coeff	58 at    2.36680    2.49200   -1.01220   -0.18920    0.49180    0.72730  110.77000  111.27000  # hc,c,c3h,o3e
dihedral_coeff	59 at   -0.80850    0.55690   -0.24660   -0.80850    0.55690   -0.24660  110.77000  110.77000  # hc,c1,c1,hc
dihedral_coeff	60 at    2.36680    2.49200   -1.01220   -0.18920    0.49180    0.72730  110.77000  111.27000  # hc,c1,c1,o3e
dihedral_coeff	61 at    2.36680    2.49200   -1.01220   -0.18920    0.49180    0.72730  110.77000  111.27000  # hc,c1,c1,oc
dihedral_coeff	62 at   -0.18920    0.49180    0.72730    2.36680    2.49200   -1.01220  110.77000  111.27000  # hc,c1,c1,oh
dihedral_coeff	63 at   -0.80850    0.55690   -0.24660   -0.80850    0.55690   -0.24660  110.77000  110.77000  # hc,c1,c3h,hc
dihedral_coeff	64 at    2.36680    2.49200   -1.01220   -0.18920    0.49180    0.72730  110.77000  111.27000  # hc,c1,c3h,o3e
dihedral_coeff	65 at   -0.80850    0.55690   -0.24660   -0.80850    0.55690   -0.24660  110.77000  110.77000  # hc,c3h,c3h,hc
dihedral_coeff	66 at    2.36680    2.49200   -1.01220   -0.18920    0.49180    0.72730  110.77000  111.27000  # hc,c3h,c3h,o3e
dihedral_coeff	67 at    0.55110    0.97370   -0.66730    0.55110    0.97370   -0.66730  111.27000  111.27000  # oc,c1,c1,oc
dihedral_coeff	68 at    0.55110    0.97370   -0.66730    0.55110    0.97370   -0.66730  111.27000  111.27000  # oc,c1,c1,oh

# AngleAngleTorsion Coeffs

dihedral_coeff	 1 aat  -22.04500  112.67000  112.67000  # c,c,c1,c1
dihedral_coeff	 2 aat  -16.16400  112.67000  110.77000  # c,c,c1,hc
dihedral_coeff	 3 aat  -29.04200  112.67000  111.27000  # c,c,c1,oc
dihedral_coeff	 4 aat  -22.04500  112.67000  112.67000  # c,c1,c,c1
dihedral_coeff	 5 aat  -16.16400  112.67000  110.77000  # c,c1,c,hc
dihedral_coeff	 6 aat  -22.04500  112.67000  112.67000  # c,c1,c1,c
dihedral_coeff	 7 aat  -22.04500  112.67000  112.67000  # c,c1,c1,c1
dihedral_coeff	 8 aat  -22.04500  112.67000  112.67000  # c,c1,c1,c3h
dihedral_coeff	 9 aat  -16.16400  112.67000  110.77000  # c,c1,c1,hc
dihedral_coeff	10 aat  -29.04200  112.67000  111.27000  # c,c1,c1,o3e
dihedral_coeff	11 aat  -29.04200  112.67000  111.27000  # c,c1,c1,oc
dihedral_coeff	12 aat  -29.04200  112.67000  111.27000  # c,c1,c1,oh
dihedral_coeff	13 aat  -19.00590  111.27000  104.50000  # c,c1,o3e,c1
dihedral_coeff	14 aat  -19.00590  111.27000  104.50000  # c,c1,oc,c1
dihedral_coeff	15 aat  -22.04500  112.67000  112.67000  # c,c3h,c3h,c1
dihedral_coeff	16 aat  -16.16400  112.67000  110.77000  # c,c3h,c3h,hc
dihedral_coeff	17 aat  -29.04200  112.67000  111.27000  # c,c3h,c3h,o3e
dihedral_coeff	18 aat  -19.00590  111.27000  104.50000  # c,c3h,o3e,c3h
dihedral_coeff	19 aat  -22.04500  112.67000  112.67000  # c1,c,c,c1
dihedral_coeff	20 aat  -16.16400  112.67000  110.77000  # c1,c,c,hc
dihedral_coeff	21 aat  -22.04500  112.67000  112.67000  # c1,c,c1,c1
dihedral_coeff	22 aat  -16.16400  112.67000  110.77000  # c1,c,c1,hc
dihedral_coeff	23 aat  -29.04200  112.67000  111.27000  # c1,c,c1,o3e
dihedral_coeff	24 aat  -29.04200  112.67000  111.27000  # c1,c,c1,oc
dihedral_coeff	25 aat  -22.04500  112.67000  112.67000  # c1,c,c3h,c3h
dihedral_coeff	26 aat  -16.16400  112.67000  110.77000  # c1,c,c3h,hc
dihedral_coeff	27 aat  -29.04200  112.67000  111.27000  # c1,c,c3h,o3e
dihedral_coeff	28 aat  -22.04500  112.67000  112.67000  # c1,c1,c,c3h
dihedral_coeff	29 aat  -16.16400  112.67000  110.77000  # c1,c1,c,hc
dihedral_coeff	30 aat  -22.04500  112.67000  112.67000  # c1,c1,c1,c1
dihedral_coeff	31 aat  -22.04500  112.67000  112.67000  # c1,c1,c1,c3h
dihedral_coeff	32 aat  -16.16400  112.67000  110.77000  # c1,c1,c1,hc
dihedral_coeff	33 aat  -29.04200  112.67000  111.27000  # c1,c1,c1,o3e
dihedral_coeff	34 aat  -29.04200  112.67000  111.27000  # c1,c1,c1,oc
dihedral_coeff	35 aat  -29.04200  112.67000  111.27000  # c1,c1,c1,oh
dihedral_coeff	36 aat  -22.04500  112.67000  112.67000  # c1,c1,c3h,c3h
dihedral_coeff	37 aat  -16.16400  112.67000  110.77000  # c1,c1,c3h,hc
dihedral_coeff	38 aat  -29.04200  112.67000  111.27000  # c1,c1,c3h,o3e
dihedral_coeff	39 aat  -19.00590  111.27000  104.50000  # c1,c1,o3e,c1
dihedral_coeff	40 aat  -19.00590  111.27000  104.50000  # c1,c1,oc,c1
dihedral_coeff	41 aat    0.00000  111.27000  109.00000  # c1,c1,oh,h
dihedral_coeff	42 aat  -16.16400  112.67000  110.77000  # c1,c3h,c3h,hc
dihedral_coeff	43 aat  -29.04200  112.67000  111.27000  # c1,c3h,c3h,o3e
dihedral_coeff	44 aat  -19.00590  111.27000  104.50000  # c1,c3h,o3e,c3h
dihedral_coeff	45 aat  -16.44380  104.50000  108.72800  # c1,o3e,c1,hc
dihedral_coeff	46 aat  -16.44380  104.50000  108.72800  # c1,oc,c1,hc
dihedral_coeff	47 aat  -16.16400  112.67000  110.77000  # c3h,c,c1,hc
dihedral_coeff	48 aat  -16.16400  112.67000  110.77000  # c3h,c1,c1,hc
dihedral_coeff	49 aat  -16.16400  112.67000  110.77000  # c3h,c3h,c,hc
dihedral_coeff	50 aat  -16.16400  112.67000  110.77000  # c3h,c3h,c1,hc
dihedral_coeff	51 aat  -16.44380  104.50000  108.72800  # c3h,o3e,c3h,hc
dihedral_coeff	52 aat    0.00000  109.00000  108.72800  # h,oh,c1,hc
dihedral_coeff	53 aat  -12.56400  110.77000  110.77000  # hc,c,c,hc
dihedral_coeff	54 aat  -12.56400  110.77000  110.77000  # hc,c,c1,hc
dihedral_coeff	55 aat  -20.20060  110.77000  111.27000  # hc,c,c1,o3e
dihedral_coeff	56 aat  -20.20060  110.77000  111.27000  # hc,c,c1,oc
dihedral_coeff	57 aat  -12.56400  110.77000  110.77000  # hc,c,c3h,hc
dihedral_coeff	58 aat  -20.20060  110.77000  111.27000  # hc,c,c3h,o3e
dihedral_coeff	59 aat  -12.56400  110.77000  110.77000  # hc,c1,c1,hc
dihedral_coeff	60 aat  -20.20060  110.77000  111.27000  # hc,c1,c1,o3e
dihedral_coeff	61 aat  -20.20060  110.77000  111.27000  # hc,c1,c1,oc
dihedral_coeff	62 aat  -20.20060  110.77000  111.27000  # hc,c1,c1,oh
dihedral_coeff	63 aat  -12.56400  110.77000  110.77000  # hc,c1,c3h,hc
dihedral_coeff	64 aat  -20.20060  110.77000  111.27000  # hc,c1,c3h,o3e
dihedral_coeff	65 aat  -12.56400  110.77000  110.77000  # hc,c3h,c3h,hc
dihedral_coeff	66 aat  -20.20060  110.77000  111.27000  # hc,c3h,c3h,o3e
dihedral_coeff	67 aat  -14.04840  111.27000  111.27000  # oc,c1,c1,oc
dihedral_coeff	68 aat  -14.04840  111.27000  111.27000  # oc,c1,c1,oh

# BondBond13 Coeffs

dihedral_coeff	 1 bb13    0.00000    1.53000    1.53000  # c,c,c1,c1
dihedral_coeff	 2 bb13    0.00000    1.53000    1.10100  # c,c,c1,hc
dihedral_coeff	 3 bb13    0.00000    1.53000    1.42000  # c,c,c1,oc
dihedral_coeff	 4 bb13    0.00000    1.53000    1.53000  # c,c1,c,c1
dihedral_coeff	 5 bb13    0.00000    1.53000    1.10100  # c,c1,c,hc
dihedral_coeff	 6 bb13    0.00000    1.53000    1.53000  # c,c1,c1,c
dihedral_coeff	 7 bb13    0.00000    1.53000    1.53000  # c,c1,c1,c1
dihedral_coeff	 8 bb13    0.00000    1.53000    1.53000  # c,c1,c1,c3h
dihedral_coeff	 9 bb13    0.00000    1.53000    1.10100  # c,c1,c1,hc
dihedral_coeff	10 bb13    0.00000    1.53000    1.42000  # c,c1,c1,o3e
dihedral_coeff	11 bb13    0.00000    1.53000    1.42000  # c,c1,c1,oc
dihedral_coeff	12 bb13    0.00000    1.53000    1.42000  # c,c1,c1,oh
dihedral_coeff	13 bb13    0.00000    1.53000    1.42000  # c,c1,o3e,c1
dihedral_coeff	14 bb13    0.00000    1.53000    1.42000  # c,c1,oc,c1
dihedral_coeff	15 bb13    0.00000    1.53000    1.53000  # c,c3h,c3h,c1
dihedral_coeff	16 bb13    0.00000    1.53000    1.10100  # c,c3h,c3h,hc
dihedral_coeff	17 bb13    0.00000    1.53000    1.42000  # c,c3h,c3h,o3e
dihedral_coeff	18 bb13    0.00000    1.53000    1.42000  # c,c3h,o3e,c3h
dihedral_coeff	19 bb13    0.00000    1.53000    1.53000  # c1,c,c,c1
dihedral_coeff	20 bb13    0.00000    1.53000    1.10100  # c1,c,c,hc
dihedral_coeff	21 bb13    0.00000    1.53000    1.53000  # c1,c,c1,c1
dihedral_coeff	22 bb13    0.00000    1.53000    1.10100  # c1,c,c1,hc
dihedral_coeff	23 bb13    0.00000    1.53000    1.42000  # c1,c,c1,o3e
dihedral_coeff	24 bb13    0.00000    1.53000    1.42000  # c1,c,c1,oc
dihedral_coeff	25 bb13    0.00000    1.53000    1.53000  # c1,c,c3h,c3h
dihedral_coeff	26 bb13    0.00000    1.53000    1.10100  # c1,c,c3h,hc
dihedral_coeff	27 bb13    0.00000    1.53000    1.42000  # c1,c,c3h,o3e
dihedral_coeff	28 bb13    0.00000    1.53000    1.53000  # c1,c1,c,c3h
dihedral_coeff	29 bb13    0.00000    1.53000    1.10100  # c1,c1,c,hc
dihedral_coeff	30 bb13    0.00000    1.53000    1.53000  # c1,c1,c1,c1
dihedral_coeff	31 bb13    0.00000    1.53000    1.53000  # c1,c1,c1,c3h
dihedral_coeff	32 bb13    0.00000    1.53000    1.10100  # c1,c1,c1,hc
dihedral_coeff	33 bb13    0.00000    1.53000    1.42000  # c1,c1,c1,o3e
dihedral_coeff	34 bb13    0.00000    1.53000    1.42000  # c1,c1,c1,oc
dihedral_coeff	35 bb13    0.00000    1.53000    1.42000  # c1,c1,c1,oh
dihedral_coeff	36 bb13    0.00000    1.53000    1.53000  # c1,c1,c3h,c3h
dihedral_coeff	37 bb13    0.00000    1.53000    1.10100  # c1,c1,c3h,hc
dihedral_coeff	38 bb13    0.00000    1.53000    1.42000  # c1,c1,c3h,o3e
dihedral_coeff	39 bb13    0.00000    1.53000    1.42000  # c1,c1,o3e,c1
dihedral_coeff	40 bb13    0.00000    1.53000    1.42000  # c1,c1,oc,c1
dihedral_coeff	41 bb13    0.00000    1.53000    0.96000  # c1,c1,oh,h
dihedral_coeff	42 bb13    0.00000    1.53000    1.10100  # c1,c3h,c3h,hc
dihedral_coeff	43 bb13    0.00000    1.53000    1.42000  # c1,c3h,c3h,o3e
dihedral_coeff	44 bb13    0.00000    1.53000    1.42000  # c1,c3h,o3e,c3h
dihedral_coeff	45 bb13    0.00000    1.42000    1.10100  # c1,o3e,c1,hc
dihedral_coeff	46 bb13    0.00000    1.42000    1.10100  # c1,oc,c1,hc
dihedral_coeff	47 bb13    0.00000    1.53000    1.10100  # c3h,c,c1,hc
dihedral_coeff	48 bb13    0.00000    1.53000    1.10100  # c3h,c1,c1,hc
dihedral_coeff	49 bb13    0.00000    1.53000    1.10100  # c3h,c3h,c,hc
dihedral_coeff	50 bb13    0.00000    1.53000    1.10100  # c3h,c3h,c1,hc
dihedral_coeff	51 bb13    0.00000    1.42000    1.10100  # c3h,o3e,c3h,hc
dihedral_coeff	52 bb13    0.00000    0.96000    1.10100  # h,oh,c1,hc
dihedral_coeff	53 bb13    0.00000    1.10100    1.10100  # hc,c,c,hc
dihedral_coeff	54 bb13    0.00000    1.10100    1.10100  # hc,c,c1,hc
dihedral_coeff	55 bb13    0.00000    1.10100    1.42000  # hc,c,c1,o3e
dihedral_coeff	56 bb13    0.00000    1.10100    1.42000  # hc,c,c1,oc
dihedral_coeff	57 bb13    0.00000    1.10100    1.10100  # hc,c,c3h,hc
dihedral_coeff	58 bb13    0.00000    1.10100    1.42000  # hc,c,c3h,o3e
dihedral_coeff	59 bb13    0.00000    1.10100    1.10100  # hc,c1,c1,hc
dihedral_coeff	60 bb13    0.00000    1.10100    1.42000  # hc,c1,c1,o3e
dihedral_coeff	61 bb13    0.00000    1.10100    1.42000  # hc,c1,c1,oc
dihedral_coeff	62 bb13    0.00000    1.10100    1.42000  # hc,c1,c1,oh
dihedral_coeff	63 bb13    0.00000    1.10100    1.10100  # hc,c1,c3h,hc
dihedral_coeff	64 bb13    0.00000    1.10100    1.42000  # hc,c1,c3h,o3e
dihedral_coeff	65 bb13    0.00000    1.10100    1.10100  # hc,c3h,c3h,hc
dihedral_coeff	66 bb13    0.00000    1.10100    1.42000  # hc,c3h,c3h,o3e
dihedral_coeff	67 bb13    0.00000    1.42000    1.42000  # oc,c1,c1,oc
dihedral_coeff	68 bb13    0.00000    1.42000    1.42000  # oc,c1,c1,oh

# Improper Coeffs

improper_coeff	 1    0.00000    0.00000  # c,c,c1,hc
improper_coeff	 2    0.00000    0.00000  # c,c,hc,c1
improper_coeff	 3    0.00000    0.00000  # c,c,hc,hc
improper_coeff	 4    0.00000    0.00000  # c,c1,c1,hc
improper_coeff	 5    0.00000    0.00000  # c,c1,hc,c3h
improper_coeff	 6    0.00000    0.00000  # c,c1,hc,hc
improper_coeff	 7    0.00000    0.00000  # c,c3h,hc,hc
improper_coeff	 8    0.00000    0.00000  # c1,c,c,c1
improper_coeff	 9    0.00000    0.00000  # c1,c,c,hc
improper_coeff	10    0.00000    0.00000  # c1,c,c1,c1
improper_coeff	11    0.00000    0.00000  # c1,c,c1,hc
improper_coeff	12    0.00000    0.00000  # c1,c,c1,oc
improper_coeff	13    0.00000    0.00000  # c1,c,hc,c1
improper_coeff	14    0.00000    0.00000  # c1,c,hc,oc
improper_coeff	15    0.00000    0.00000  # c1,c,o3e,c1
improper_coeff	16    0.00000    0.00000  # c1,c,o3e,hc
improper_coeff	17    0.00000    0.00000  # c1,c,oc,c1
improper_coeff	18    0.00000    0.00000  # c1,c,oc,hc
improper_coeff	19    0.00000    0.00000  # c1,c1,c1,c1
improper_coeff	20    0.00000    0.00000  # c1,c1,c1,c3h
improper_coeff	21    0.00000    0.00000  # c1,c1,c1,hc
improper_coeff	22    0.00000    0.00000  # c1,c1,c1,o3e
improper_coeff	23    0.00000    0.00000  # c1,c1,c1,oc
improper_coeff	24    0.00000    0.00000  # c1,c1,c1,oh
improper_coeff	25    0.00000    0.00000  # c1,c1,c3h,hc
improper_coeff	26    0.00000    0.00000  # c1,c1,hc,c3h
improper_coeff	27    0.00000    0.00000  # c1,c1,hc,o3e
improper_coeff	28    0.00000    0.00000  # c1,c1,hc,oc
improper_coeff	29    0.00000    0.00000  # c1,c1,hc,oh
improper_coeff	30    0.00000    0.00000  # c1,c1,o3e,hc
improper_coeff	31    0.00000    0.00000  # c1,c1,oc,hc
improper_coeff	32    0.00000    0.00000  # c3h,c,hc,c3h
improper_coeff	33    0.00000    0.00000  # c3h,c,o3e,c3h
improper_coeff	34    0.00000    0.00000  # c3h,c,o3e,hc
improper_coeff	35    0.00000    0.00000  # c3h,c1,c3h,hc
improper_coeff	36    0.00000    0.00000  # c3h,c1,c3h,o3e
improper_coeff	37    0.00000    0.00000  # c3h,c1,o3e,hc
improper_coeff	38    0.00000    0.00000  # c3h,c3h,o3e,hc

# AngleAngle Coeffs

improper_coeff	 1 aa    0.00000   -1.31990    0.00000  112.67000  110.77000  110.77000  # c,c,c1,hc
improper_coeff	 2 aa    0.00000   -1.31990    0.00000  110.77000  112.67000  110.77000  # c,c,hc,c1
improper_coeff	 3 aa    0.00000   -0.48250    0.00000  110.77000  110.77000  107.66000  # c,c,hc,hc
improper_coeff	 4 aa   -1.31990   -1.31990    0.11840  112.67000  110.77000  110.77000  # c,c1,c1,hc
improper_coeff	 5 aa    0.11840    0.00000   -1.31990  110.77000  112.67000  110.77000  # c,c1,hc,c3h
improper_coeff	 6 aa    0.27380   -0.48250    0.27380  110.77000  110.77000  107.66000  # c,c1,hc,hc
improper_coeff	 7 aa    0.00000   -0.48250    0.00000  110.77000  110.77000  107.66000  # c,c3h,hc,hc
improper_coeff	 8 aa    0.00000    0.00000   -0.17290  112.67000  112.67000  112.67000  # c1,c,c,c1
improper_coeff	 9 aa    0.00000    0.00000    0.11840  112.67000  110.77000  110.77000  # c1,c,c,hc
improper_coeff	10 aa    0.00000   -0.17290    0.00000  112.67000  112.67000  112.67000  # c1,c,c1,c1
improper_coeff	11 aa    0.00000   -1.31990    0.00000  112.67000  110.77000  110.77000  # c1,c,c1,hc
improper_coeff	12 aa    0.00000   -0.83300    0.00000  112.67000  111.27000  111.27000  # c1,c,c1,oc
improper_coeff	13 aa    0.00000   -1.31990    0.00000  110.77000  112.67000  110.77000  # c1,c,hc,c1
improper_coeff	14 aa    0.00000    2.59260    0.00000  110.77000  111.27000  108.72800  # c1,c,hc,oc
improper_coeff	15 aa    0.00000   -0.83300   -0.83300  111.27000  112.67000  111.27000  # c1,c,o3e,c1
improper_coeff	16 aa    0.00000    2.59260    3.91770  111.27000  110.77000  108.72800  # c1,c,o3e,hc
improper_coeff	17 aa    0.00000   -0.83300    0.00000  111.27000  112.67000  111.27000  # c1,c,oc,c1
improper_coeff	18 aa    0.00000    2.59260    0.00000  111.27000  110.77000  108.72800  # c1,c,oc,hc
improper_coeff	19 aa   -0.17290   -0.17290   -0.17290  112.67000  112.67000  112.67000  # c1,c1,c1,c1
improper_coeff	20 aa   -0.17290   -0.17290   -0.17290  112.67000  112.67000  112.67000  # c1,c1,c1,c3h
improper_coeff	21 aa   -1.31990   -1.31990    0.11840  112.67000  110.77000  110.77000  # c1,c1,c1,hc
improper_coeff	22 aa   -0.83300   -0.83300   -3.57440  112.67000  111.27000  111.27000  # c1,c1,c1,o3e
improper_coeff	23 aa   -0.83300   -0.83300   -3.57440  112.67000  111.27000  111.27000  # c1,c1,c1,oc
improper_coeff	24 aa    0.00000    0.00000   -3.57440  112.67000  111.27000  111.27000  # c1,c1,c1,oh
improper_coeff	25 aa   -1.31990    0.00000    0.11840  112.67000  110.77000  110.77000  # c1,c1,c3h,hc
improper_coeff	26 aa    0.11840    0.00000   -1.31990  110.77000  112.67000  110.77000  # c1,c1,hc,c3h
improper_coeff	27 aa    3.91770    2.59260    0.16890  110.77000  111.27000  108.72800  # c1,c1,hc,o3e
improper_coeff	28 aa    3.91770    2.59260    0.16890  110.77000  111.27000  108.72800  # c1,c1,hc,oc
improper_coeff	29 aa    0.00000    0.00000    0.16890  110.77000  111.27000  108.72800  # c1,c1,hc,oh
improper_coeff	30 aa    0.16890    2.59260    3.91770  111.27000  110.77000  108.72800  # c1,c1,o3e,hc
improper_coeff	31 aa    0.16890    2.59260    3.91770  111.27000  110.77000  108.72800  # c1,c1,oc,hc
improper_coeff	32 aa    0.11840    0.00000    0.00000  110.77000  112.67000  110.77000  # c3h,c,hc,c3h
improper_coeff	33 aa   -3.57440    0.00000   -0.83300  111.27000  112.67000  111.27000  # c3h,c,o3e,c3h
improper_coeff	34 aa    0.00000    2.59260    3.91770  111.27000  110.77000  108.72800  # c3h,c,o3e,hc
improper_coeff	35 aa   -1.31990    0.00000    0.11840  112.67000  110.77000  110.77000  # c3h,c1,c3h,hc
improper_coeff	36 aa   -0.83300    0.00000   -3.57440  112.67000  111.27000  111.27000  # c3h,c1,c3h,o3e
improper_coeff	37 aa    0.16890    2.59260    3.91770  111.27000  110.77000  108.72800  # c3h,c1,o3e,hc
improper_coeff	38 aa    0.00000    2.59260    0.00000  111.27000  110.77000  108.72800  # c3h,c3h,o3e,hc

# ------------------------------- OPT Section -------------------------------
minimize 1.0e-5 1.0e-7 100000 400000
Generated 28 of 28 mixed pair_coeff terms from sixthpower/geometric mixing rule
Neighbor list info ...
  update: every = 1 steps, delay = 0 steps, check = yes
  max neighbors/atom: 2000, page size: 100000
  master list distance cutoff = 12
  ghost atom cutoff = 12
  binsize = 6, bins = 8 8 8
  1 neighbor lists, perpetual/occasional/extra = 1 0 0
  (1) pair lj/class2/coul/cut, perpetual
      attributes: half, newton on
      pair build: half/bin/newton
      stencil: half/bin/3d
      bin: standard
Per MPI rank memory allocation (min/avg/max) = 29.34 | 29.48 | 29.75 Mbytes
   Step          Temp          E_pair         E_mol          TotEng         Press     
         0   0             -22.325571      44405.895      44383.569     -2942.0598    
        12   0             -21.022488      44367.344      44346.321     -2948.7336    
Loop time of 3.8912 on 6 procs for 12 steps with 3976 atoms

99.7% CPU use with 6 MPI tasks x no OpenMP threads

Minimization stats:
  Stopping criterion = energy tolerance
  Energy initial, next-to-last, final = 
      44383.5693121744   44346.3215985959   44346.3211874957
  Force two-norm initial, final = 7042.9613 34396.627
  Force max component initial, final = 2509.5732 19802.386
  Final line search alpha, max atom move = 8.6269171e-11 1.7083354e-06
  Iterations, force evaluations = 12 175

MPI task timing breakdown:
Section |  min time  |  avg time  |  max time  |%varavg| %total
---------------------------------------------------------------
Pair    | 0.23959    | 0.31609    | 0.47167    |  14.7 |  8.12
Bond    | 0.39654    | 0.65881    | 1.0709     |  26.0 | 16.93
Neigh   | 0          | 0          | 0          |   0.0 |  0.00
Comm    | 1.2678     | 1.9153     | 2.2772     |  23.6 | 49.22
Output  | 0          | 0          | 0          |   0.0 |  0.00
Modify  | 0          | 0          | 0          |   0.0 |  0.00
Other   |            | 1.001      |            |       | 25.73

Nlocal:        662.667 ave         783 max         604 min
Histogram: 1 1 2 1 0 0 0 0 0 1
Nghost:           4534 ave        4740 max        4430 min
Histogram: 1 2 1 0 1 0 0 0 0 1
Neighs:        98699.8 ave      136892 max       83685 min
Histogram: 4 0 0 0 0 1 0 0 0 1

Total # of neighbors = 592199
Ave neighs/atom = 148.94341
Ave special neighs/atom = 13.641348
Neighbor list builds = 0
Dangerous builds = 0
# ------------------------------- Run Section -------------------------------
#

thermo_style custom step temp pe evdwl ecoul ebond eangle edihed eimp density vol
thermo          100

neigh_modify delay 0 every 1 check yes

fix Langevin  all langevin 300 300 100.0 482432
fix moveLimit all nve/limit 0.1
run 10000
Generated 28 of 28 mixed pair_coeff terms from sixthpower/geometric mixing rule
Per MPI rank memory allocation (min/avg/max) = 28.21 | 28.35 | 28.63 Mbytes
   Step          Temp          PotEng         E_vdwl         E_coul         E_bond        E_angle        E_dihed        E_impro        Density         Volume    
        12   0              44346.321      164.09815     -185.12064      3763.8953      46610.501     -5910.8555     -96.197562      0.44999999     100038.64    
       100   403.64171      41185.656     -210.16846     -300.02456      2465.419       45671.596     -6170.9159     -270.25009      0.44999999     100038.64    
       200   345.9215       40303.457     -474.0591      -186.27613      2368.5215      44976.975     -6115.5388     -266.16517      0.44999999     100038.64    
       300   328.74636      39827.502     -542.82197     -320.06374      2356.0081      44723.179     -6123.708      -265.09223      0.44999999     100038.64    
       400   320.06222      39720.25      -577.06208     -326.96421      2373.5367      44662.033     -6142.0039     -269.28896      0.44999999     100038.64    
       500   329.56436      39969.563     -558.28241     -270.93605      2399.2679      44632.299     -5976.1636     -256.62121      0.44999999     100038.64    
       600   314.66289      39757.505     -577.7726      -276.07606      2356.0367      44566.352     -6042.6799     -268.35546      0.44999999     100038.64    
       700   324.68647      39720.424     -583.48585     -270.19368      2286.4408      44642.042     -6080.2681     -274.11092      0.44999999     100038.64    
       800   328.55693      39616.421     -602.7692      -307.75548      2339.9068      44576.145     -6117.6935     -271.4133       0.44999999     100038.64    
       900   306.24708      39782.254     -587.52395     -221.54157      2299.2993      44542.761     -5967.7838     -282.95639      0.44999999     100038.64    
      1000   308.73783      39855.721     -612.57999     -200.23062      2350.5848      44539.67      -5937.3835     -284.33969      0.44999999     100038.64    
      1100   311.76557      39669.804     -614.27208     -284.72699      2344.0754      44540.801     -6040.8329     -275.23988      0.44999999     100038.64    
      1200   307.13856      39601.134     -588.39674     -200.44759      2228.2005      44535.903     -6087.3027     -286.82218      0.44999999     100038.64    
      1300   311.47964      39439.464     -632.48605     -293.37781      2268.9011      44432.207     -6066.2252     -269.55507      0.44999999     100038.64    
      1400   297.44246      39561.325     -617.0778      -300.80063      2301.8726      44479.735     -6028.1667     -274.23692      0.44999999     100038.64    
      1500   306.02939      39471.916     -636.11603     -295.44536      2202.2081      44552.412     -6071.3858     -279.75606      0.44999999     100038.64    
      1600   298.87725      39476.216     -624.71168     -253.89864      2275.4631      44485.996     -6133.5346     -273.09896      0.44999999     100038.64    
      1700   311.34325      39509.329     -630.61794     -292.49565      2208.5635      44566.531     -6066.7453     -275.90653      0.44999999     100038.64    
      1800   300.52714      39409.747     -627.07253     -347.45965      2182.7587      44604.872     -6130.141      -273.21034      0.44999999     100038.64    
      1900   301.26268      39417.647     -642.46073     -337.28188      2201.6937      44603.377     -6128.5784     -279.10318      0.44999999     100038.64    
      2000   307.06993      39354.475     -608.32175     -279.17888      2210.2419      44442.275     -6149.0639     -261.47758      0.44999999     100038.64    
      2100   304.97422      39391.566     -611.22395     -301.70099      2179.0901      44448.635     -6047.8591     -275.37452      0.44999999     100038.64    
      2200   301.84092      39422.174     -642.63959     -309.46264      2253.7467      44509.929     -6119.7681     -269.63161      0.44999999     100038.64    
      2300   328.51451      39631.407     -606.13044     -385.83602      2338.8174      44509.064     -5955.2359     -269.27162      0.44999999     100038.64    
      2400   309.60985      39319.014     -613.68459     -448.97424      2244.1402      44444.231     -6033.6697     -273.02909      0.44999999     100038.64    
      2500   332.8664       39303.819     -649.1798      -393.00771      2223.7992      44396.432     -6002.4554     -271.76906      0.44999999     100038.64    
      2600   309.91555      39297.442     -619.99604     -376.12239      2254.3037      44198.602     -5893.4849     -265.86047      0.44999999     100038.64    
      2700   324.7892       39473.499     -662.82355     -262.7846       2252.8659      44246.781     -5830.3047     -270.2355       0.44999999     100038.64    
      2800   310.09898      39328.721     -683.65476     -291.06715      2155.0036      44093.077     -5687.6688     -256.96962      0.44999999     100038.64    
      2900   300.80118      39228.577     -685.05243     -312.65643      2173.4249      44164.597     -5843.2335     -268.50184      0.44999999     100038.64    
      3000   300.88955      39069.467     -660.89889     -368.79157      2104.4904      44168.435     -5902.6317     -271.13621      0.44999999     100038.64    
      3100   297.4322       39035.169     -687.56153     -380.20682      2162.1739      44021.495     -5817.6402     -263.09182      0.44999999     100038.64    
      3200   303.85672      39059.176     -694.82274     -333.23333      2137.9638      44132.13      -5913.1859     -269.67531      0.44999999     100038.64    
      3300   304.80328      39022.339     -649.64405     -380.97538      2177.9435      43994.131     -5846.4901     -272.6261       0.44999999     100038.64    
      3400   309.83902      39041.545     -691.09912     -372.38373      2162.8748      44076.159     -5859.0446     -274.96207      0.44999999     100038.64    
      3500   302.26226      39067.733     -670.43524     -370.74967      2103.0257      44123.415     -5848.7581     -268.76506      0.44999999     100038.64    
      3600   305.99139      39058.223     -665.81576     -364.7503       2136.0109      43985.762     -5751.7668     -281.21768      0.44999999     100038.64    
      3700   306.16335      38985.3       -685.87321     -334.48724      2103.6192      44052.426     -5872.7754     -277.60937      0.44999999     100038.64    
      3800   303.69354      39073.395     -680.2813      -314.16459      2160.7781      44139.621     -5965.4514     -267.10751      0.44999999     100038.64    
      3900   307.92076      39297.411     -658.58349     -269.72055      2298.3656      44011.879     -5805.0763     -279.45384      0.44999999     100038.64    
      4000   305.39272      39323.252     -698.2253      -258.78547      2262.54        43916         -5650.264      -248.01366      0.44999999     100038.64    
      4100   312.48474      39172.34      -694.33122     -294.61165      2238.4867      43884.768     -5691.7213     -270.25121      0.44999999     100038.64    
      4200   309.20167      38947.2       -718.1031      -251.43817      2128.5682      43661.613     -5606.5817     -266.85849      0.44999999     100038.64    
      4300   295.9774       38885.276     -706.11319     -284.24865      2074.8426      43735.493     -5663.6475     -271.05045      0.44999999     100038.64    
      4400   302.75621      38898.681     -731.88195     -350.72817      2087.8948      43813.54      -5654.1632     -265.97965      0.44999999     100038.64    
      4500   307.57014      38881.317     -687.22822     -345.07891      2140.5995      43704.401     -5661.7356     -269.64028      0.44999999     100038.64    
      4600   308.567        38879.808     -723.25226     -301.39396      2139.351       43639.829     -5614.0671     -260.65848      0.44999999     100038.64    
      4700   308.73173      38815.826     -732.198       -370.51043      2078.6524      43669.096     -5557.1761     -272.03864      0.44999999     100038.64    
      4800   300.94287      38901.52      -728.57005     -365.78084      2128.8634      43876.197     -5729.4694     -279.72024      0.44999999     100038.64    
      4900   302.22654      38728.39      -703.90808     -396.4412       2069.7524      43676.859     -5654.6755     -263.19642      0.44999999     100038.64    
      5000   299.65356      38826.239     -707.31857     -361.77617      2110.1185      43792.444     -5728.6673     -278.56124      0.44999999     100038.64    
      5100   305.22566      38843.537     -725.81084     -394.48542      2127.0662      43654.354     -5559.1156     -258.47072      0.44999999     100038.64    
      5200   305.18302      38879.436     -718.58264     -295.38985      2152.509       43580.765     -5589.2504     -250.61511      0.44999999     100038.64    
      5300   294.87573      38830.366     -714.08833     -355.57293      2029.7047      43700.133     -5581.0196     -248.79065      0.44999999     100038.64    
      5400   300.05905      38949.933     -709.63128     -332.07906      2150.9743      43806.408     -5707.7904     -257.94859      0.44999999     100038.64    
      5500   302.63165      38902.778     -698.94263     -332.17959      2153.5813      43573.625     -5534.6043     -258.70176      0.44999999     100038.64    
      5600   305.59972      38815.045     -713.86885     -307.7154       2158.9747      43671.112     -5726.3172     -267.14057      0.44999999     100038.64    
      5700   300.28973      38838.761     -685.4461      -333.71927      2162.4909      43761.098     -5790.9251     -274.73794      0.44999999     100038.64    
      5800   301.72686      38941.605     -727.74031     -288.41732      2161.5273      43801.089     -5729.4642     -275.38899      0.44999999     100038.64    
      5900   299.54517      38821.249     -737.96292     -372.55266      2139.022       43807.983     -5739.181      -276.05916      0.44999999     100038.64    
      6000   302.41104      38873.613     -723.84036     -304.42273      2141.6065      43866.797     -5826.4699     -280.05749      0.44999999     100038.64    
      6100   299.92947      38725.227     -734.06867     -358.13358      2073.0578      43683.359     -5657.8022     -281.18567      0.44999999     100038.64    
      6200   302.21305      38754.822     -745.55862     -306.61986      2069.3687      43649.999     -5639.1476     -273.21903      0.44999999     100038.64    
      6300   300.45948      38729.646     -739.61406     -388.92857      2166.4996      43604.672     -5640.0442     -272.93879      0.44999999     100038.64    
      6400   308.18397      38764.701     -728.33213     -333.71187      2093.4695      43702.795     -5707.9416     -261.578        0.44999999     100038.64    
      6500   304.33081      38822.46      -767.26943     -289.93383      2062.3483      43756.97      -5675.4433     -264.2121       0.44999999     100038.64    
      6600   306.00279      38691.201     -753.60955     -331.03113      2085.6007      43706.691     -5743.4585     -272.99165      0.44999999     100038.64    
      6700   302.05812      38720.71      -744.76        -330.77045      2137.9718      43662.302     -5735.7775     -268.25513      0.44999999     100038.64    
      6800   311.69197      38835.658     -771.47681     -268.68069      2087.4484      43680.452     -5633.5124     -258.57242      0.44999999     100038.64    
      6900   309.95237      38846.705     -746.83037     -316.09242      2091.9472      43730.361     -5645.0413     -267.63913      0.44999999     100038.64    
      7000   301.82835      38822.765     -728.4018      -308.26116      2131.5811      43632.187     -5634.5862     -269.75379      0.44999999     100038.64    
      7100   295.17666      38855.192     -746.34081     -283.03533      2192.7235      43698.818     -5733.601      -273.37252      0.44999999     100038.64    
      7200   303.41154      38742.298     -742.43561     -239.56545      2063.1979      43579.896     -5655.1268     -263.66791      0.44999999     100038.64    
      7300   302.15413      38793.061     -766.97104     -267.45415      2151.4467      43685.149     -5730.6626     -278.44715      0.44999999     100038.64    
      7400   298.9844       38789.529     -733.56353     -311.69273      2021.7303      43732.756     -5657.8772     -261.82369      0.44999999     100038.64    
      7500   299.13839      38926.084     -779.80992     -217.70259      2130.121       43814.97      -5740.7075     -280.78683      0.44999999     100038.64    
      7600   301.77773      38696.747     -760.99562     -346.16991      2095.8178      43678.033     -5712.7746     -257.16283      0.44999999     100038.64    
      7700   301.91304      38717.615     -740.87305     -331.60271      2071.5957      43644.359     -5653.6615     -272.20197      0.44999999     100038.64    
      7800   297.73944      38682.742     -756.60967     -381.40036      2164.0467      43712.404     -5791.7686     -263.93006      0.44999999     100038.64    
      7900   298.46986      38696.039     -747.96808     -371.61253      2153.5046      43624.454     -5698.0267     -264.31185      0.44999999     100038.64    
      8000   296.10214      38804.903     -762.96229     -327.09727      2113.2857      43780.857     -5726.2562     -272.92352      0.44999999     100038.64    
      8100   302.14333      38750.551     -767.27371     -309.87849      2119.598       43688.114     -5719.112      -260.8973       0.44999999     100038.64    
      8200   301.8637       38691.298     -760.56127     -352.48363      2070.7535      43600.278     -5600.7744     -265.91393      0.44999999     100038.64    
      8300   297.87596      38752.084     -814.99478     -325.83612      2172.4234      43668.175     -5676.2053     -271.47804      0.44999999     100038.64    
      8400   295.92069      38686.602     -762.17822     -403.18316      2116.2035      43682.604     -5673.3808     -273.46287      0.44999999     100038.64    
      8500   294.83308      38629.081     -770.79008     -407.17344      2102.1173      43704.374     -5711.6373     -287.80951      0.44999999     100038.64    
      8600   303.46902      38667.864     -818.03977     -439.92113      2153.0127      43661.89      -5619.8934     -269.18396      0.44999999     100038.64    
      8700   300.55661      38742.512     -775.30545     -314.16325      2086.4944      43615.109     -5591.9709     -277.65186      0.44999999     100038.64    
      8800   301.34738      38696.204     -800.70984     -340.08435      2108.7279      43728.347     -5725.2574     -274.81989      0.44999999     100038.64    
      8900   298.47371      38710.341     -798.06455     -355.58781      2133.8132      43528.29      -5531.2551     -266.85513      0.44999999     100038.64    
      9000   293.32974      38672.071     -788.46443     -395.36191      2101.1185      43669.52      -5631.1084     -283.6329       0.44999999     100038.64    
      9100   302.81709      38587.612     -800.0431      -399.40821      2072.7982      43585.094     -5609.8653     -260.96356      0.44999999     100038.64    
      9200   300.64121      38606.196     -775.3251      -435.60659      2054.7788      43591.725     -5563.4022     -265.97397      0.44999999     100038.64    
      9300   300.39142      38678.415     -810.90294     -407.78198      2168.3325      43598.517     -5615.7598     -253.98935      0.44999999     100038.64    
      9400   302.59097      38557.027     -777.82865     -433.16462      2045.4395      43628.354     -5630.9739     -274.79971      0.44999999     100038.64    
      9500   294.64925      38655.361     -775.75885     -391.52863      2095.021       43582.646     -5602.6272     -252.39061      0.44999999     100038.64    
      9600   303.40324      38729.317     -791.88049     -415.19271      2244.2585      43605.923     -5648.8538     -264.9376       0.44999999     100038.64    
      9700   296.25654      38701.766     -772.95838     -344.55672      2102.596       43685.182     -5681.4453     -287.05204      0.44999999     100038.64    
      9800   297.46466      38795.846     -773.12585     -303.50382      2150.4078      43672.548     -5681.3771     -269.10322      0.44999999     100038.64    
      9900   299.73886      38818.659     -798.87359     -226.48933      2120.1708      43659.459     -5668.6681     -266.93994      0.44999999     100038.64    
     10000   298.77456      38662.347     -755.42932     -331.16971      2038.7389      43530.246     -5558.8742     -261.16509      0.44999999     100038.64    
     10012   294.88094      38635.742     -761.02458     -398.12365      2089.9816      43583.681     -5609.4983     -269.27329      0.44999999     100038.64    
Loop time of 198.987 on 6 procs for 10000 steps with 3976 atoms

Performance: 4.342 ns/day, 5.527 hours/ns, 50.254 timesteps/s, 199.812 katom-step/s
99.7% CPU use with 6 MPI tasks x no OpenMP threads

MPI task timing breakdown:
Section |  min time  |  avg time  |  max time  |%varavg| %total
---------------------------------------------------------------
Pair    | 9.9507     | 13.001     | 17.416     |  63.8 |  6.53
Bond    | 19.852     | 30.24      | 41.542     | 118.8 | 15.20
Neigh   | 4.5262     | 4.8279     | 5.1919     |  11.5 |  2.43
Comm    | 107.76     | 123.9      | 136.65     |  82.4 | 62.27
Output  | 1.6826     | 1.7054     | 1.7289     |   1.4 |  0.86
Modify  | 0.33186    | 0.38751    | 0.44879    |   6.7 |  0.19
Other   |            | 24.92      |            |       | 12.53

Nlocal:        662.667 ave         813 max         597 min
Histogram: 3 0 1 0 1 0 0 0 0 1
Nghost:        4476.17 ave        4724 max        4337 min
Histogram: 1 1 1 1 1 0 0 0 0 1
Neighs:        99929.5 ave      141366 max       77039 min
Histogram: 1 2 0 1 0 1 0 0 0 1

Total # of neighbors = 599577
Ave neighs/atom = 150.79904
Ave special neighs/atom = 13.641348
Neighbor list builds = 304
Dangerous builds = 0
unfix Langevin
unfix moveLimit


fix 		relax all npt temp 300.0 300.0 100 iso 1.0 1.0 1000
run 50000
Generated 28 of 28 mixed pair_coeff terms from sixthpower/geometric mixing rule
Per MPI rank memory allocation (min/avg/max) = 28.21 | 28.42 | 28.63 Mbytes
   Step          Temp          PotEng         E_vdwl         E_coul         E_bond        E_angle        E_dihed        E_impro        Density         Volume    
     10012   294.88094      38635.742     -761.02458     -398.12365      2089.9816      43583.681     -5609.4983     -269.27329      0.44999999     100038.64    
     10100   297.07537      38685.208     -804.14867     -350.38814      2143.5305      43665.377     -5704.7278     -264.43489      0.45086595     99846.505    
     10200   303.08528      38751.466     -800.12177     -304.79749      2139.0516      43692.218     -5698.0794     -276.80464      0.45386177     99187.444    
     10300   306.97313      38702.325     -820.21153     -324.43106      2150.2733      43690.172     -5712.9155     -280.56195      0.45848373     98187.539    
     10400   303.35095      38682.39      -822.85609     -324.99397      2106.9762      43630.65      -5634.6311     -272.75438      0.46373984     97074.663    
     10500   300.51326      38616.243     -859.20964     -359.33809      2085.3846      43706.233     -5684.4004     -272.42633      0.46829756     96129.882    
     10600   298.71474      38587.814     -806.32963     -345.45537      2090.2339      43500.236     -5585.1732     -265.69774      0.4724983      95275.241    
     10700   297.06701      38573.575     -852.06296     -359.61933      2061.9481      43615.852     -5633.7516     -258.79112      0.47626802     94521.125    
     10800   300.82091      38502.039     -863.6979      -382.80071      2069.7161      43568.542     -5621.4242     -268.29632      0.48027595     93732.341    
     10900   296.05756      38597.738     -874.04581     -391.13651      2094.701       43615.826     -5588.7489     -258.85875      0.48461701     92892.713    
     11000   302.42938      38528.716     -844.54078     -430.40981      2087.2564      43600.867     -5607.6863     -276.77082      0.48870262     92116.12     
     11100   301.20236      38517.771     -876.07389     -411.35078      2038.1882      43707.257     -5659.2014     -281.04826      0.49245731     91413.79     
     11200   300.87973      38425.454     -875.93721     -413.81669      2097.6091      43440.226     -5564.3311     -258.29532      0.49582781     90792.383    
     11300   299.61641      38368.568     -855.95096     -452.66952      1994.8329      43477.725     -5532.2846     -263.08452      0.49913335     90191.105    
     11400   303.18803      38350.33      -905.78453     -446.99891      2092.0224      43543.619     -5667.4757     -265.05199      0.50246874     89592.416    
     11500   302.22937      38328.948     -898.99509     -546.3931       2015.9965      43742.526     -5712.0667     -272.11932      0.50625547     88922.276    
     11600   306.37898      38492.402     -924.67083     -405.43208      2136.5385      43541.872     -5589.2711     -266.63494      0.51012679     88247.452    
     11700   314.11373      38450.754     -899.63448     -420.43142      2077.605       43592.074     -5628.6047     -270.25458      0.51410748     87564.159    
     11800   303.81518      38481.719     -941.03534     -362.76873      2062.6865      43632.274     -5655.579      -253.85802      0.51804799     86898.106    
     11900   300.11771      38480.49      -940.24004     -338.92511      2045.0272      43672.632     -5682.8152     -275.18875      0.52140389     86338.805    
     12000   301.53981      38383.059     -943.07673     -345.16992      2087.1416      43538.003     -5676.0879     -277.75125      0.52486321     85769.754    
     12100   298.64036      38373.578     -1007.9235     -327.42574      2010.4193      43535.157     -5574.5069     -262.1419       0.52856828     85168.541    
     12200   296.59096      38328.807     -954.35524     -378.84912      1990.6395      43532.256     -5596.2642     -264.61999      0.53266212     84513.967    
     12300   302.48814      38320.833     -961.01994     -419.67113      2033.5547      43603.74      -5667.6825     -268.08838      0.53623491     83950.872    
     12400   304.17511      38303.867     -1021.322      -482.57089      2058.4831      43592.665     -5587.3973     -255.99071      0.53951903     83439.854    
     12500   305.22478      38330.392     -977.36862     -403.90281      2036.7983      43509.966     -5574.7786     -260.32245      0.54331577     82856.768    
     12600   307.37554      38310.103     -1002.548      -349.77861      2029.9403      43660.63      -5739.5836     -288.55705      0.54649528     82374.708    
     12700   298.49113      38433.631     -1015.524      -294.69204      2044.0802      43554.594     -5601.9182     -252.90962      0.54966835     81899.183    
     12800   302.38671      38291.76      -1032.0594     -361.99291      1964.3154      43727.9       -5731.362      -275.04051      0.55335276     81353.871    
     12900   302.94679      38245.372     -1001.9434     -375.1348       2046.1325      43553.157     -5705.0376     -271.80244      0.55790474     80690.1      
     13000   296.04345      38184.574     -1055.2245     -479.31594      1951.9695      43580.121     -5552.5384     -260.43803      0.56193215     80111.787    
     13100   296.5273       38289.115     -1048.3379     -329.58066      2038.9843      43514.567     -5619.8401     -266.67768      0.56562956     79588.112    
     13200   295.49311      38304.525     -1022.5836     -381.22794      2004.6925      43663.426     -5700.1593     -259.62239      0.56810326     79241.56     
     13300   306.41622      38281.758     -1056.0035     -358.60562      2010.4807      43562.485     -5614.3742     -262.22375      0.57037731     78925.631    
     13400   298.52163      38446.372     -1055.4006     -311.79616      2060.8819      43643.851     -5627.789      -263.37558      0.5731335      78546.079    
     13500   306.22119      38228.782     -1061.7929     -382.30906      2073.8288      43542.086     -5667.6329     -275.39757      0.57621978     78125.379    
     13600   298.68111      38177.096     -1041.5073     -411.13187      1975.1732      43540.174     -5629.4911     -256.12125      0.57955364     77675.965    
     13700   300.48495      38167.677     -1082.5605     -399.9432       1957.0616      43563.121     -5604.2153     -265.78646      0.58254853     77276.633    
     13800   301.29324      38240.726     -1080.1738     -349.86742      2036.3339      43611.313     -5704.8271     -272.05198      0.58580154     76847.509    
     13900   301.35121      38188.369     -1044.627      -445.61647      1967.5144      43711.364     -5725.1803     -275.086        0.58968685     76341.178    
     14000   301.81032      38293.985     -1102.9054     -401.10102      2082.1224      43595.807     -5627.5139     -252.42418      0.59323157     75885.019    
     14100   304.14872      38337.984     -1050.4812     -374.1534       2070.3542      43582.256     -5627.0015     -262.99079      0.59661426     75454.765    
     14200   303.51808      38204.198     -1074.6521     -415.62185      2040.5037      43479.894     -5570.881      -255.04497      0.60021785     75001.749    
     14300   298.7484       38178.649     -1110.2706     -414.55742      2005.1607      43550.376     -5583.2392     -268.81994      0.6042678      74499.069    
     14400   299.03044      38203.026     -1062.8221     -388.63191      2052.3818      43502.105     -5638.0208     -261.98626      0.60846492     73985.184    
     14500   297.78773      38297.873     -1063.2296     -366.13321      2019.6064      43729.094     -5735.3014     -286.16323      0.61250688     73496.952    
     14600   309.0718       38225.449     -1112.0914     -373.2773       2066.6487      43538.192     -5626.2964     -267.72697      0.61615322     73062.003    
     14700   306.364        38269.321     -1088.5544     -320.80102      1998.0193      43595.785     -5647.4812     -267.64738      0.61955788     72660.506    
     14800   294.96118      38248.233     -1130.3355     -343.89258      2033.3272      43582.529     -5624.9736     -268.42239      0.62297961     72261.416    
     14900   296.5403       38201.939     -1124.4795     -380.33014      2061.5847      43608.483     -5695.3365     -267.9822       0.62680146     71820.811    
     15000   304.53485      38194.428     -1123.0779     -348.62794      1966.8803      43616.145     -5656.7217     -260.16931      0.63121335     71318.817    
     15100   307.85427      38141.104     -1117.2644     -424.62556      2039.1357      43668.859     -5759.6978     -265.30266      0.63589575     70793.662    
     15200   303.03858      38250.401     -1127.1165     -336.17419      2026.7769      43661.651     -5702.4778     -272.25766      0.64170338     70152.956    
     15300   296.29074      38168.304     -1156.2875     -369.80392      2057.7869      43541.264     -5645.459      -259.1969       0.64848643     69419.168    
     15400   299.26573      38141.753     -1140.9384     -340.76883      2047.6538      43398.816     -5551.0606     -271.94918      0.65573773     68651.516    
     15500   294.49775      38262.057     -1160.4682     -302.26773      2007.9849      43626.044     -5653.6584     -255.5779       0.66177124     68025.605    
     15600   300.88124      38234.575     -1171.2818     -313.41512      2058.288       43517.754     -5592.3811     -264.38828      0.66589917     67603.912    
     15700   304.31889      38329.55      -1182.4841     -227.81319      2012.9153      43679.747     -5678.0478     -274.7671       0.66914737     67275.747    
     15800   295.84639      38425.436     -1175.0152     -197.18107      1991.4077      43822.36      -5746.0585     -270.07685      0.6708024      67109.761    
     15900   299.60933      38078.783     -1161.1302     -379.00963      1997.3301      43599.664     -5708.7366     -269.33467      0.67203368     66986.804    
     16000   294.11361      38170.045     -1194.9124     -371.817        2039.3393      43600.804     -5639.5617     -263.80733      0.67305598     66885.059    
     16100   298.86923      38136.094     -1194.4461     -418.10732      2005.9903      43511.332     -5519.6243     -249.05075      0.67510354     66682.199    
     16200   301.7154       38071.193     -1201.8335     -477.82933      2086.9374      43605.38      -5675.1808     -266.28018      0.67854035     66344.453    
     16300   295.8825       38036.725     -1220.1287     -513.02658      2013.045       43671.191     -5661.7049     -252.65059      0.68197343     66010.473    
     16400   296.79207      38062.14      -1221.8925     -351.36218      1971.414       43662.974     -5730.0163     -268.97744      0.68573267     65648.599    
     16500   298.1401       38062.536     -1205.7758     -370.63944      1937.279       43637.879     -5661.6642     -274.54275      0.68880621     65355.666    
     16600   301.30121      38104.388     -1255.4031     -378.80039      2021.707       43679.917     -5694.733      -268.29879      0.69160939     65090.772    
     16700   304.99724      37888.292     -1218.5226     -552.22551      1956.2417      43585.92      -5617.6291     -265.49262      0.69563613     64713.989    
     16800   298.33521      37973.683     -1224.0093     -508.35102      2004.0207      43574.495     -5613.7987     -258.67395      0.70040027     64273.803    
     16900   292.52808      37927.656     -1224.128      -517.46471      1983.2752      43533.359     -5589.4205     -257.96547      0.70515501     63840.415    
     17000   290.57389      37848.26      -1267.0719     -544.66806      1979.5985      43497.234     -5558.8654     -257.96749      0.71004314     63400.921    
     17100   296.36386      37842.461     -1227.2683     -592.37309      2063.4155      43524.627     -5656.57       -269.37019      0.71533555     62931.849    
     17200   302.0997       37946.042     -1225.5067     -479.75009      1950.8184      43600.907     -5629.2846     -271.14179      0.72073503     62460.387    
     17300   303.84936      37958.13      -1240.8596     -489.04427      2044.2281      43613.188     -5694.2717     -275.11056      0.72546234     62053.378    
     17400   301.08543      38146.934     -1237.5483     -358.5773       1998.87        43650.117     -5630.4692     -275.45849      0.72918351     61736.707    
     17500   299.41375      38179.484     -1256.7143     -293.44798      2048.2779      43593.928     -5650.2991     -262.26016      0.73106648     61577.696    
     17600   296.27614      38001.412     -1257.2634     -408.54411      1999.6584      43575.238     -5632.8088     -274.86792      0.73352313     61371.465    
     17700   294.11162      37993.788     -1283.6526     -435.60551      2109.8523      43536.484     -5669.1646     -264.12534      0.73580814     61180.879    
     17800   297.77417      38154.764     -1243.8859     -291.54262      2014.4404      43605.107     -5662.7125     -266.64191      0.73942464     60881.646    
     17900   303.51282      38270.741     -1213.9499     -196.11795      2050.6961      43580.151     -5679.5139     -270.52354      0.74279915     60605.063    
     18000   299.83332      38190.718     -1242.2871     -321.24749      2013.7348      43737.169     -5721.4672     -275.18434      0.74607434     60339.012    
     18100   301.14952      38197.525     -1275.6764     -259.83046      2013.2651      43683.808     -5699.7375     -264.30404      0.74884037     60116.135    
     18200   301.71342      38172.965     -1273.5485     -242.14913      2032.6275      43633.963     -5705.4324     -272.49522      0.75182996     59877.089    
     18300   295.75003      38052.105     -1274.1036     -356.57981      1989.7348      43630.617     -5680.447      -257.11666      0.75673493     59488.98     
     18400   291.13627      38085.641     -1268.9246     -359.94939      2017.972       43705.924     -5736.6209     -272.75976      0.7633644      58972.345    
     18500   301.06238      38050.553     -1259.4403     -374.32359      1993.0228      43671.881     -5716.059      -264.52875      0.76948152     58503.535    
     18600   300.31138      38114.614     -1238.7512     -407.02383      1967.6682      43742.775     -5673.7163     -276.33805      0.77358743     58193.02     
     18700   306.08885      38012.514     -1278.0765     -404.69379      1981.1173      43727.82      -5730.4938     -283.15896      0.77682908     57950.185    
     18800   304.90197      38051.396     -1286.1405     -276.29652      1973.2911      43599.985     -5689.6        -269.84333      0.7813688      57613.496    
     18900   297.35531      38048.297     -1321.9563     -334.08159      2013.1422      43757.601     -5789.017      -277.39136      0.78688744     57209.439    
     19000   297.43982      38113.13      -1314.3148     -284.15338      2002.4348      43565.596     -5598.1259     -258.30725      0.79265243     56793.352    
     19100   297.43485      38225.329     -1306.8147     -257.31703      2059.7188      43665.207     -5665.0593     -270.40581      0.79745898     56451.04     
     19200   307.1811       38093.928     -1295.2039     -371.44618      1947.457       43685.872     -5605.6886     -267.0623       0.80091683     56207.32     
     19300   307.76079      38013.172     -1330.7971     -395.2557       2068.9501      43641.076     -5690.9265     -279.87514      0.80337238     56035.52     
     19400   298.29177      38094.905     -1324.5487     -338.55468      1971.8749      43653.845     -5596.8211     -270.89002      0.80561185     55879.75     
     19500   300.68995      37981.744     -1310.8179     -390.4962       2006.9338      43700.962     -5757.9729     -266.86456      0.80813526     55705.265    
     19600   297.79939      37967.082     -1322.4411     -370.12785      1937.9622      43565.276     -5569.8168     -273.77011      0.81194471     55443.909    
     19700   298.99349      37880.273     -1352.591      -429.16742      1950.7763      43639.896     -5659.7771     -268.86435      0.81621967     55153.521    
     19800   302.24204      38032.332     -1331.984      -303.67171      1937.2834      43691.86      -5690.5621     -270.59365      0.82065698     54855.305    
     19900   305.70862      38077.225     -1328.1158     -271.42379      2064.2916      43505.539     -5626.0592     -267.00643      0.8244784      54601.053    
     20000   300.25798      37872.482     -1308.5947     -449.62135      2058.1139      43511.636     -5665.9974     -273.0543       0.8266063      54460.496    
     20100   296.5115       37940.111     -1347.5591     -343.59479      1942.6085      43501.225     -5562.3784     -250.19103      0.8260857      54494.817    
     20200   297.412        37831.744     -1350.8119     -460.83826      1976.242       43650.735     -5721.3146     -262.268        0.82560557     54526.508    
     20300   300.56109      37780.456     -1355.4501     -495.23376      1989.4111      43649.523     -5731.3341     -276.46074      0.82767122     54390.424    
     20400   301.52675      37894.442     -1359.5481     -441.09608      2010.0982      43700.258     -5737.2162     -278.05339      0.83208012     54102.229    
     20500   307.80759      37907.534     -1366.2611     -415.79849      2023.3626      43680.025     -5738.1175     -275.67708      0.83735798     53761.223    
     20600   302.96513      37973.739     -1394.1002     -327.55308      1969.0844      43688.693     -5689.656      -272.72861      0.84182077     53476.215    
     20700   301.97364      37800.516     -1413.1131     -445.45669      2022.0552      43679.515     -5761.8595     -280.62437      0.84476611     53289.766    
     20800   297.82471      37713.284     -1381.2936     -546.57195      2003.6501      43558.59      -5649.4532     -271.6376       0.84785378     53095.699    
     20900   298.58025      37693.131     -1385.2616     -545.3276       1951.3997      43630.761     -5683.9747     -274.46582      0.85085032     52908.705    
     21000   302.93759      37776.863     -1409.7843     -488.48046      2002.3095      43618.674     -5668.9835     -276.87272      0.85341813     52749.511    
     21100   307.26427      37783.159     -1447.036      -497.22529      2042.0603      43595.542     -5643.8382     -266.34366      0.85656613     52555.649    
     21200   303.20258      37970.369     -1432.9977     -296.52561      2007.2808      43655.773     -5676.233      -286.92803      0.86139605     52260.965    
     21300   300.08583      37722.074     -1412.5818     -474.58189      1979.1361      43539.367     -5646.7787     -262.48683      0.86574821     51998.247    
     21400   305.08049      37754.268     -1456.2118     -360.91805      1960.9401      43487.029     -5622.0177     -254.55398      0.86904686     51800.876    
     21500   299.29163      37824.509     -1449.377      -352.64539      2003.2456      43443.653     -5567.3136     -253.05352      0.87235388     51604.504    
     21600   300.10288      37740.491     -1478.3867     -431.73311      1960.578       43612.229     -5647.9308     -274.2653       0.87329748     51548.745    
     21700   306.53916      37689.125     -1457.925      -467.3392       2006.5673      43510.656     -5643.0634     -259.77015      0.87349698     51536.971    
     21800   304.83022      37782.042     -1464.1186     -419.97209      1955.7348      43527.969     -5562.858      -254.71312      0.87388267     51514.226    
     21900   299.47648      37829.475     -1425.8901     -394.93321      1983.1475      43664.169     -5728.6298     -268.3885       0.87509904     51442.622    
     22000   296.45984      37726.102     -1452.8302     -444.13424      1935.2611      43628.048     -5678.6125     -261.63047      0.87628771     51372.841    
     22100   295.37864      37921.176     -1481.5508     -282.1357       2016.1451      43473.73      -5554.2653     -250.74776      0.87647431     51361.903    
     22200   295.39789      37813.547     -1468.2497     -434.48033      2051.3831      43497.307     -5577.2151     -255.19784      0.87768358     51291.137    
     22300   301.05285      37764.172     -1453.6468     -480.25063      1944.7894      43593.364     -5576.0792     -264.00435      0.8797783      51169.015    
     22400   311.63057      37800.467     -1476.0746     -453.95327      2025.3209      43655.107     -5685.1963     -264.73677      0.88292355     50986.735    
     22500   308.93514      37764.492     -1490.8195     -477.08382      1958.7055      43730.493     -5676.5011     -280.30208      0.88592682     50813.891    
     22600   296.88967      37911.671     -1479.2497     -352.67962      2072.424       43706.254     -5763.7448     -271.33265      0.88833325     50676.24     
     22700   300.77215      37791.061     -1470.9819     -394.62199      1970.9801      43542.916     -5591.6313     -265.60003      0.88999797     50581.451    
     22800   305.70106      37590.129     -1501.591      -504.51353      1951.8202      43522.642     -5625.3913     -252.83726      0.89207861     50463.477    
     22900   300.33593      37532.076     -1508.4768     -553.74859      1955.6143      43547.384     -5632.798      -275.89826      0.89605492     50239.542    
     23000   300.0058       37636.806     -1503.9872     -435.92761      1906.2654      43557.442     -5610.3185     -276.66858      0.9007762      49976.219    
     23100   302.3201       37794.389     -1541.2003     -394.66625      2024.7859      43538.013     -5574.4029     -258.14043      0.90502104     49741.814    
     23200   300.8158       37871.543     -1517.216      -347.06116      2004.8967      43569.893     -5558.4202     -280.54912      0.91035412     49450.415    
     23300   302.35544      37809.978     -1511.173      -344.33326      2014.4657      43499.902     -5591.0055     -257.87832      0.91373261     49267.574    
     23400   298.96288      37750.47      -1560.1665     -377.24714      1928.3565      43602.975     -5588.0727     -255.37574      0.91610206     49140.146    
     23500   298.96721      37596.803     -1533.0615     -477.89986      1941.4974      43552.972     -5607.1944     -279.5107       0.9186458      49004.076    
     23600   297.92845      37650.523     -1503.506      -477.11533      2011.9145      43759.572     -5855.6639     -284.6782       0.92016321     48923.265    
     23700   306.95321      37695.782     -1539.3117     -469.86353      1967.1019      43679.923     -5666.858      -275.20905      0.92025791     48918.231    
     23800   307.66902      37685.739     -1548.7653     -448.76845      2029.1286      43535.494     -5622.7207     -258.62925      0.91895627     48987.52     
     23900   299.16387      37741.574     -1524.4242     -408.47432      2021.0178      43549.56      -5623.7075     -272.39745      0.91873295     48999.428    
     24000   292.99067      37683.686     -1522.6402     -484.57461      1990.2072      43693.667     -5724.6196     -268.35373      0.91972657     48946.492    
     24100   299.82926      37700.43      -1513.341      -421.50363      1953.7195      43591.958     -5646.7937     -263.6088       0.92266563     48790.578    
     24200   300.76921      37762.547     -1560.4552     -434.2952       1978.6317      43636.528     -5590.3067     -267.55553      0.92551257     48640.494    
     24300   299.80694      37808.647     -1541.6891     -394.37531      2038.8848      43593.447     -5621.6182     -266.00288      0.93146665     48329.577    
     24400   294.35592      37871.845     -1544.0719     -236.15999      1999.2899      43568.622     -5654.7965     -261.03836      0.93608115     48091.332    
     24500   296.56695      37683.225     -1550.2112     -394.54031      1910.5168      43636.577     -5649.5803     -269.53661      0.9402996      47875.58     
     24600   298.31915      37825.104     -1529.9972     -324.32015      2017.4618      43663.471     -5723.7301     -277.78068      0.94290989     47743.045    
     24700   303.16466      37769.814     -1605.1394     -373.71933      2015.9701      43708.549     -5695.9613     -279.88484      0.94331499     47722.542    
     24800   302.6481       37819.513     -1576.8857     -296.91211      2035.4866      43574.27      -5650.8396     -265.60582      0.94438572     47668.434    
     24900   303.59168      37650.93      -1605.5077     -337.23624      1973.4525      43501.683     -5613.6255     -267.83536      0.94584549     47594.866    
     25000   299.11348      37555.028     -1596.8611     -485.41883      1944.8187      43659.403     -5705.07       -261.84386      0.94949679     47411.839    
     25100   297.867        37702.264     -1596.3956     -371.05171      2023.6598      43561.792     -5651.8553     -263.88518      0.95273159     47250.862    
     25200   304.16175      37669.966     -1602.9443     -384.17133      1988.7256      43596.683     -5662.4688     -265.85834      0.9532013      47227.578    
     25300   303.57223      37685.575     -1601.3756     -415.31773      1989.3013      43647.548     -5676.8353     -257.7457       0.95122038     47325.93     
     25400   303.21181      37745.703     -1587.4447     -374.85469      1997.2712      43646.975     -5670.4681     -265.77531      0.94860179     47456.572    
     25500   295.59837      37768.594     -1563.9145     -373.30257      2029.8347      43598.34      -5650.9473     -271.41587      0.94538207     47618.196    
     25600   297.23652      37491.113     -1552.1082     -566.45588      2017.2056      43554.173     -5687.0114     -274.69037      0.94237826     47769.978    
     25700   303.04051      37523.324     -1605.3511     -483.6722       1971.1849      43614.164     -5707.6142     -265.38723      0.94030545     47875.282    
     25800   302.46227      37579.628     -1556.5398     -544.6942       2004.0541      43611.296     -5672.7194     -261.76925      0.94149757     47814.663    
     25900   305.86342      37722.106     -1567.3511     -411.47526      1979.7343      43668.372     -5670.5008     -276.67342      0.94395445     47690.213    
     26000   307.07307      37633.186     -1604.3056     -434.19626      2043.4304      43677.477     -5775.871      -273.34784      0.94688818     47542.455    
     26100   295.01688      37624.511     -1559.1427     -512.05731      1989.6372      43580.689     -5608.8983     -265.71769      0.95091032     47341.361    
     26200   299.38647      37660.532     -1615.2851     -412.47769      1976.8662      43515.369     -5550.4293     -253.51077      0.95446606     47164.997    
     26300   299.22339      37683.222     -1578.1147     -377.53122      1951.0379      43664.773     -5706.11       -270.83353      0.95866948     46958.196    
     26400   302.49496      37603.699     -1627.3203     -414.99454      2024.565       43622.061     -5731.3231     -269.2894       0.96294391     46749.752    
     26500   306.40585      37592.748     -1631.1233     -426.15518      1975.0315      43632.519     -5679.13       -278.39382      0.96774018     46518.053    
     26600   303.97899      37515.685     -1611.7839     -517.29966      1924.9632      43609.441     -5624.9112     -264.7241       0.97218566     46305.341    
     26700   298.22579      37545.285     -1649.5583     -482.17189      2036.605       43566.718     -5657.5702     -268.73682      0.97642177     46104.45     
     26800   294.85003      37545.301     -1639.9483     -467.67824      1976.6643      43546.88      -5607.7122     -262.90394      0.98041095     45916.856    
     26900   294.02871      37481.168     -1620.0622     -567.69697      1962.3191      43651.112     -5680.3961     -264.10753      0.9820266      45841.313    
     27000   310.29057      37455.89      -1640.4156     -508.77545      1991.738       43568.403     -5688.1444     -266.91596      0.98109964     45884.625    
     27100   304.77204      37704.96      -1643.4298     -345.41823      1987.5644      43682.657     -5699.5686     -276.84417      0.97803583     46028.364    
     27200   303.16865      37664.92      -1602.6533     -354.54648      1939.6525      43624.412     -5677.339      -264.60581      0.97531065     46156.975    
     27300   295.62223      37778.28      -1614.0192     -291.54803      2011.4356      43702.604     -5759.4965     -270.69513      0.97323249     46255.534    
     27400   299.88021      37620.066     -1631.7543     -399.26137      1982.6235      43618.119     -5678.1781     -271.4826       0.97207326     46310.695    
     27500   300.62034      37655.992     -1644.7202     -400.76895      1973.625       43687.397     -5696.1748     -263.3662       0.97231516     46299.174    
     27600   307.91185      37617.815     -1626.8621     -440.88754      2060.6338      43491.92      -5594.7592     -272.23         0.97422209     46208.549    
     27700   304.01992      37742.645     -1627.5713     -334.16996      2062.7681      43662.318     -5749.1453     -271.55466      0.97673701     46089.57     
     27800   301.62861      37573.198     -1615.1018     -435.62776      2035.1678      43564.164     -5706.4913     -268.91289      0.97998932     45936.612    
     27900   293.99364      37691.932     -1656.7874     -380.63452      2006.5398      43629.783     -5631.3441     -275.6246       0.98335696     45779.295    
     28000   302.57316      37365.738     -1656.8626     -615.72838      2020.1387      43690.878     -5788.7727     -283.91393      0.98721326     45600.47     
     28100   301.90591      37467.063     -1682.4881     -540.86244      1989.8648      43664.327     -5698.7645     -265.01378      0.99154837     45401.102    
     28200   300.86649      37584.658     -1692.3242     -460.13494      2026.2185      43691.573     -5707.0539     -273.62007      0.99595928     45200.029    
     28300   298.13936      37653.945     -1663.3111     -411.71899      2068.3225      43653.837     -5715.1785     -278.00554      0.9994433      45042.464    
     28400   296.45958      37594.831     -1659.4654     -433.42868      1974.9211      43693.462     -5697.5931     -283.06498      1.0014215      44953.486    
     28500   299.45261      37664.451     -1662.4109     -296.46369      1993.1144      43639.625     -5749.4454     -259.96816      1.0016044      44945.28     
     28600   302.30858      37489.016     -1670.57       -470.8689       1935.4134      43641.158     -5663.3809     -282.7354       1.0003232      45002.846    
     28700   304.57673      37528.277     -1688.5209     -511.42177      2048.3347      43592.531     -5647.4801     -265.16603      0.99905006     45060.193    
     28800   304.58873      37557.785     -1701.0577     -479.34752      1983.0229      43768.281     -5733.5327     -279.58126      0.9992469      45051.317    
     28900   299.13229      37627.563     -1670.013      -403.92203      2010.0754      43693.315     -5726.7544     -275.13832      1.0004461      44997.314    
     29000   303.25672      37593.612     -1696.1936     -359.07135      2000.2535      43550.087     -5623.4071     -278.05639      1.0019628      44929.202    
     29100   298.18243      37516.865     -1675.7265     -483.24154      1999.5258      43543.347     -5604.7068     -262.33268      1.0042542      44826.686    
     29200   299.85414      37491.102     -1667.4424     -500.16474      1980.5493      43594.862     -5648.8195     -267.88325      1.0059784      44749.855    
     29300   295.6831       37597.262     -1698.7268     -437.67382      2036.5709      43653.672     -5683.3659     -273.21416      1.0091069      44611.122    
     29400   303.73643      37678.439     -1719.257      -329.74283      2008.7809      43601.136     -5613.3513     -269.12697      1.0116625      44498.426    
     29500   308.26503      37552.892     -1719.5971     -402.37846      2033.4871      43522.184     -5626.2245     -254.57856      1.0155827      44326.658    
     29600   297.28283      37495.305     -1706.8325     -514.29494      2021.5371      43572.256     -5606.4752     -270.88477      1.0173767      44248.497    
     29700   298.03982      37361.679     -1705.7297     -570.16637      1983.7608      43409.312     -5496.4271     -259.07013      1.0173111      44251.348    
     29800   298.69738      37329.949     -1718.7847     -611.40774      1988.3851      43631.776     -5682.7748     -277.2449       1.0146243      44368.531    
     29900   302.36683      37370.166     -1716.9439     -589.60208      2018.121       43669.079     -5736.8955     -273.59235      1.0111709      44520.058    
     30000   304.43533      37545.656     -1714.4371     -433.48867      2036.8236      43604.961     -5672.5357     -275.66765      1.0083869      44642.974    
     30100   301.58147      37575.657     -1706.9985     -426.69963      1966.5189      43572.586     -5567.7768     -261.97335      1.0061322      44743.015    
     30200   301.29078      37569.885     -1706.9422     -420.30749      2044.056       43532.302     -5619.7363     -259.48731      1.0053475      44777.94     
     30300   301.57018      37465.143     -1704.9467     -500.98107      2013.7544      43689.176     -5751.4263     -280.43338      1.0064533      44728.742    
     30400   298.78668      37460.852     -1704.6344     -508.04478      1984.768       43603.823     -5648.7988     -266.26126      1.0086845      44629.801    
     30500   292.32542      37525.854     -1683.1436     -482.53034      2043.7085      43477.986     -5570.3103     -259.85557      1.0118028      44492.256    
     30600   297.58334      37611.195     -1718.8842     -414.38891      2007.7963      43674.607     -5676.3077     -261.62747      1.0135646      44414.92     
     30700   304.49116      37586.872     -1694.8319     -443.90702      1968.1508      43638.657     -5612.4132     -268.78283      1.0134102      44421.684    
     30800   306.15409      37571.437     -1707.391      -424.04529      2095.1934      43632.804     -5750.2444     -274.88017      1.0109115      44531.482    
     30900   299.99972      37530.896     -1732.0242     -454.70692      1995.9656      43560.983     -5589.3807     -249.941        1.0076034      44677.686    
     31000   298.47817      37534.594     -1745.8224     -392.55238      2018.2397      43608.038     -5681.4132     -271.89561      1.0062434      44738.072    
     31100   298.01421      37530.771     -1703.966      -417.2583       1946.2648      43677.733     -5691.9435     -280.05856      1.0073914      44687.088    
     31200   309.51905      37700.538     -1731.6929     -379.10219      2041.3558      43736.315     -5683.8591     -282.47897      1.0078057      44668.717    
     31300   304.83225      37581.004     -1706.4586     -424.27922      2054.4036      43638.963     -5698.6126     -283.01266      1.0074081      44686.347    
     31400   299.00618      37507.045     -1713.2864     -465.27665      2030.0471      43565.352     -5632.481      -277.31093      1.0075457      44680.245    
     31500   296.81796      37538.066     -1738.1075     -400.78981      2045.331       43648.259     -5733.0306     -283.59639      1.0083336      44645.331    
     31600   302.48183      37594.075     -1730.4824     -296.64342      2006.017       43539.4       -5648.1382     -276.07766      1.0103322      44557.015    
     31700   302.16594      37643.085     -1744.07       -339.11356      2073.2288      43548.698     -5638.5073     -257.15055      1.0131673      44432.334    
     31800   299.32345      37623.5       -1715.567      -416.72361      2073.7004      43614.653     -5655.2338     -277.32816      1.0165396      44284.934    
     31900   302.99176      37535.949     -1756.3242     -347.34478      2012.0315      43465.898     -5571.8912     -266.41966      1.0178462      44228.087    
     32000   293.27023      37539.707     -1740.6066     -374.93264      1992.7283      43603.791     -5672.3526     -268.92059      1.0193195      44164.159    
     32100   301.72284      37449.963     -1750.3849     -409.21084      2023.3076      43458.861     -5607.7328     -264.87706      1.0219146      44052.006    
     32200   294.86269      37658.173     -1756.0992     -352.49663      2123.6997      43553.103     -5634.0247     -276.00924      1.0247685      43929.326    
     32300   297.33634      37644.131     -1764.2602     -361.03995      2105.6102      43574.259     -5637.6086     -272.82949      1.0274684      43813.892    
     32400   309.12372      37460.619     -1798.6472     -318.37104      1999.3551      43475.563     -5631.4161     -265.86519      1.0282931      43778.751    
     32500   293.78333      37480.067     -1802.7724     -381.4937       2070.5868      43400.628     -5561.7686     -245.1135       1.0280948      43787.197    
     32600   299.14572      37422.693     -1795.7784     -393.90071      2010.8143      43537.185     -5671.2416     -264.38619      1.0299158      43709.774    
     32700   299.54724      37536.801     -1784.3971     -342.91971      2023.4615      43496.718     -5595.3797     -260.682        1.0318294      43628.714    
     32800   301.00099      37568.507     -1803.8258     -362.16681      2031.8101      43555.743     -5598.0805     -254.97341      1.031608       43638.077    
     32900   307.90999      37421.882     -1775.8946     -436.40946      2028.3395      43421.643     -5550.2982     -265.49824      1.0305474      43682.988    
     33000   298.89781      37367.626     -1785.7601     -438.71092      1964.0349      43598.085     -5706.514      -263.50921      1.0296242      43722.156    
     33100   299.35561      37258.926     -1802.4092     -521.45413      1956.9095      43504.41      -5607.3333     -271.19717      1.0299268      43709.307    
     33200   304.4645       37275.054     -1788.0343     -501.30755      2032.2283      43395.943     -5590.304      -273.47209      1.0331071      43574.756    
     33300   301.25744      37432.542     -1765.8543     -455.15003      2034.4548      43439.24      -5558.4265     -261.72161      1.0376242      43385.062    
     33400   301.77146      37311.985     -1813.7357     -586.83036      1969.897       43670.622     -5651.6894     -276.27803      1.0397591      43295.978    
     33500   300.93942      37378.357     -1747.0382     -483.51383      2054.9774      43415.646     -5596.8391     -264.87544      1.0394712      43307.972    
     33600   293.74321      37402.912     -1784.7812     -453.81992      1947.0836      43484.967     -5535.347      -255.19074      1.0355301      43472.794    
     33700   295.996        37314.187     -1789.5157     -517.61051      2000.4825      43491.775     -5608.6401     -262.30433      1.0318127      43629.419    
     33800   302.60616      37316.829     -1757.6531     -549.0369       1990.689       43534.356     -5633.5911     -267.9348       1.0287633      43758.743    
     33900   297.52869      37370.34      -1774.0537     -604.53994      2036.8977      43631.1       -5645.1082     -273.95577      1.0260201      43875.738    
     34000   300.89684      37298.328     -1764.4546     -593.85376      2018.65        43500.413     -5598.9398     -263.48712      1.0265538      43852.928    
     34100   296.50322      37314.276     -1803.033      -601.19145      2085.7209      43463.898     -5565.6892     -265.42921      1.0291242      43743.4      
     34200   295.38824      37473.155     -1801.5882     -442.48513      2014.9875      43559.107     -5590.5042     -266.36218      1.0328663      43584.912    
     34300   297.50028      37390.848     -1771.9932     -496.30284      2036.7786      43553.105     -5659.1725     -271.56713      1.0351471      43488.879    
     34400   301.26369      37533.299     -1780.559      -404.21732      2037.4498      43517.749     -5571.1624     -265.9608       1.035455       43475.951    
     34500   302.74785      37552.656     -1774.9687     -409.85147      2030.5578      43616.711     -5634.2384     -275.55374      1.0331593      43572.552    
     34600   300.67501      37440.627     -1786.3641     -491.02272      2006.6447      43607.372     -5629.5924     -266.41029      1.0311749      43656.405    
     34700   294.37886      37415.48      -1767.4068     -495.04315      2028.0007      43502.887     -5583.3782     -269.5791       1.0307213      43675.617    
     34800   297.85874      37342.835     -1801.8199     -510.93632      1972.3728      43574.109     -5618.6892     -272.20151      1.0315829      43639.14     
     34900   296.61911      37386.424     -1788.0958     -516.75545      2074.7702      43504.94      -5625.2023     -263.23251      1.0344268      43519.163    
     35000   305.44819      37363.984     -1797.8467     -525.65709      1982.5342      43588.428     -5611.3779     -272.09625      1.0359667      43454.476    
     35100   306.14335      37400.15      -1792.6838     -536.601        2040.6114      43546.519     -5597.0571     -260.63874      1.0364336      43434.901    
     35200   301.17447      37317.437     -1787.9227     -602.92092      2022.7252      43573.727     -5607.7506     -280.42149      1.0361202      43448.036    
     35300   300.567        37269.676     -1803.8503     -616.55408      2044.1213      43599.08      -5677.2977     -275.82403      1.0349501      43497.16     
     35400   299.04643      37215.493     -1837.3825     -650.38257      2016.0628      43607.777     -5644.0219     -276.56028      1.0341631      43530.261    
     35500   296.77961      37337.499     -1829.5916     -547.44817      2112.0593      43550.899     -5680.739      -267.68004      1.0347618      43505.076    
     35600   298.16709      37399.676     -1787.0998     -497.59365      2038.0881      43544.71      -5625.2345     -273.19446      1.03739        43394.854    
     35700   307.67085      37262.562     -1826.4643     -633.50943      2083.612       43506.687     -5612.1134     -255.64929      1.0411297      43238.981    
     35800   302.85093      37296.743     -1843.6916     -622.37193      2054.9353      43498.901     -5522.308      -268.72262      1.0461058      43033.304    
     35900   303.99149      37240.874     -1852.06       -556.94338      2070.1098      43518.95      -5675.6538     -263.52812      1.0520368      42790.697    
     36000   292.57248      37368.583     -1822.5114     -537.05739      2064.8052      43473.711     -5550.0851     -260.27996      1.0575514      42567.565    
     36100   298.07528      37457.298     -1841.8957     -375.45745      2048.0973      43480.818     -5590.0551     -264.20914      1.0597806      42478.029    
     36200   297.8959       37354.26      -1849.3538     -518.04316      1998.4703      43624.971     -5617.7725     -284.01275      1.0579905      42549.901    
     36300   306.43548      37387.378     -1865.7878     -427.03827      2068.9213      43614.384     -5719.8527     -283.24867      1.0536892      42723.594    
     36400   299.59972      37365.134     -1835.4878     -538.37971      2047.1642      43638.321     -5664.9029     -281.58084      1.0502801      42862.27     
     36500   297.25509      37095.409     -1808.2072     -733.48643      1995.3747      43490.587     -5584.9449     -263.9147       1.0495734      42891.131    
     36600   297.73459      37188.105     -1857.291      -590.01467      1955.2077      43586.968     -5635.9607     -270.80452      1.0499333      42876.428    
     36700   298.03318      37339.626     -1817.1668     -493.28535      2048.2374      43521.446     -5655.3994     -264.20545      1.0518066      42800.064    
     36800   305.92107      37345.078     -1830.357      -455.38588      1920.4742      43610.334     -5624.3915     -275.59594      1.0540466      42709.105    
     36900   306.49228      37235.42      -1825.1932     -568.35191      1979.7087      43508.526     -5596.6031     -262.66688      1.05649        42610.333    
     37000   297.99275      37367.566     -1813.7953     -522.75129      2041.6344      43576.162     -5640.7315     -272.95216      1.056637       42604.403    
     37100   297.14901      37374.294     -1833.1276     -530.65666      1990.7122      43698.61      -5690.4353     -260.80904      1.0553321      42657.084    
     37200   301.14868      37368.112     -1813.4251     -486.59059      2042.8636      43563.275     -5669.8602     -268.15009      1.0524664      42773.232    
     37300   303.48454      37362.215     -1826.1191     -526.61261      2065.3901      43519.376     -5617.1388     -252.68073      1.0491738      42907.464    
     37400   306.12337      37443.993     -1796.272      -499.5132       2017.3535      43550.373     -5552.4152     -275.533        1.0480406      42953.858    
     37500   304.75067      37325.448     -1814.2757     -559.93684      2102.3477      43541.313     -5669.2882     -274.71224      1.0491593      42908.059    
     37600   298.4484       37272.395     -1817.8877     -583.6695       2038.6518      43557.357     -5655.1009     -266.95648      1.0526035      42767.66     
     37700   295.59329      37368.808     -1871.3763     -492.84141      2050.7613      43460.204     -5524.2292     -253.7108       1.0566668      42603.202    
     37800   298.18571      37353.568     -1840.3378     -453.87635      2036.3993      43516.403     -5631.6608     -273.35986      1.0609166      42432.541    
     37900   297.09716      37281.073     -1874.8633     -540.19464      2026.9361      43552.425     -5611.5311     -271.69901      1.0635701      42326.679    
     38000   295.44581      37315.268     -1855.1095     -523.45512      2052.6002      43534.45      -5625.7694     -267.44822      1.0653976      42254.076    
     38100   297.74096      37278.458     -1851.7645     -550.83209      2066.5785      43533.891     -5650.2626     -269.15143      1.0631489      42343.445    
     38200   304.76247      37182.28      -1837.7002     -648.85266      2055.8741      43502.623     -5610.7345     -278.92925      1.0586391      42523.831    
     38300   299.68005      37318.572     -1845.7929     -596.20822      2122.7526      43620.75      -5698.8086     -284.12073      1.0529396      42754.009    
     38400   301.31759      37319.646     -1871.1246     -497.98499      1977.1992      43599.523     -5612.8831     -275.08392      1.0493933      42898.491    
     38500   294.81099      37304.088     -1862.2031     -497.95201      2037.2494      43548.562     -5658.8172     -262.75195      1.0489977      42914.67     
     38600   295.10168      37182.77      -1838.8448     -637.77441      1941.7578      43652.575     -5655.4943     -279.44915      1.0519795      42793.028    
     38700   295.00605      37303.344     -1859.5208     -575.52873      2078.8358      43532.557     -5603.8197     -269.18012      1.0566         42605.895    
     38800   305.65219      37217.296     -1880.3158     -568.66313      2042.3218      43500.651     -5606.7559     -269.94162      1.0613015      42417.152    
     38900   300.36118      37317.612     -1876.741      -526.00571      2032.4271      43586.39      -5638.9084     -259.54993      1.0640362      42308.139    
     39000   302.92551      37334.895     -1892.7766     -437.59051      2018.5848      43487.471     -5572.2426     -268.55041      1.0649614      42271.379    
     39100   299.25803      37329.598     -1888.2704     -459.90827      2030.0954      43532.548     -5601.5221     -283.34405      1.0649298      42272.633    
     39200   298.58609      37163.975     -1821.8141     -650.1502       2028.9244      43609.546     -5724.1683     -278.36271      1.0654029      42253.864    
     39300   294.1197       37324.451     -1868.8052     -548.7509       1961.0295      43614.519     -5560.3595     -273.18181      1.0642641      42299.076    
     39400   300.4821       37395.876     -1865.069      -451.16444      2037.2758      43528.869     -5587.1655     -266.86996      1.0610753      42426.198    
     39500   305.51778      37326.125     -1846.7458     -522.86014      2018.7597      43518.019     -5583.2096     -257.83787      1.0572456      42579.88     
     39600   305.33317      37343.425     -1830.7133     -457.90937      1995.6675      43516.394     -5618.4887     -261.52505      1.054902       42674.476    
     39700   299.79394      37232.402     -1829.2264     -530.52594      2031.383       43450.394     -5621.9761     -267.64673      1.0533827      42736.023    
     39800   295.95396      37281.773     -1830.6091     -525.85751      2051.0902      43449.201     -5589.3266     -272.72455      1.0535229      42730.336    
     39900   295.64159      37351.821     -1868.561      -511.61029      2053.7088      43555.581     -5615.9485     -261.34921      1.0549326      42673.236    
     40000   301.68854      37428.886     -1850.7344     -447.88717      2019.4881      43601.135     -5617.1659     -275.95027      1.055732       42640.925    
     40100   304.59885      37313.74      -1860.9779     -521.3839       1977.2582      43661.482     -5674.4783     -268.15935      1.056503       42609.805    
     40200   300.86794      37322.903     -1862.4418     -485.94955      1999.2279      43461.827     -5530.787      -258.97322      1.0586509      42523.357    
     40300   299.20122      37355.022     -1849.5435     -428.89147      2026.8933      43549.561     -5668.5159     -274.48147      1.0621016      42385.2      
     40400   294.57933      37306.054     -1881.9207     -516.52614      1995.9872      43727.026     -5735.5651     -282.94746      1.0654795      42250.826    
     40500   298.07601      37420.567     -1903.7249     -466.41134      2078.1594      43607.293     -5627.7646     -266.9844       1.0671814      42183.447    
     40600   303.60747      37391.965     -1867.4109     -479.02846      2050.0752      43453.149     -5505.5347     -259.28552      1.0670394      42189.059    
     40700   298.71212      37434.415     -1865.9224     -420.44278      2098.4258      43514.818     -5621.6114     -270.85246      1.066362       42215.861    
     40800   300.38232      37315.906     -1876.2912     -439.41567      2027.5199      43598.721     -5719.6857     -274.94203      1.0639625      42311.068    
     40900   299.84061      37211.032     -1877.667      -554.40306      2024.5952      43578.859     -5684.6263     -275.72652      1.0624077      42372.986    
     41000   297.68666      37343.54      -1860.7453     -459.56106      2053.6166      43603.676     -5713.045      -280.40119      1.0621719      42382.397    
     41100   301.39627      37458.479     -1840.7046     -410.73522      2087.7961      43517.014     -5628.8958     -265.99576      1.0622127      42380.768    
     41200   304.43001      37333.578     -1889.8956     -557.7215       2090.3768      43545.006     -5586.3515     -267.83571      1.0616185      42404.487    
     41300   303.68225      37253.634     -1843.1764     -603.99585      2064.647       43588.975     -5683.4426     -269.37279      1.0607912      42437.558    
     41400   307.82705      37210.811     -1869.8095     -515.96158      2007.2748      43457.284     -5606.0821     -261.89502      1.0600082      42468.908    
     41500   298.36775      37308.321     -1887.4742     -485.03489      2027.1931      43590.478     -5659.4901     -277.35111      1.0622164      42380.619    
     41600   299.96117      37227.176     -1869.1367     -552.49336      2006.2735      43509.543     -5596.1126     -270.89798      1.0654065      42253.721    
     41700   306.27468      37177.02      -1867.386      -533.53975      1879.5503      43590.555     -5624.3746     -267.78535      1.0680721      42148.27     
     41800   305.8683       37257.277     -1883.1936     -525.21207      1987.4884      43584.976     -5637.988      -268.79415      1.0684209      42134.509    
     41900   307.24986      37328.036     -1839.044      -497.57327      2028.8154      43544.421     -5642.8051     -265.77731      1.0659067      42233.894    
     42000   299.66611      37243.096     -1867.6694     -576.07004      1983.5157      43526.441     -5556.6232     -266.49811      1.0603939      42453.459    
     42100   301.15213      37200.393     -1862.2673     -541.33222      2048.7231      43486.728     -5650.466      -280.99186      1.0550226      42669.596    
     42200   294.74098      37434.686     -1831.4415     -408.90263      2031.1726      43564.576     -5655.1185     -265.59996      1.0503705      42858.581    
     42300   297.95669      37283.644     -1861.017      -577.58866      2073.3349      43524.667     -5612.1815     -263.57108      1.0481375      42949.889    
     42400   293.34055      37364.429     -1831.5727     -572.61363      2078.5759      43477.376     -5514.5241     -272.81193      1.0482248      42946.314    
     42500   299.73359      37340.906     -1831.4291     -531.84262      2055.7632      43616.559     -5690.6129     -277.53187      1.0503568      42859.139    
     42600   299.19312      37333.583     -1843.3862     -532.57898      2027.6492      43567.821     -5620.5277     -265.39516      1.0519601      42793.818    
     42700   296.08028      37317.718     -1857.877      -564.25414      2100.8584      43593.871     -5680.8261     -274.05453      1.0534709      42732.447    
     42800   296.40263      37258.215     -1850.3527     -566.45184      2017.241       43521.065     -5598.8372     -264.449        1.0553111      42657.932    
     42900   294.93         37110.027     -1884.6828     -676.37537      2054.2869      43527.7       -5644.8632     -266.03903      1.056031       42628.853    
     43000   297.32044      37209.742     -1854.1678     -539.16146      2026.671       43429.007     -5586.8268     -265.78009      1.0582405      42539.846    
     43100   295.18901      37394.666     -1890.9761     -477.76812      2046.5185      43573.023     -5579.9415     -276.19         1.0614978      42409.31     
     43200   301.13852      37373.806     -1895.5919     -470.5691       2063.7016      43626.642     -5668.3478     -282.02897      1.0666443      42204.688    
     43300   297.27724      37347.515     -1866.9738     -514.95172      2027.3976      43654.419     -5680.0631     -272.31243      1.0719483      41995.858    
     43400   300.7325       37235.902     -1903.8071     -506.19653      2012.4065      43493.207     -5592.1614     -267.54649      1.0758354      41844.121    
     43500   299.11199      37192.417     -1894.871      -495.41882      2055.7861      43496.058     -5700.9879     -268.14985      1.0789171      41724.603    
     43600   295.25202      37366.02      -1899.0137     -405.45425      1972.6998      43567.831     -5603.6924     -266.35074      1.0793045      41709.626    
     43700   309.44118      37270.872     -1929.2778     -494.12782      2049.679       43485.117     -5591.7641     -248.75416      1.0762401      41828.387    
     43800   302.3242       37187.249     -1903.3023     -646.59317      2077.0324      43546.02      -5607.098      -278.81072      1.0709898      42033.443    
     43900   298.40495      37211.212     -1890.4439     -607.99067      2036.1155      43566.532     -5625.8479     -267.15342      1.0643678      42294.955    
     44000   292.33937      37255.504     -1867.1857     -580.31137      2039.8212      43551.724     -5613.5528     -274.99077      1.0588295      42516.184    
     44100   300.13777      37122.515     -1868.0469     -641.75138      1998.4034      43520.889     -5616.792      -270.18704      1.05646        42611.541    
     44200   302.14665      37329.133     -1811.0222     -541.44452      2087.1034      43579.47      -5712.8807     -272.09263      1.05709        42586.147    
     44300   303.72573      37463.384     -1864.8718     -396.18804      2010.4213      43598.012     -5612.0028     -271.98651      1.0591087      42504.975    
     44400   298.99919      37474.964     -1881.3269     -389.1201       2061.7456      43486.526     -5539.9121     -262.94879      1.0615866      42405.763    
     44500   299.60438      37302.763     -1859.0188     -487.12989      2014.4839      43487.881     -5574.8641     -278.58891      1.0638946      42313.768    
     44600   293.70974      37296.863     -1887.863      -523.52598      2080.3981      43475.413     -5570.2604     -277.29833      1.0650731      42266.948    
     44700   298.03809      37211.16      -1879.8264     -548.49595      2025.2691      43520.974     -5641.9232     -264.83798      1.0668324      42197.244    
     44800   300.7495       37396.87      -1883.429      -418.06219      2006.2683      43604.288     -5641.7271     -270.46774      1.0689405      42114.027    
     44900   307.67848      37289.557     -1888.8467     -486.15542      1997.2663      43485.855     -5538.643      -279.91937      1.0718427      41999.997    
     45000   300.45704      37284.02      -1861.0902     -543.84847      2086.7898      43510.503     -5640.627      -267.70684      1.0739065      41919.28     
     45100   294.10719      37396.677     -1875.9247     -429.67348      1984.7974      43612.572     -5625.9793     -269.1146       1.0728637      41960.026    
     45200   296.1207       37222.216     -1864.2787     -533.08795      1999.2912      43498.348     -5608.5243     -269.53249      1.0698919      42076.576    
     45300   299.6741       37293.29      -1932.6432     -467.12878      2058.12        43635.851     -5714.4586     -286.4509       1.0664864      42210.934    
     45400   303.90459      37399.345     -1897.5466     -424.44753      2039.5005      43478.439     -5543.8522     -252.74808      1.0642562      42299.392    
     45500   304.29867      37463.465     -1821.3601     -372.98396      2004.4607      43549.034     -5616.4874     -279.19875      1.0635432      42327.748    
     45600   300.1917       37361.035     -1879.5328     -441.77552      1989.8419      43472.875     -5529.1221     -251.25212      1.0615593      42406.854    
     45700   296.96441      37349.598     -1882.2667     -412.50469      2038.9634      43398.772     -5534.1367     -259.22895      1.0626419      42363.647    
     45800   297.11949      37341.893     -1869.191      -450.03184      1987.0254      43508.325     -5565.5596     -268.67497      1.0665814      42207.175    
     45900   299.17641      37427.897     -1884.0251     -360.35026      2011.4231      43570.935     -5633.2567     -276.82864      1.0716455      42007.724    
     46000   300.91422      37278.525     -1875.3486     -513.0972       2024.1664      43482.959     -5589.197      -250.95744      1.0760174      41837.045    
     46100   302.29463      37265.96      -1903.4708     -528.91345      2020.122       43550.797     -5604.8516     -267.72371      1.0781631      41753.782    
     46200   307.32502      37245.771     -1860.2478     -505.48533      2065.3922      43401.942     -5590.5162     -265.31393      1.0779677      41761.35     
     46300   299.99792      37318.998     -1913.8765     -524.28494      2090.9126      43600.313     -5660.9888     -273.07694      1.0742671      41905.208    
     46400   302.41753      37148.856     -1912.7726     -618.90366      2061.9952      43496.819     -5623.0973     -255.18463      1.0699062      42076.015    
     46500   296.34881      37224.304     -1891.8185     -564.80263      2025.0975      43463.788     -5535.7263     -272.23466      1.0678543      42156.864    
     46600   292.36266      37337.514     -1885.6638     -507.43245      2102.6178      43560.469     -5669.8814     -262.59511      1.0669041      42194.41     
     46700   305.73891      37267.403     -1864.6335     -541.7538       2056.3639      43496.636     -5602.1781     -277.03128      1.0660427      42228.505    
     46800   305.95858      37241.825     -1891.1782     -579.83731      2022.6813      43567.626     -5609.3788     -268.08875      1.0652371      42260.439    
     46900   299.5298       37091.753     -1898.3696     -746.84302      2034.967       43654.51      -5670.8012     -281.71012      1.0664033      42214.225    
     47000   298.66881      37237.3       -1898.9789     -555.36074      2119.005       43387.631     -5546.9447     -268.05182      1.0688714      42116.75     
     47100   296.53956      37242.631     -1928.1128     -575.71648      2030.5468      43516.669     -5534.8166     -265.93832      1.0706546      42046.604    
     47200   297.32103      37346.534     -1897.4852     -486.24322      2061.1598      43513.096     -5582.5516     -261.44214      1.0732738      41943.995    
     47300   295.1559       37364.33      -1915.4941     -500.31636      2077.7697      43609.994     -5640.8922     -266.73092      1.076414       41821.632    
     47400   302.13719      37357.735     -1923.4428     -495.45453      2052.9992      43637.807     -5646.7116     -267.46216      1.0800105      41682.361    
     47500   309.25073      37267.664     -1916.1065     -532.41569      2044.1189      43485.227     -5540.7646     -272.39532      1.0823329      41592.924    
     47600   300.55191      37148.759     -1918.9429     -644.55533      2082.7263      43607.884     -5700.5406     -277.81249      1.0827286      41577.721    
     47700   300.47553      37100.397     -1913.7174     -637.92129      2011.8742      43621.277     -5705.6875     -275.42761      1.0810894      41640.764    
     47800   299.15235      37084.868     -1936.4985     -674.9556       2034.8184      43606.796     -5669.8794     -275.41262      1.07681        41806.251    
     47900   305.49506      37197.484     -1919.4509     -559.95539      2037.2885      43516.05      -5610.1804     -266.26793      1.0733271      41941.912    
     48000   301.68441      37312.492     -1886.3411     -564.38993      2051.3637      43594.091     -5605.5667     -276.66446      1.0713002      42021.264    
     48100   300.55625      37253.411     -1888.3497     -615.44912      2124.7274      43555.83      -5656.0533     -267.29478      1.0693597      42097.518    
     48200   299.1435       37266.821     -1884.0494     -468.73896      2033.0021      43416.561     -5570.8893     -259.06383      1.0679198      42154.28     
     48300   299.1429       37245.221     -1913.606      -501.01912      2059.3451      43457.546     -5596.8847     -260.16082      1.0676443      42165.157    
     48400   300.17894      37330.159     -1875.1947     -496.94125      2008.0028      43554.98      -5601.103      -259.58472      1.0675527      42168.776    
     48500   299.99564      37295.446     -1847.2094     -588.67671      2063.6919      43514.742     -5589.1148     -257.98743      1.0683272      42138.205    
     48600   295.41173      37325.301     -1878.4293     -573.82331      2109.0365      43527.171     -5591.7087     -266.94493      1.0683553      42137.097    
     48700   300.94516      37144.496     -1913.671      -610.12683      2008.558       43673.481     -5744.0878     -269.65731      1.0688636      42117.058    
     48800   295.25157      37235.092     -1909.6357     -484.55062      2019.8522      43461.425     -5591.659      -260.3401       1.0709291      42035.824    
     48900   295.99014      37270.348     -1896.5627     -481.64658      2067.9561      43541.278     -5688.8911     -271.78577      1.0743201      41903.141    
     49000   302.74816      37172.315     -1913.0138     -548.82588      1963.8125      43601.979     -5665.2164     -266.42109      1.0769364      41801.343    
     49100   302.0462       37327.063     -1910.8914     -474.39891      2026.5121      43679.783     -5708.2836     -285.65795      1.0794096      41705.566    
     49200   302.44056      37326.745     -1923.8582     -485.01301      2051.0511      43545.006     -5588.28       -272.16016      1.0804411      41665.751    
     49300   305.17851      37255.876     -1944.9394     -491.697        1995.276       43573.391     -5603.0031     -273.15139      1.0801596      41676.609    
     49400   297.12404      37150.692     -1921.5771     -571.35622      2047.318       43454.085     -5588.3355     -269.4424       1.079054       41719.309    
     49500   295.19928      37118.482     -1911.4405     -621.67748      1994.9045      43546.832     -5628.1942     -261.94228      1.0783356      41747.104    
     49600   298.75806      37209.162     -1903.2489     -573.91688      2008.1429      43544.272     -5612.7274     -253.36046      1.0777572      41769.51     
     49700   299.79923      37315.3       -1879.0501     -508.41271      2030.1536      43587.959     -5635.6898     -279.65941      1.0766391      41812.888    
     49800   308.01035      37185.268     -1933.5151     -555.34232      2024.3353      43512.389     -5592.3981     -270.20109      1.0758136      41844.97     
     49900   302.10555      37368.411     -1927.3369     -385.23109      2006.9208      43626.784     -5681.2608     -271.46521      1.0767487      41808.632    
     50000   296.94359      37326.085     -1929.0184     -401.87387      2057.2034      43543.5       -5674.6448     -269.08179      1.077872       41765.059    
     50100   294.07228      37276.616     -1902.817      -491.1936       2040.2808      43590.094     -5675.824      -283.92405      1.0802794      41671.986    
     50200   301.65165      37283.834     -1961.4225     -551.99561      2083.4565      43696.709     -5717.4463     -265.467        1.0820151      41605.138    
     50300   299.22629      37323.223     -1870.8335     -538.84645      2147.7374      43439.598     -5584.1419     -270.29026      1.0838606      41534.298    
     50400   298.04633      37314.05      -1929.1594     -521.96733      2044.8966      43650.378     -5659.2814     -270.81681      1.0832804      41556.543    
     50500   294.64334      37335.078     -1910.3453     -471.30265      2066.2574      43506.119     -5590.4699     -265.18001      1.0805613      41661.113    
     50600   293.32631      37228.501     -1922.6964     -546.54369      2002.9287      43512.866     -5560.0091     -258.04475      1.076878       41803.609    
     50700   306.0181       37130.022     -1892.4185     -592.09107      2046.1908      43507.412     -5674.5669     -264.50441      1.0736208      41930.435    
     50800   299.36287      37400.249     -1890.0047     -483.88226      2049.7775      43662.029     -5667.8378     -269.8323       1.0724172      41977.495    
     50900   306.05132      37228.445     -1923.7002     -557.36959      2053.0491      43470.732     -5566.8129     -247.45368      1.073764       41924.843    
     51000   296.13207      37323.866     -1918.9483     -510.299        2068.7471      43563.985     -5607.9395     -271.67897      1.0761123      41833.357    
     51100   295.40805      37357.136     -1928.7081     -446.48032      2090.0263      43488.563     -5586.7863     -259.47919      1.07812        41755.452    
     51200   294.90713      37224.596     -1944.2511     -532.70965      1991.6004      43637.817     -5669.8143     -258.04652      1.0822733      41595.213    
     51300   293.15501      37055.726     -1902.9086     -661.10015      1991.8507      43490.437     -5585.3698     -277.18341      1.0867688      41423.151    
     51400   293.22564      37175.064     -1893.0529     -602.12425      2014.3378      43576.087     -5643.934      -276.24943      1.0893416      41325.32     
     51500   302.98302      37248.564     -1939.8145     -516.64255      1970.1313      43623.093     -5621.0751     -267.12776      1.0883199      41364.115    
     51600   298.03645      37313.831     -1924.9297     -525.35049      2032.5809      43630.238     -5625.9163     -272.79208      1.0843178      41516.784    
     51700   303.8831       37091.491     -1951.2399     -660.94427      2051.5314      43557.836     -5639.8043     -265.88774      1.0793569      41707.604    
     51800   302.44382      37019.186     -1963.1922     -675.94541      2014.8946      43490.692     -5571.6765     -275.58667      1.0768728      41803.813    
     51900   292.3704       37132.877     -1976.5491     -625.21792      2066.6646      43695.846     -5759.029      -268.83804      1.0776084      41775.275    
     52000   296.36248      37303.678     -1938.0624     -438.70754      2035.4058      43516.917     -5596.3253     -275.54979      1.0817721      41614.484    
     52100   303.30764      37320.188     -1953.0346     -460.76969      2049.7879      43535.049     -5578.2503     -272.59464      1.0864358      41435.847    
     52200   301.35196      37380.469     -1924.4658     -447.83217      2068.4062      43587.601     -5633.5708     -269.66879      1.0892275      41329.647    
     52300   302.76475      37400.82      -1931.0518     -349.93425      2031.4345      43640.716     -5700.5169     -289.82738      1.0877108      41387.276    
     52400   293.10734      37226.192     -1938.633      -546.5614       2053.4633      43513.397     -5581.0178     -274.456        1.0824241      41589.419    
     52500   292.54008      37172.162     -1951.9135     -613.67159      2071.0433      43586.399     -5643.8536     -275.8408       1.0762896      41826.466    
     52600   297.79408      37223.012     -1916.1826     -562.79161      2078.937       43559.781     -5672.6661     -264.06598      1.071372       42018.448    
     52700   303.67107      37181.303     -1925.5787     -567.44604      2051.994       43527.304     -5632.1309     -272.83913      1.0699916      42072.657    
     52800   298.97509      37262.908     -1907.8711     -579.71356      2065.8149      43495.564     -5559.285      -251.60197      1.0718657      41999.095    
     52900   302.96506      37343.509     -1914.1907     -541.68002      2141.1576      43550.562     -5621.5439     -270.79635      1.0748673      41881.811    
     53000   307.70804      37465.577     -1928.0079     -422.61934      2130.6846      43513.325     -5568.9904     -258.81518      1.078312       41748.02     
     53100   306.14795      37271.548     -1942.4427     -501.85747      2060.4362      43458.144     -5539.9627     -262.76929      1.0807158      41655.159    
     53200   292.69067      37362.784     -1897.5808     -492.7042       2069.7122      43626.39      -5679.2471     -263.78548      1.0812536      41634.442    
     53300   302.56432      37219.106     -1916.3013     -538.20256      2067.0195      43427.639     -5568.07       -252.97876      1.0789486      41723.387    
     53400   301.76209      37267.166     -1943.0854     -510.46393      2025.3044      43564.957     -5612.9335     -256.61278      1.0760337      41836.413    
     53500   298.48037      37284.059     -1890.743      -561.69866      2036.2176      43575.147     -5600.8169     -274.04773      1.0738041      41923.279    
     53600   304.81847      37430.062     -1955.9887     -408.44251      2101.9367      43518.543     -5561.9899     -263.99691      1.0732894      41943.385    
     53700   303.86636      37506.093     -1897.6975     -335.30111      2076.1709      43515.427     -5585.7541     -266.75201      1.0762624      41827.522    
     53800   302.05503      37271.232     -1926.9268     -457.21485      2066.3548      43509.531     -5647.3158     -273.19591      1.0805091      41663.126    
     53900   298.77974      37237.455     -1976.0007     -502.80675      2036.3134      43534.012     -5597.2117     -256.85146      1.084733       41500.895    
     54000   302.32315      37191.663     -1972.2852     -531.03381      2054.4603      43541.007     -5633.4281     -267.05708      1.0893361      41325.526    
     54100   301.02104      37241.921     -1943.9172     -537.25932      2032.3745      43583.427     -5613.8702     -278.83417      1.093164       41180.82     
     54200   303.82904      37462.934     -1965.1553     -391.81545      2104.0953      43653.246     -5654.5073     -282.92927      1.0928416      41192.968    
     54300   305.97444      37425.744     -1960.5585     -382.79202      2080.5322      43718.448     -5750.4519     -279.43372      1.0901565      41294.427    
     54400   295.2539       37416.108     -1982.8276     -393.01625      2118.9965      43572.658     -5629.6385     -270.06363      1.0872688      41404.101    
     54500   299.88366      37210.036     -1959.1801     -525.03241      2033.6392      43422.707     -5491.843      -270.25433      1.0857562      41461.784    
     54600   298.44753      37219.254     -1958.0938     -541.55575      2059.5704      43522.771     -5592.9148     -270.52314      1.0860629      41450.077    
     54700   300.29635      37275.025     -1962.7725     -521.77988      2107.3102      43642.588     -5714.0244     -276.29689      1.087454       41397.051    
     54800   308.82533      37225.006     -1932.0094     -529.49625      2057.786       43561.829     -5659.0889     -274.0147       1.0882825      41365.535    
     54900   305.85954      37216.683     -1962.0839     -578.60693      2084.6036      43505.856     -5571.6745     -261.4106       1.0890164      41337.66     
     55000   295.44164      37221.861     -1958.7251     -599.1945       2099.836       43577.022     -5625.6583     -271.41876      1.0892374      41329.272    
     55100   299.88605      37118.455     -1943.7177     -596.23352      2004.4355      43518.972     -5601.1827     -263.81925      1.0883573      41362.693    
     55200   295.7499       37310.96      -1971.8712     -443.66352      2106.2035      43455.701     -5576.3727     -259.03734      1.0876981      41387.762    
     55300   303.84814      37265.259     -1934.9663     -479.99568      2053.2321      43544.769     -5639.1017     -278.67889      1.0876712      41388.783    
     55400   299.52978      37376.024     -1956.9492     -498.64873      2113.1839      43636.15      -5642.8852     -274.82636      1.0873877      41399.576    
     55500   302.25196      37275.475     -1953.3055     -523.36171      2098.0954      43584.973     -5660.0247     -270.9011       1.0881384      41371.013    
     55600   299.59238      37297.226     -1958.6952     -492.34079      2078.664       43541.805     -5606.3093     -265.89732      1.0884669      41358.529    
     55700   299.38779      37157.442     -1967.4661     -611.0698       2103.7496      43427.211     -5521.2281     -273.75482      1.0874186      41398.398    
     55800   296.07896      37280.05      -1983.6608     -477.23029      2122.788       43503.086     -5618.1849     -266.74878      1.0875844      41392.087    
     55900   295.17478      37157.803     -1994.9897     -487.24394      1941.5765      43652.889     -5686.7023     -267.72663      1.0912522      41252.964    
     56000   296.90583      37046.76      -1966.0589     -603.63879      2001.3399      43471.901     -5590.6513     -266.13142      1.098153       40993.731    
     56100   306.79845      37041.411     -1980.7091     -600.31574      2041.9564      43365.546     -5531.3203     -253.74556      1.103215       40805.634    
     56200   304.52486      37148.688     -1984.4353     -568.69306      2020.8858      43539.014     -5585.0351     -273.04788      1.1039463      40778.603    
     56300   304.09256      37179.671     -1995.4293     -544.92176      2034.9327      43536.316     -5588.5954     -262.63124      1.1025713      40829.457    
     56400   298.27349      37188.024     -1992.4989     -549.43586      2083.8164      43557.188     -5628.046      -283.00055      1.098869       40967.019    
     56500   290.98757      37197.79      -1971.4194     -560.20026      2082.4425      43586.774     -5671.3294     -268.4773       1.0944545      41132.261    
     56600   297.1367       37226.25      -1939.2187     -510.1153       2035.9817      43527.015     -5612.168      -275.24454      1.0903296      41287.87     
     56700   300.88442      37319.179     -2004.1125     -500.26649      2064.3583      43681.816     -5653.8699     -268.74617      1.0883712      41362.164    
     56800   293.35604      37448.523     -1955.6077     -448.69922      2082.0978      43662.692     -5618.7911     -273.16862      1.0883049      41364.686    
     56900   299.16107      37345.519     -1939.9516     -437.44524      2040.1827      43518.761     -5564.9307     -271.09682      1.0897588      41309.497    
     57000   292.52872      37404.177     -1978.2881     -392.30535      2086.5122      43557.069     -5600.9115     -267.8984       1.0919647      41226.049    
     57100   296.52549      37188.265     -1970.0267     -504.42242      2002.3833      43496.633     -5582.1918     -254.11022      1.0945806      41127.523    
     57200   298.28217      37204.803     -1988.4911     -517.95117      2033.3009      43598.22      -5653.657      -266.61916      1.0962132      41066.273    
     57300   303.05636      37299.343     -1987.0003     -483.25467      2081.1444      43537.521     -5578.839      -270.22864      1.0962852      41063.574    
     57400   299.71546      37257.189     -1975.7644     -564.49793      2098.2222      43663.818     -5689.0017     -275.58712      1.0956904      41085.868    
     57500   299.6419       37261.611     -1972.2936     -490.79226      2011.7257      43609.55      -5619.6105     -276.96823      1.0941156      41145        
     57600   298.21078      37259.785     -1962.9491     -441.16526      2080.1348      43397.842     -5544.4187     -269.65854      1.0923595      41211.148    
     57700   291.93299      37272.136     -1986.001      -519.34723      2078.1975      43669.294     -5698.6431     -271.36376      1.0903114      41288.56     
     57800   305.7452       37378.594     -1960.8058     -362.80011      2030.5909      43618.541     -5681.1816     -265.75064      1.0898163      41307.319    
     57900   306.2081       37291.805     -1982.1431     -480.11136      2059.6894      43528.257     -5572.7956     -261.09141      1.0900119      41299.908    
     58000   299.55588      37321.771     -1941.6156     -478.99552      2089.6529      43530.434     -5599.9783     -277.7267       1.0904251      41284.255    
     58100   301.7672       37165.652     -1964.688      -540.80353      2012.0263      43548.893     -5621.1986     -268.57683      1.0914395      41245.886    
     58200   297.85537      37263.311     -1990.6609     -461.38887      1945.792       43534.557     -5504.7021     -260.28605      1.0933422      41174.109    
     58300   295.778        37300.788     -1979.5282     -493.43977      2130.873       43547.259     -5637.6133     -266.76308      1.0966695      41049.185    
     58400   308.19514      37369.506     -1989.5149     -407.77684      2064.606       43611.69      -5626.8862     -282.61188      1.0991945      40954.89     
     58500   303.54675      37432.362     -1981.8062     -357.80313      2107.9698      43605.03      -5670.5246     -270.50312      1.0989213      40965.069    
     58600   296.38234      37409.115     -1982.715      -364.52015      2047.8674      43528.93      -5554.8757     -265.57201      1.0964861      41056.051    
     58700   299.16562      37214.096     -1984.1878     -486.25291      2050.5202      43523.665     -5625.9733     -263.67532      1.0923466      41211.634    
     58800   303.0673       37171.364     -2023.1864     -504.25888      2009.4099      43602.279     -5640.296      -272.58346      1.0882077      41368.38     
     58900   296.91642      37291.394     -1975.9454     -489.16865      2101.2785      43440.022     -5515.5502     -269.24198      1.0889023      41341.992    
     59000   305.022        37175.104     -1982.9589     -600.882        2072.4977      43579.611     -5624.5513     -268.6126       1.0918661      41229.771    
     59100   307.10616      37241.556     -1960.1011     -541.19004      2056.6353      43554.589     -5601.6017     -266.77584      1.0957439      41083.861    
     59200   303.27662      37272.329     -1981.9028     -459.27794      2009.125       43639.441     -5669.3093     -265.74655      1.0986546      40975.016    
     59300   296.59941      37284.318     -1959.062      -473.70721      2057.5873      43559.3       -5620.4656     -279.33495      1.0986032      40976.932    
     59400   298.34131      37176.373     -2045.4814     -553.13206      2062.8838      43503.064     -5530.0729     -260.8879       1.0963717      41060.334    
     59500   299.50703      37107.098     -2022.3994     -620.85165      2043.772       43530.345     -5553.1229     -270.64455      1.095704       41085.357    
     59600   301.73854      37290.572     -1985.6375     -457.07192      2059.755       43669.391     -5722.9771     -272.88797      1.0973339      41024.331    
     59700   303.35099      37314.378     -1970.7049     -488.03039      2016.6135      43668.84      -5643.8701     -268.47024      1.0984516      40982.587    
     59800   302.78692      37407.894     -2005.3279     -403.73349      2104.1524      43551.342     -5570.6761     -267.86282      1.0981311      40994.549    
     59900   295.75978      37234.994     -1988.9998     -553.57504      2038.4945      43634.886     -5629.156      -266.65593      1.0967871      41044.782    
     60000   295.18485      37123.175     -1947.6113     -640.01676      2106.5312      43463.884     -5591.1708     -268.44178      1.0940065      41149.107    
     60012   299.68472      37086.823     -1948.2671     -622.55558      2091.3769      43452.646     -5628.6944     -257.68302      1.0935205      41167.394    
Loop time of 1498.3 on 6 procs for 50000 steps with 3976 atoms

Performance: 2.883 ns/day, 8.324 hours/ns, 33.371 timesteps/s, 132.683 katom-step/s
99.7% CPU use with 6 MPI tasks x no OpenMP threads

MPI task timing breakdown:
Section |  min time  |  avg time  |  max time  |%varavg| %total
---------------------------------------------------------------
Pair    | 117.3      | 135.23     | 157.93     | 147.9 |  9.03
Bond    | 149.21     | 175.1      | 224.85     | 195.0 | 11.69
Neigh   | 28.268     | 31.64      | 35.061     |  57.5 |  2.11
Comm    | 685.67     | 753.01     | 786.84     | 134.9 | 50.26
Output  | 5.5821     | 5.6321     | 5.6709     |   1.4 |  0.38
Modify  | 324.59     | 335.05     | 347.81     |  41.8 | 22.36
Other   |            | 62.64      |            |       |  4.18

Nlocal:        662.667 ave         672 max         642 min
Histogram: 1 0 0 0 0 0 1 1 1 2
Nghost:        7637.33 ave        7682 max        7607 min
Histogram: 1 0 3 0 0 0 0 1 0 1
Neighs:         226714 ave      240687 max      203724 min
Histogram: 1 0 0 1 0 0 1 1 0 2

Total # of neighbors = 1360282
Ave neighs/atom = 342.12324
Ave special neighs/atom = 13.641348
Neighbor list builds = 1551
Dangerous builds = 0
unfix relax

molecule 	pre1 pre1
Read molecule template pre1:
  1 molecules
  0 fragments
  33 atoms with max type 7
  35 bonds with max type 13
  70 angles with max type 35
  112 dihedrals with max type 66
  44 impropers with max type 38
molecule	post1 post1
Read molecule template post1:
  1 molecules
  0 fragments
  33 atoms with max type 7
  35 bonds with max type 9
  70 angles with max type 33
  115 dihedrals with max type 67
  44 impropers with max type 31
molecule 	pre2 pre2
Read molecule template pre2:
  1 molecules
  0 fragments
  40 atoms with max type 7
  44 bonds with max type 13
  93 angles with max type 35
  162 dihedrals with max type 66
  60 impropers with max type 38
molecule	post2 post2
Read molecule template post2:
  1 molecules
  0 fragments
  40 atoms with max type 7
  44 bonds with max type 9
  93 angles with max type 33
  165 dihedrals with max type 67
  60 impropers with max type 31
molecule 	pre3 pre3
Read molecule template pre3:
  1 molecules
  0 fragments
  34 atoms with max type 7
  37 bonds with max type 9
  76 angles with max type 33
  126 dihedrals with max type 61
  48 impropers with max type 30
molecule	post3 post3
Read molecule template post3:
  1 molecules
  0 fragments
  34 atoms with max type 7
  37 bonds with max type 9
  76 angles with max type 33
  129 dihedrals with max type 67
  48 impropers with max type 31
molecule 	pre4 pre4
Read molecule template pre4:
  1 molecules
  0 fragments
  32 atoms with max type 7
  34 bonds with max type 9
  69 angles with max type 33
  111 dihedrals with max type 61
  44 impropers with max type 30
molecule	post4 post4
Read molecule template post4:
  1 molecules
  0 fragments
  32 atoms with max type 7
  34 bonds with max type 9
  69 angles with max type 33
  114 dihedrals with max type 67
  44 impropers with max type 31

fix		fxrct all bond/react stabilization yes statted_grp .03 		 react rxn1 all 100 0.0 4.0 pre1 post1 semi.map1 stabilize_steps 10 molecule inter 		 react rxn2 all 100 0.0 4.0 pre2 post2 semi.map2 stabilize_steps 10 molecule inter 		 react rxn2 all 100 0.0 4.0 pre3 post3 semi.map3 stabilize_steps 10 molecule inter 		 react rxn2 all 100 0.0 4.0 pre4 post4 semi.map4 stabilize_steps 10 molecule inter
dynamic group bond_react_MASTER_group defined
dynamic group statted_grp_REACT defined
fix 		npt statted_grp_REACT npt temp 500.0 500.0 100 iso 1.0 1.0 1000
fix 		reacted bond_react_MASTER_group temp/rescale 1 300.0 300.0 1 1

fix 		moveLimit all nve/limit 0.1

thermo_style custom step temp pe evdwl ecoul ebond eangle edihed eimp density vol f_fxrct[*]
thermo     100


compute 1 all property/local btype batom1 batom2

dump DumpPos all custom 1000 dump.pos id type x y z mol
dump DumpBond all local 1000 bonds.dump index c_1[*]

run 500000

CITE-CITE-CITE-CITE-CITE-CITE-CITE-CITE-CITE-CITE-CITE-CITE-CITE

Your simulation uses code contributions which should be cited:

- fix bond/react: reacter.org doi:10.1016/j.polymer.2017.09.038, doi:10.1021/acs.macromol.0c02012

@Article{Gissinger17,
 author = {J. R. Gissinger and B. D. Jensen and K. E. Wise},
 title = {Modeling Chemical Reactions in Classical Molecular Dynamics Simulations},
 journal = {Polymer},
 year =    2017,
 volume =  128,
 pages =   {211--217}
}

@Article{Gissinger20,
 author = {J. R. Gissinger, B. D. Jensen, K. E. Wise},
 title = {{REACTER}: A Heuristic Method for Reactive Molecular Dynamics},
 journal = {Macromolecules},
 year =    2020,
 volume =  53,
 number =  22,
 pages =   {9953--9961}
}

CITE-CITE-CITE-CITE-CITE-CITE-CITE-CITE-CITE-CITE-CITE-CITE-CITE

Generated 28 of 28 mixed pair_coeff terms from sixthpower/geometric mixing rule
Neighbor list info ...
  update: every = 1 steps, delay = 0 steps, check = yes
  max neighbors/atom: 2000, page size: 100000
  master list distance cutoff = 12
  ghost atom cutoff = 12
  binsize = 6, bins = 6 6 6
  2 neighbor lists, perpetual/occasional/extra = 1 1 0
  (1) pair lj/class2/coul/cut, perpetual
      attributes: half, newton on
      pair build: half/bin/newton
      stencil: half/bin/3d
      bin: standard
  (2) fix bond/react, occasional, copy from (1)
      attributes: half, newton on
      pair build: copy
      stencil: none
      bin: none
Per MPI rank memory allocation (min/avg/max) = 31.76 | 31.78 | 31.78 Mbytes
   Step          Temp          PotEng         E_vdwl         E_coul         E_bond        E_angle        E_dihed        E_impro        Density         Volume       f_fxrct[1]     f_fxrct[2]     f_fxrct[3]     f_fxrct[4]  
     60012   299.68472      37086.823     -1948.2671     -622.55558      2091.3769      43452.646     -5628.6944     -257.68302      1.0935205      41167.394      0              0              0              0            
     60100   1887.3782      234120.72      8292.9673     -551.29491      184558.78      47136.553     -5015.8186     -300.46135      1.0908973      41266.384      0              0              0              2            
     60200   4191.3227      305705.66     -759.44199     -543.91148      260360.43      51086.902     -4016.4279     -421.8985       1.1317028      39778.456      0              0              0              3            
     60300   5964.6264      103735.45     -1222.718      -556.76594      54347.754      55431.904     -3780.0473     -484.67786      1.1767267      38256.452      0              0              0              3            
     60400   6288.4253      106275.58     -1388.1489     -500.06024      56268.164      56025.512     -3639.127      -490.75997      1.1604543      38792.902      0              0              0              3            
     60500   5952.3019      105431.39     -1312.0568     -368.82311      54963.006      56068.323     -3431.8251     -487.23055      1.1346484      39675.189      0              0              0              3            
     60600   6073.6997      103998.51     -1361.2569     -499.83373      54210.423      56046.163     -3929.8437     -467.14604      1.1153995      40359.88       0              0              0              3            
     60700   5873.9326      105909.3      -1416.3403     -576.8836       56725.705      55338.054     -3668.6611     -492.57336      1.1015432      40867.566      0              0              0              3            
     60800   5977.8287      102623.04     -1494.105      -469.14433      53153.374      55041.461     -3149.8096     -458.74047      1.0912745      41252.122      0              0              0              3            
     60900   5847.7793      103704.43     -1396.17       -484.03983      55115.072      54654.38      -3664.8548     -519.96143      1.0833219      41554.951      0              0              0              3            
     61000   5793.6008      103076.8      -1259.3173     -507.62431      54248.349      54816.182     -3726.6148     -494.17752      1.0761325      41832.571      0              0              0              3            
     61100   5747.5886      99798.052     -1392.9005     -467.73321      52467.27       53685.351     -4002.5917     -491.34303      1.0680978      42147.255      0              0              0              3            
     61200   5480.9869      103980.45     -1399.0516     -331.10922      56372.13       53957.983     -4087.1713     -532.33582      1.0590822      42506.037      0              0              0              3            
     61300   6040.51        100390.93     -1264.4093     -427.8297       53533.194      53421.216     -4353.8962     -517.34195      1.0494652      42895.552      0              0              0              3            
     61400   5705.3724      102048.5      -1295.1819     -469.74626      55070.996      53310.134     -4082.2009     -485.50167      1.0400765      43282.768      0              0              0              3            
     61500   5852.9006      99887.418     -1300.4065     -481.47351      53009.733      53499.295     -4338.4251     -501.30493      1.0307022      43676.427      0              0              0              3            
     61600   5424.8679      103852.64     -1356.6874     -527.07618      56512.248      54158.329     -4446.8441     -487.33013      1.0216849      44061.911      0              0              0              3            
     61700   5919.8613      97245.815     -1286.8732     -344.33654      50846.615      53034.614     -4494.7536     -509.4506       1.0135408      44415.962      0              0              0              3            
     61800   5841.7774      97604.097     -1264.891      -416.9393       51360.094      52405.775     -3967.4908     -512.45135      1.0063451      44733.55       0              0              0              3            
     61900   5960.1354      98439.444     -1287.2953     -412.87445      52097.179      52251.338     -3682.7499     -526.153        0.99901257     45061.884      0              0              0              3            
     62000   5420.4635      102099.97     -1207.4267     -315.3353       55868.15       52290.532     -4056.0476     -479.90397      0.99264837     45350.791      0              0              0              3            
     62100   5571.2682      100639.12     -1266.1795     -381.7919       54938.178      52179.291     -4344.3437     -486.03129      0.98591885     45660.339      0              0              0              3            
     62200   5465.5505      98371.785     -1253.9477     -293.43349      52453.681      52393.763     -4419.0064     -509.27143      0.97881165     45991.881      0              0              0              3            
     62300   5305.487       96363.473     -1203.4295     -321.99577      51147.599      51297.724     -4051.3519     -505.07312      0.97174077     46326.541      0              0              0              3            
     62400   5773.4687      92931.387     -1186.7916     -333.42881      47648.562      51565.587     -4236.3694     -526.17116      0.96413769     46691.867      0              0              0              3            
     62500   5579.2233      94908.547     -1171.8481     -195.39184      50217.792      51490.445     -4916.8778     -515.57246      0.95655788     47061.856      0              0              0              3            
     62600   5607.6395      92893.398     -1134.0831     -151.01605      48103.241      50955.277     -4390.3948     -489.62595      0.94863955     47454.683      0              0              0              3            
     62700   5398.2867      95381.206     -1198.9117     -182.96807      49969.478      51679.785     -4384.6645     -501.51288      0.93991344     47895.25       0              0              0              3            
     62800   5479.4117      95165.226     -1123.6348     -329.71968      50319.463      51009.065     -4224.8581     -485.08953      0.93152853     48326.366      0              0              0              3            
     62900   5426.8389      93284.078     -1097.2266     -264.93235      48914.404      50690.425     -4446.6379     -511.95461      0.92399262     48720.507      0              0              0              3            
     63000   5163.5772      98172.091     -1049.7387     -282.64253      53791.629      51004.771     -4790.295      -501.63321      0.91664271     49111.162      0              0              0              3            
     63100   5158.8555      95336.548     -1054.4494     -155.69812      50503.294      51397.391     -4835.6622     -518.32668      0.90876402     49536.94       0              0              0              3            
     63200   5012.9249      96826.107     -1114.6861     -323.90334      52321.956      51381.602     -4954.2372     -484.62337      0.90242846     49884.717      0              0              0              3            
     63300   5391.7572      90629.21      -1103.5857     -325.65012      46593.673      50753.973     -4806.1372     -483.06349      0.89714765     50178.35       0              0              0              3            
     63400   5068.3428      93931.712     -1077.0351     -319.59994      49408.017      50652.277     -4231.9363     -500.01023      0.8925342      50437.718      0              0              0              3            
     63500   5013.1819      95752.328     -1032.5091     -285.63928      51676.922      50650.717     -4755.289      -501.87413      0.88791256     50700.25       0              0              0              3            
     63600   5108.1737      94129.312     -1025.2306     -358.84543      50318.011      50226.572     -4519.8202     -511.37568      0.88328734     50965.735      0              0              0              3            
     63700   5208.6381      90927.832     -1033.2493     -461.181        47539.707      50138.745     -4741.7639     -514.42541      0.87801162     51271.974      0              0              0              3            
     63800   5208.8419      90354.274     -1050.9469     -447.53124      46663.291      50310.555     -4624.1076     -496.98622      0.87222734     51611.99       0              0              0              3            
     63900   4943.6696      91916.931     -953.97344     -413.22428      48452.066      50193.47      -4864.1336     -497.27394      0.86644176     51956.624      0              0              0              3            
     64000   5197.8067      90470.474     -1014.8616     -461.48935      47223.051      49694.28      -4492.084      -478.42192      0.86103461     52282.903      0              0              0              3            
     64100   5004.3597      91104.496     -998.60962     -409.66128      47402.418      50116.875     -4509.8727     -496.65347      0.85625891     52574.505      0              0              0              3            
     64200   5004.3318      90150.755     -1081.6689     -345.68411      46813.032      49839.993     -4622.9212     -451.99547      0.85118135     52888.128      0              0              0              3            
     64300   4756.6113      185237.16      10372.334     -348.28673      130274.37      50348.627     -4915.9253     -493.95657      0.84548304     53244.579      0              0              0              4            
     64400   4938.0373      88369.543     -1026.086      -323.9222       45219.934      49937.225     -4937.0438     -500.56437      0.85969321     52364.481      0              0              0              4            
     64500   4562.652       88906.783     -1002.6705     -486.74672      46039.935      49646.056     -4796.6492     -493.14197      0.86079087     52297.707      0              0              0              4            
     64600   4784.6673      87944.26      -1036.4164     -327.31578      45185.673      49386.878     -4774.1692     -490.38967      0.8564396      52563.413      0              0              0              4            
     64700   4557.1947      89910.277     -1054.2385     -333.37901      46948.121      49382.103     -4565.0379     -467.29099      0.85073288     52916.009      0              0              0              4            
     64800   4546.0509      88196.717     -986.22968     -243.17056      45243.941      49383.732     -4716.6674     -484.88864      0.84493903     53278.861      0              0              0              4            
     64900   4557.0842      88096.236     -980.53357     -397.00633      45213.787      49091.441     -4364.3373     -467.11437      0.83858123     53682.801      0              0              0              4            
     65000   4410.8881      87087.738     -1035.2468     -299.49374      43892.209      49727.721     -4739.3604     -458.09131      0.83194355     54111.11       0              0              0              4            
     65100   4544.8263      83738.324     -965.45359     -372.24252      41026.697      49082.177     -4600.2763     -432.57793      0.82550307     54533.279      0              0              0              4            
     65200   4404.8231      85127.781     -996.59134     -471.31993      42717.035      49387.937     -5037.8048     -471.47442      0.81901375     54965.364      0              0              0              4            
     65300   4294.1304      87240.654     -903.25212     -355.71688      44514.488      49277.125     -4805.1894