LAMMPS (22 Dec 2022)
WARNING: Using I/O redirection is unreliable with parallel runs. Better to use the -in switch to read input files. (../lammps.cpp:531)
# PREREQUISITES:
#
#     You must use moltemplate.sh to create 3 files:
#        system.data  system.in.init  system.in.settings
#     (Follow the instructions in README_setup.sh,
#      or run the file as a script using ./README_setup.sh)

# ------------------------------- Initialization Section --------------------

units real
atom_style full
pair_style lj/class2/coul/long 10.0 10.0
kspace_style pppm 1.0e-4
bond_style class2
angle_style class2
dihedral_style class2
improper_style class2


# ------------------------------- Atom Definition Section -------------------

read_data       "reaxed.data" extra/bond/per/atom 1
Reading data file ...
  orthogonal box = (5.3835842 5.3835842 5.3835842) to (37.478536 37.478536 37.478536)
  1 by 2 by 3 MPI processor grid
  reading atoms ...
  2996 atoms
  reading velocities ...
  2996 velocities
  scanning bonds ...
  5 = max bonds/atom
  scanning angles ...
  6 = max angles/atom
  scanning dihedrals ...
  14 = max dihedrals/atom
  scanning impropers ...
  4 = max impropers/atom
  reading bonds ...
  3131 bonds
  reading angles ...
  5396 angles
  reading dihedrals ...
  7142 dihedrals
  reading impropers ...
  2556 impropers
Finding 1-2 1-3 1-4 neighbors ...
  special bond factors lj:    0        0        0       
  special bond factors coul:  0        0        0       
     4 = max # of 1-2 neighbors
     7 = max # of 1-3 neighbors
    15 = max # of 1-4 neighbors
    17 = max # of special neighbors
  special bonds CPU = 0.001 seconds
  read_data CPU = 0.047 seconds

include calc.pram

# Masses

mass		1    12.01115  # c
mass		2    12.01115  # c1
mass		3    12.01115  # c3h
mass		4    12.01115  # cp
mass		5     1.00797  # h
mass		6     1.00797  # hc
mass		7    15.99940  # o3e
mass		8    15.99940  # oc
mass		9    15.99940  # oh

# Potentials

pair_coeff	 1  1    0.05400    4.01000  # c,c
pair_coeff	 2  2    0.05400    4.01000  # c1,c1
pair_coeff	 3  3    0.05400    4.01000  # c3h,c3h
pair_coeff	 4  4    0.06400    4.01000  # cp,cp
pair_coeff	 5  5    0.02000    2.99500  # h,h
pair_coeff	 6  6    0.02000    2.99500  # hc,hc
pair_coeff	 7  7    0.24000    3.53500  # o3e,o3e
pair_coeff	 8  8    0.24000    3.53500  # oc,oc
pair_coeff	 9  9    0.24000    3.53500  # oh,oh

# Bond Coeffs

bond_coeff	 1    1.53000  299.67000 -501.77000  679.81000  # c,c
bond_coeff	 2    1.53000  299.67000 -501.77000  679.81000  # c,c1
bond_coeff	 3    1.53000  299.67000 -501.77000  679.81000  # c,c3h
bond_coeff	 4    1.10100  345.00000 -691.89000  844.60000  # c,hc
bond_coeff	 5    1.42000  400.39540 -835.19510 1313.01420  # c,o3e
bond_coeff	 6    1.42000  400.39540 -835.19510 1313.01420  # c,oc
bond_coeff	 7    1.42000  400.39540 -835.19510 1313.01420  # c,oh
bond_coeff	 8    1.10100  345.00000 -691.89000  844.60000  # c1,hc
bond_coeff	 9    1.42000  400.39540 -835.19510 1313.01420  # c1,oc
bond_coeff	10    1.10100  345.00000 -691.89000  844.60000  # c3h,hc
bond_coeff	11    1.42000  400.39540 -835.19510 1313.01420  # c3h,o3e
bond_coeff	12    1.41700  470.83610 -627.61790 1327.63450  # cp,cp
bond_coeff	13    1.09820  372.82510 -803.45260  894.31730  # cp,hc
bond_coeff	14    1.37680  428.87980 -738.23510 1114.96550  # cp,oc
bond_coeff	15    0.96000  493.84800    0.00000    0.00000  # h,oh

# Angle Coeffs

angle_coeff	 1  112.67000   39.51600   -7.44300   -9.55830  # c,c,c
angle_coeff	 2  110.77000   41.45300  -10.60400    5.12900  # c,c,hc
angle_coeff	 3  111.27000   54.53810   -8.36420  -13.08380  # c,c,oc
angle_coeff	 4  112.67000   39.51600   -7.44300   -9.55830  # c,c1,c
angle_coeff	 5  110.77000   41.45300  -10.60400    5.12900  # c,c1,hc
angle_coeff	 6  111.27000   54.53810   -8.36420  -13.08380  # c,c1,oc
angle_coeff	 7  112.67000   39.51600   -7.44300   -9.55830  # c,c3h,c
angle_coeff	 8  110.77000   41.45300  -10.60400    5.12900  # c,c3h,hc
angle_coeff	 9  111.27000   54.53810   -8.36420  -13.08380  # c,c3h,o3e
angle_coeff	10  104.50000   35.74540  -10.00670   -6.27290  # c,o3e,c3h
angle_coeff	11  104.50000   35.74540  -10.00670   -6.27290  # c,oc,c1
angle_coeff	12  102.96950   38.97390   -6.25950   -8.17100  # c,oc,cp
angle_coeff	13  109.00000   58.50000    0.00000    0.00000  # c,oh,h
angle_coeff	14  110.77000   41.45300  -10.60400    5.12900  # c1,c,hc
angle_coeff	15  111.27000   54.53810   -8.36420  -13.08380  # c1,c,oc
angle_coeff	16  111.27000   54.53810   -8.36420  -13.08380  # c1,c,oh
angle_coeff	17  110.77000   41.45300  -10.60400    5.12900  # c3h,c,hc
angle_coeff	18  111.27000   54.53810   -8.36420  -13.08380  # c3h,c,o3e
angle_coeff	19  111.27000   54.53810   -8.36420  -13.08380  # c3h,c,oc
angle_coeff	20  118.90000   61.02260  -34.99310    0.00000  # cp,cp,cp
angle_coeff	21  117.94000   35.15580  -12.46820    0.00000  # cp,cp,hc
angle_coeff	22  123.42000   73.67810  -21.67870    0.00000  # cp,cp,oc
angle_coeff	23  107.66000   39.64100  -12.92100   -2.43180  # hc,c,hc
angle_coeff	24  108.72800   58.54460  -10.80880  -12.40060  # hc,c,o3e
angle_coeff	25  108.72800   58.54460  -10.80880  -12.40060  # hc,c,oc
angle_coeff	26  108.72800   58.54460  -10.80880  -12.40060  # hc,c,oh
angle_coeff	27  108.72800   58.54460  -10.80880  -12.40060  # hc,c1,oc
angle_coeff	28  108.72800   58.54460  -10.80880  -12.40060  # hc,c3h,o3e

# BondBond Coeffs

angle_coeff	 1 bb    0.00000    1.53000    1.53000  # c,c,c
angle_coeff	 2 bb    3.38720    1.53000    1.10100  # c,c,hc
angle_coeff	 3 bb   11.43180    1.53000    1.42000  # c,c,oc
angle_coeff	 4 bb    0.00000    1.53000    1.53000  # c,c1,c
angle_coeff	 5 bb    3.38720    1.53000    1.10100  # c,c1,hc
angle_coeff	 6 bb   11.43180    1.53000    1.42000  # c,c1,oc
angle_coeff	 7 bb    0.00000    1.53000    1.53000  # c,c3h,c
angle_coeff	 8 bb    3.38720    1.53000    1.10100  # c,c3h,hc
angle_coeff	 9 bb   11.43180    1.53000    1.42000  # c,c3h,o3e
angle_coeff	10 bb   -7.11310    1.42000    1.42000  # c,o3e,c3h
angle_coeff	11 bb   -7.11310    1.42000    1.42000  # c,oc,c1
angle_coeff	12 bb    0.00000    1.42000    1.37680  # c,oc,cp
angle_coeff	13 bb    0.00000    1.42000    0.96000  # c,oh,h
angle_coeff	14 bb    3.38720    1.53000    1.10100  # c1,c,hc
angle_coeff	15 bb   11.43180    1.53000    1.42000  # c1,c,oc
angle_coeff	16 bb   11.43180    1.53000    1.42000  # c1,c,oh
angle_coeff	17 bb    3.38720    1.53000    1.10100  # c3h,c,hc
angle_coeff	18 bb   11.43180    1.53000    1.42000  # c3h,c,o3e
angle_coeff	19 bb   11.43180    1.53000    1.42000  # c3h,c,oc
angle_coeff	20 bb   68.28560    1.41700    1.41700  # cp,cp,cp
angle_coeff	21 bb    1.07950    1.41700    1.09820  # cp,cp,hc
angle_coeff	22 bb   48.47540    1.41700    1.37680  # cp,cp,oc
angle_coeff	23 bb    5.33160    1.10100    1.10100  # hc,c,hc
angle_coeff	24 bb   23.19790    1.10100    1.42000  # hc,c,o3e
angle_coeff	25 bb   23.19790    1.10100    1.42000  # hc,c,oc
angle_coeff	26 bb   23.19790    1.10100    1.42000  # hc,c,oh
angle_coeff	27 bb   23.19790    1.10100    1.42000  # hc,c1,oc
angle_coeff	28 bb   23.19790    1.10100    1.42000  # hc,c3h,o3e

# BondAngle Coeffs

angle_coeff	 1 ba    8.01600    8.01600    1.53000    1.53000  # c,c,c
angle_coeff	 2 ba   20.75400   11.42100    1.53000    1.10100  # c,c,hc
angle_coeff	 3 ba   20.40330    2.68680    1.53000    1.42000  # c,c,oc
angle_coeff	 4 ba    8.01600    8.01600    1.53000    1.53000  # c,c1,c
angle_coeff	 5 ba   20.75400   11.42100    1.53000    1.10100  # c,c1,hc
angle_coeff	 6 ba   20.40330    2.68680    1.53000    1.42000  # c,c1,oc
angle_coeff	 7 ba    8.01600    8.01600    1.53000    1.53000  # c,c3h,c
angle_coeff	 8 ba   20.75400   11.42100    1.53000    1.10100  # c,c3h,hc
angle_coeff	 9 ba    2.68680   20.40330    1.53000    1.42000  # c,c3h,o3e
angle_coeff	10 ba   -2.81120   -2.81120    1.42000    1.42000  # c,o3e,c3h
angle_coeff	11 ba   -2.81120   -2.81120    1.42000    1.42000  # c,oc,c1
angle_coeff	12 ba    0.00000    0.00000    1.42000    1.37680  # c,oc,cp
angle_coeff	13 ba    0.00000    0.00000    1.42000    0.96000  # c,oh,h
angle_coeff	14 ba   11.42100   20.75400    1.53000    1.10100  # c1,c,hc
angle_coeff	15 ba   20.40330    2.68680    1.53000    1.42000  # c1,c,oc
angle_coeff	16 ba   20.40330    2.68680    1.53000    1.42000  # c1,c,oh
angle_coeff	17 ba   11.42100   20.75400    1.53000    1.10100  # c3h,c,hc
angle_coeff	18 ba    2.68680   20.40330    1.53000    1.42000  # c3h,c,o3e
angle_coeff	19 ba   20.40330    2.68680    1.53000    1.42000  # c3h,c,oc
angle_coeff	20 ba   28.87080   28.87080    1.41700    1.41700  # cp,cp,cp
angle_coeff	21 ba   20.00330   24.21830    1.41700    1.09820  # cp,cp,hc
angle_coeff	22 ba   58.47900  107.68060    1.41700    1.37680  # cp,cp,oc
angle_coeff	23 ba   18.10300   18.10300    1.10100    1.10100  # hc,c,hc
angle_coeff	24 ba    4.61890   55.32700    1.10100    1.42000  # hc,c,o3e
angle_coeff	25 ba   55.32700    4.61890    1.10100    1.42000  # hc,c,oc
angle_coeff	26 ba    4.61890   55.32700    1.10100    1.42000  # hc,c,oh
angle_coeff	27 ba   55.32700    4.61890    1.10100    1.42000  # hc,c1,oc
angle_coeff	28 ba    4.61890   55.32700    1.10100    1.42000  # hc,c3h,o3e

# Dihedral Coeffs

dihedral_coeff	 1    0.00000    0.00000    0.03160    0.00000   -0.16810    0.00000  # c,c,c,hc
dihedral_coeff	 2    0.71370    0.00000    0.26600    0.00000   -0.25450    0.00000  # c,c,c,oc
dihedral_coeff	 3   -0.52030    0.00000   -0.30280    0.00000   -0.34500    0.00000  # c,c,oc,c1
dihedral_coeff	 4    0.00000    0.00000    0.00000    0.00000    0.13000  180.00000  # c,c,oc,cp
dihedral_coeff	 5    0.00000    0.00000    0.03160    0.00000   -0.16810    0.00000  # c,c1,c,hc
dihedral_coeff	 6    0.71370    0.00000    0.26600    0.00000   -0.25450    0.00000  # c,c1,c,oc
dihedral_coeff	 7    0.71370    0.00000    0.26600    0.00000   -0.25450    0.00000  # c,c1,c,oh
dihedral_coeff	 8   -0.52030    0.00000   -0.30280    0.00000   -0.34500    0.00000  # c,c1,oc,c
dihedral_coeff	 9    0.00000    0.00000    0.03160    0.00000   -0.16810    0.00000  # c,c3h,c,hc
dihedral_coeff	10    0.71370    0.00000    0.26600    0.00000   -0.25450    0.00000  # c,c3h,c,o3e
dihedral_coeff	11    0.71370    0.00000    0.26600    0.00000   -0.25450    0.00000  # c,c3h,c,oc
dihedral_coeff	12   -0.52030    0.00000   -0.30280    0.00000   -0.34500    0.00000  # c,c3h,o3e,c
dihedral_coeff	13    0.53020    0.00000    0.00000    0.00000   -0.39660    0.00000  # c,o3e,c3h,hc
dihedral_coeff	14    0.53020    0.00000    0.00000    0.00000   -0.39660    0.00000  # c,oc,c1,hc
dihedral_coeff	15    0.00000    0.00000    1.50000    0.00000    0.00000    0.00000  # c,oc,cp,cp
dihedral_coeff	16   -0.52030    0.00000   -0.30280    0.00000   -0.34500    0.00000  # c1,c,oc,c1
dihedral_coeff	17    0.00000    0.00000    0.00000    0.00000    0.13000  180.00000  # c1,c,oc,cp
dihedral_coeff	18    0.00000    0.00000    0.00000    0.00000    0.13000  180.00000  # c1,c,oh,h
dihedral_coeff	19    0.53020    0.00000    0.00000    0.00000   -0.39660    0.00000  # c1,oc,c,hc
dihedral_coeff	20    0.00000    0.00000    0.00000    0.00000    0.13000  180.00000  # c3h,c,oc,cp
dihedral_coeff	21    0.53020    0.00000    0.00000    0.00000   -0.39660    0.00000  # c3h,o3e,c,hc
dihedral_coeff	22    8.36670    0.00000    1.19320    0.00000    0.00000    0.00000  # cp,cp,cp,cp
dihedral_coeff	23    0.00000    0.00000    3.96610    0.00000    0.00000    0.00000  # cp,cp,cp,hc
dihedral_coeff	24    0.00000    0.00000    4.84980    0.00000    0.00000    0.00000  # cp,cp,cp,oc
dihedral_coeff	25    0.95130    0.00000    0.11550    0.00000    0.07200    0.00000  # cp,oc,c,hc
dihedral_coeff	26    0.00000    0.00000    0.00000    0.00000    0.13000  180.00000  # h,oh,c,hc
dihedral_coeff	27   -0.14320    0.00000    0.06170    0.00000   -0.10830    0.00000  # hc,c,c,hc
dihedral_coeff	28   -0.14350    0.00000    0.25300    0.00000   -0.09050    0.00000  # hc,c,c,oc
dihedral_coeff	29   -0.14320    0.00000    0.06170    0.00000   -0.10830    0.00000  # hc,c,c1,hc
dihedral_coeff	30   -0.14350    0.00000    0.25300    0.00000   -0.09050    0.00000  # hc,c,c1,oc
dihedral_coeff	31   -0.14320    0.00000    0.06170    0.00000   -0.10830    0.00000  # hc,c,c3h,hc
dihedral_coeff	32   -0.14350    0.00000    0.25300    0.00000   -0.09050    0.00000  # hc,c,c3h,o3e
dihedral_coeff	33   -0.14350    0.00000    0.25300    0.00000   -0.09050    0.00000  # hc,c1,c,oc
dihedral_coeff	34   -0.14350    0.00000    0.25300    0.00000   -0.09050    0.00000  # hc,c1,c,oh
dihedral_coeff	35   -0.14350    0.00000    0.25300    0.00000   -0.09050    0.00000  # hc,c3h,c,o3e
dihedral_coeff	36   -0.14350    0.00000    0.25300    0.00000   -0.09050    0.00000  # hc,c3h,c,oc
dihedral_coeff	37    0.00000    0.00000    1.87690    0.00000    0.00000    0.00000  # hc,cp,cp,hc
dihedral_coeff	38    0.00000    0.00000    1.72340    0.00000    0.00000    0.00000  # hc,cp,cp,oc
dihedral_coeff	39   -0.18200    0.00000   -0.10840    0.00000   -0.70470    0.00000  # o3e,c3h,c,oc
dihedral_coeff	40   -0.18200    0.00000   -0.10840    0.00000   -0.70470    0.00000  # oc,c,c1,oc
dihedral_coeff	41   -0.18200    0.00000   -0.10840    0.00000   -0.70470    0.00000  # oc,c1,c,oh

# MiddleBondTorsion Coeffs

dihedral_coeff	 1 mbt  -14.87900   -3.65810   -0.31380    1.53000  # c,c,c,hc
dihedral_coeff	 2 mbt  -21.88420   -7.67640   -0.68680    1.53000  # c,c,c,oc
dihedral_coeff	 3 mbt   -5.92880   -2.70070   -0.31750    1.42000  # c,c,oc,c1
dihedral_coeff	 4 mbt    0.00000    0.00000    0.00000    1.42000  # c,c,oc,cp
dihedral_coeff	 5 mbt  -14.87900   -3.65810   -0.31380    1.53000  # c,c1,c,hc
dihedral_coeff	 6 mbt  -21.88420   -7.67640   -0.68680    1.53000  # c,c1,c,oc
dihedral_coeff	 7 mbt  -21.88420   -7.67640   -0.68680    1.53000  # c,c1,c,oh
dihedral_coeff	 8 mbt   -5.92880   -2.70070   -0.31750    1.42000  # c,c1,oc,c
dihedral_coeff	 9 mbt  -14.87900   -3.65810   -0.31380    1.53000  # c,c3h,c,hc
dihedral_coeff	10 mbt  -21.88420   -7.67640   -0.68680    1.53000  # c,c3h,c,o3e
dihedral_coeff	11 mbt  -21.88420   -7.67640   -0.68680    1.53000  # c,c3h,c,oc
dihedral_coeff	12 mbt   -5.92880   -2.70070   -0.31750    1.42000  # c,c3h,o3e,c
dihedral_coeff	13 mbt   -6.80070   -4.65460   -1.41010    1.42000  # c,o3e,c3h,hc
dihedral_coeff	14 mbt   -6.80070   -4.65460   -1.41010    1.42000  # c,oc,c1,hc
dihedral_coeff	15 mbt    0.00000    0.00000    0.00000    1.37680  # c,oc,cp,cp
dihedral_coeff	16 mbt   -5.92880   -2.70070   -0.31750    1.42000  # c1,c,oc,c1
dihedral_coeff	17 mbt    0.00000    0.00000    0.00000    1.42000  # c1,c,oc,cp
dihedral_coeff	18 mbt    0.00000    0.00000    0.00000    1.42000  # c1,c,oh,h
dihedral_coeff	19 mbt   -6.80070   -4.65460   -1.41010    1.42000  # c1,oc,c,hc
dihedral_coeff	20 mbt    0.00000    0.00000    0.00000    1.42000  # c3h,c,oc,cp
dihedral_coeff	21 mbt   -6.80070   -4.65460   -1.41010    1.42000  # c3h,o3e,c,hc
dihedral_coeff	22 mbt   27.59890   -2.31200    0.00000    1.41700  # cp,cp,cp,cp
dihedral_coeff	23 mbt    0.00000   -1.15210    0.00000    1.41700  # cp,cp,cp,hc
dihedral_coeff	24 mbt    0.00000    4.82550    0.00000    1.41700  # cp,cp,cp,oc
dihedral_coeff	25 mbt    0.00000    0.00000    0.00000    1.42000  # cp,oc,c,hc
dihedral_coeff	26 mbt    0.00000    0.00000    0.00000    1.42000  # h,oh,c,hc
dihedral_coeff	27 mbt  -14.26100   -0.53220   -0.48640    1.53000  # hc,c,c,hc
dihedral_coeff	28 mbt  -16.79750   -1.22960   -0.27500    1.53000  # hc,c,c,oc
dihedral_coeff	29 mbt  -14.26100   -0.53220   -0.48640    1.53000  # hc,c,c1,hc
dihedral_coeff	30 mbt  -16.79750   -1.22960   -0.27500    1.53000  # hc,c,c1,oc
dihedral_coeff	31 mbt  -14.26100   -0.53220   -0.48640    1.53000  # hc,c,c3h,hc
dihedral_coeff	32 mbt  -16.79750   -1.22960   -0.27500    1.53000  # hc,c,c3h,o3e
dihedral_coeff	33 mbt  -16.79750   -1.22960   -0.27500    1.53000  # hc,c1,c,oc
dihedral_coeff	34 mbt  -16.79750   -1.22960   -0.27500    1.53000  # hc,c1,c,oh
dihedral_coeff	35 mbt  -16.79750   -1.22960   -0.27500    1.53000  # hc,c3h,c,o3e
dihedral_coeff	36 mbt  -16.79750   -1.22960   -0.27500    1.53000  # hc,c3h,c,oc
dihedral_coeff	37 mbt    0.00000    4.82280    0.00000    1.41700  # hc,cp,cp,hc
dihedral_coeff	38 mbt    0.00000    5.54320    0.00000    1.41700  # hc,cp,cp,oc
dihedral_coeff	39 mbt  -17.25850   -3.61570   -0.83640    1.53000  # o3e,c3h,c,oc
dihedral_coeff	40 mbt  -17.25850   -3.61570   -0.83640    1.53000  # oc,c,c1,oc
dihedral_coeff	41 mbt  -17.25850   -3.61570   -0.83640    1.53000  # oc,c1,c,oh

# EndBondTorsion Coeffs

dihedral_coeff	 1 ebt    0.24860    0.24220   -0.09250    0.08140    0.05910    0.22190    1.53000    1.10100  # c,c,c,hc
dihedral_coeff	 2 ebt    1.15380    0.84090   -0.91380   -0.31900    0.44110   -0.71740    1.53000    1.42000  # c,c,c,oc
dihedral_coeff	 3 ebt   -0.24560    1.05170   -0.77950    0.47410    1.26350    0.55760    1.53000    1.42000  # c,c,oc,c1
dihedral_coeff	 4 ebt    0.00000    0.00000    0.00000    0.00000    0.00000    0.00000    1.53000    1.37680  # c,c,oc,cp
dihedral_coeff	 5 ebt    0.24860    0.24220   -0.09250    0.08140    0.05910    0.22190    1.53000    1.10100  # c,c1,c,hc
dihedral_coeff	 6 ebt    1.15380    0.84090   -0.91380   -0.31900    0.44110   -0.71740    1.53000    1.42000  # c,c1,c,oc
dihedral_coeff	 7 ebt   -0.31900    0.44110   -0.71740    1.15380    0.84090   -0.91380    1.53000    1.42000  # c,c1,c,oh
dihedral_coeff	 8 ebt    0.47410    1.26350    0.55760   -0.24560    1.05170   -0.77950    1.53000    1.42000  # c,c1,oc,c
dihedral_coeff	 9 ebt    0.24860    0.24220   -0.09250    0.08140    0.05910    0.22190    1.53000    1.10100  # c,c3h,c,hc
dihedral_coeff	10 ebt   -0.31900    0.44110   -0.71740    1.15380    0.84090   -0.91380    1.53000    1.42000  # c,c3h,c,o3e
dihedral_coeff	11 ebt    1.15380    0.84090   -0.91380   -0.31900    0.44110   -0.71740    1.53000    1.42000  # c,c3h,c,oc
dihedral_coeff	12 ebt   -0.24560    1.05170   -0.77950    0.47410    1.26350    0.55760    1.53000    1.42000  # c,c3h,o3e,c
dihedral_coeff	13 ebt   -0.16200    0.15640   -1.14080   -0.60540    1.33390    0.96480    1.42000    1.10100  # c,o3e,c3h,hc
dihedral_coeff	14 ebt   -0.16200    0.15640   -1.14080   -0.60540    1.33390    0.96480    1.42000    1.10100  # c,oc,c1,hc
dihedral_coeff	15 ebt    0.00000    0.00000    0.00000    0.00000    0.00000    0.00000    1.42000    1.41700  # c,oc,cp,cp
dihedral_coeff	16 ebt    0.47410    1.26350    0.55760   -0.24560    1.05170   -0.77950    1.53000    1.42000  # c1,c,oc,c1
dihedral_coeff	17 ebt    0.00000    0.00000    0.00000    0.00000    0.00000    0.00000    1.53000    1.37680  # c1,c,oc,cp
dihedral_coeff	18 ebt    0.00000    0.00000    0.00000    0.00000    0.00000    0.00000    1.53000    0.96000  # c1,c,oh,h
dihedral_coeff	19 ebt   -0.60540    1.33390    0.96480   -0.16200    0.15640   -1.14080    1.42000    1.10100  # c1,oc,c,hc
dihedral_coeff	20 ebt    0.00000    0.00000    0.00000    0.00000    0.00000    0.00000    1.53000    1.37680  # c3h,c,oc,cp
dihedral_coeff	21 ebt   -0.60540    1.33390    0.96480   -0.16200    0.15640   -1.14080    1.42000    1.10100  # c3h,o3e,c,hc
dihedral_coeff	22 ebt   -0.11850    6.32040    0.00000   -0.11850    6.32040    0.00000    1.41700    1.41700  # cp,cp,cp,cp
dihedral_coeff	23 ebt    0.00000   -6.89580    0.00000    0.00000   -0.46690    0.00000    1.41700    1.09820  # cp,cp,cp,hc
dihedral_coeff	24 ebt    0.00000    0.26550    0.00000    0.00000    4.89050    0.00000    1.41700    1.37680  # cp,cp,cp,oc
dihedral_coeff	25 ebt    0.00000    0.00000    0.00000    0.00000    0.00000    0.00000    1.37680    1.10100  # cp,oc,c,hc
dihedral_coeff	26 ebt    0.00000    0.00000    0.00000    0.00000    0.00000    0.00000    0.96000    1.10100  # h,oh,c,hc
dihedral_coeff	27 ebt    0.21300    0.31200    0.07770    0.21300    0.31200    0.07770    1.10100    1.10100  # hc,c,c,hc
dihedral_coeff	28 ebt    0.59030    0.66690    0.85840    0.96810    0.95510    0.04360    1.10100    1.42000  # hc,c,c,oc
dihedral_coeff	29 ebt    0.21300    0.31200    0.07770    0.21300    0.31200    0.07770    1.10100    1.10100  # hc,c,c1,hc
dihedral_coeff	30 ebt    0.59030    0.66690    0.85840    0.96810    0.95510    0.04360    1.10100    1.42000  # hc,c,c1,oc
dihedral_coeff	31 ebt    0.21300    0.31200    0.07770    0.21300    0.31200    0.07770    1.10100    1.10100  # hc,c,c3h,hc
dihedral_coeff	32 ebt    0.96810    0.95510    0.04360    0.59030    0.66690    0.85840    1.10100    1.42000  # hc,c,c3h,o3e
dihedral_coeff	33 ebt    0.59030    0.66690    0.85840    0.96810    0.95510    0.04360    1.10100    1.42000  # hc,c1,c,oc
dihedral_coeff	34 ebt    0.96810    0.95510    0.04360    0.59030    0.66690    0.85840    1.10100    1.42000  # hc,c1,c,oh
dihedral_coeff	35 ebt    0.96810    0.95510    0.04360    0.59030    0.66690    0.85840    1.10100    1.42000  # hc,c3h,c,o3e
dihedral_coeff	36 ebt    0.59030    0.66690    0.85840    0.96810    0.95510    0.04360    1.10100    1.42000  # hc,c3h,c,oc
dihedral_coeff	37 ebt    0.00000   -0.68900    0.00000    0.00000   -0.68900    0.00000    1.09820    1.09820  # hc,cp,cp,hc
dihedral_coeff	38 ebt    0.00000    4.26410    0.00000    0.00000   -1.58670    0.00000    1.09820    1.37680  # hc,cp,cp,oc
dihedral_coeff	39 ebt    1.01650    0.75530   -0.46090    1.01650    0.75530   -0.46090    1.42000    1.42000  # o3e,c3h,c,oc
dihedral_coeff	40 ebt    1.01650    0.75530   -0.46090    1.01650    0.75530   -0.46090    1.42000    1.42000  # oc,c,c1,oc
dihedral_coeff	41 ebt    1.01650    0.75530   -0.46090    1.01650    0.75530   -0.46090    1.42000    1.42000  # oc,c1,c,oh

# AngleTorsion Coeffs

dihedral_coeff	 1 at   -0.24540    0.00000   -0.11360    0.31130    0.45160   -0.19880  112.67000  110.77000  # c,c,c,hc
dihedral_coeff	 2 at    0.96720   -0.75660   -1.23310    0.56230   -0.30410   -0.40150  112.67000  111.27000  # c,c,c,oc
dihedral_coeff	 3 at   -2.74660    1.48770   -0.89550    0.56760    0.94500    0.07030  111.27000  104.50000  # c,c,oc,c1
dihedral_coeff	 4 at    0.00000    0.00000    0.00000    0.00000    0.00000    0.00000  111.27000  102.96950  # c,c,oc,cp
dihedral_coeff	 5 at   -0.24540    0.00000   -0.11360    0.31130    0.45160   -0.19880  112.67000  110.77000  # c,c1,c,hc
dihedral_coeff	 6 at    0.96720   -0.75660   -1.23310    0.56230   -0.30410   -0.40150  112.67000  111.27000  # c,c1,c,oc
dihedral_coeff	 7 at    0.56230   -0.30410   -0.40150    0.96720   -0.75660   -1.23310  112.67000  111.27000  # c,c1,c,oh
dihedral_coeff	 8 at    0.56760    0.94500    0.07030   -2.74660    1.48770   -0.89550  111.27000  104.50000  # c,c1,oc,c
dihedral_coeff	 9 at   -0.24540    0.00000   -0.11360    0.31130    0.45160   -0.19880  112.67000  110.77000  # c,c3h,c,hc
dihedral_coeff	10 at    0.56230   -0.30410   -0.40150    0.96720   -0.75660   -1.23310  112.67000  111.27000  # c,c3h,c,o3e
dihedral_coeff	11 at    0.96720   -0.75660   -1.23310    0.56230   -0.30410   -0.40150  112.67000  111.27000  # c,c3h,c,oc
dihedral_coeff	12 at   -2.74660    1.48770   -0.89550    0.56760    0.94500    0.07030  111.27000  104.50000  # c,c3h,o3e,c
dihedral_coeff	13 at   -0.77770    0.43400   -0.66530   -1.82340    1.63930    0.51440  104.50000  108.72800  # c,o3e,c3h,hc
dihedral_coeff	14 at   -0.77770    0.43400   -0.66530   -1.82340    1.63930    0.51440  104.50000  108.72800  # c,oc,c1,hc
dihedral_coeff	15 at    0.00000    0.00000    0.00000    0.00000    0.00000    0.00000  102.96950  123.42000  # c,oc,cp,cp
dihedral_coeff	16 at    0.56760    0.94500    0.07030   -2.74660    1.48770   -0.89550  111.27000  104.50000  # c1,c,oc,c1
dihedral_coeff	17 at    0.00000    0.00000    0.00000    0.00000    0.00000    0.00000  111.27000  102.96950  # c1,c,oc,cp
dihedral_coeff	18 at    0.00000    0.00000    0.00000    0.00000    0.00000    0.00000  111.27000  109.00000  # c1,c,oh,h
dihedral_coeff	19 at   -1.82340    1.63930    0.51440   -0.77770    0.43400   -0.66530  104.50000  108.72800  # c1,oc,c,hc
dihedral_coeff	20 at    0.00000    0.00000    0.00000    0.00000    0.00000    0.00000  111.27000  102.96950  # c3h,c,oc,cp
dihedral_coeff	21 at   -1.82340    1.63930    0.51440   -0.77770    0.43400   -0.66530  104.50000  108.72800  # c3h,o3e,c,hc
dihedral_coeff	22 at    1.97670    1.02390    0.00000    1.97670    1.02390    0.00000  118.90000  118.90000  # cp,cp,cp,cp
dihedral_coeff	23 at    0.00000    2.50140    0.00000    0.00000    2.71470    0.00000  118.90000  117.94000  # cp,cp,cp,hc
dihedral_coeff	24 at    0.00000   10.01550    0.00000    0.00000    1.74040    0.00000  118.90000  123.42000  # cp,cp,cp,oc
dihedral_coeff	25 at    0.00000    0.00000    0.00000    0.00000    0.00000    0.00000  102.96950  108.72800  # cp,oc,c,hc
dihedral_coeff	26 at    0.00000    0.00000    0.00000    0.00000    0.00000    0.00000  109.00000  108.72800  # h,oh,c,hc
dihedral_coeff	27 at   -0.80850    0.55690   -0.24660   -0.80850    0.55690   -0.24660  110.77000  110.77000  # hc,c,c,hc
dihedral_coeff	28 at   -0.18920    0.49180    0.72730    2.36680    2.49200   -1.01220  110.77000  111.27000  # hc,c,c,oc
dihedral_coeff	29 at   -0.80850    0.55690   -0.24660   -0.80850    0.55690   -0.24660  110.77000  110.77000  # hc,c,c1,hc
dihedral_coeff	30 at   -0.18920    0.49180    0.72730    2.36680    2.49200   -1.01220  110.77000  111.27000  # hc,c,c1,oc
dihedral_coeff	31 at   -0.80850    0.55690   -0.24660   -0.80850    0.55690   -0.24660  110.77000  110.77000  # hc,c,c3h,hc
dihedral_coeff	32 at    2.36680    2.49200   -1.01220   -0.18920    0.49180    0.72730  110.77000  111.27000  # hc,c,c3h,o3e
dihedral_coeff	33 at   -0.18920    0.49180    0.72730    2.36680    2.49200   -1.01220  110.77000  111.27000  # hc,c1,c,oc
dihedral_coeff	34 at    2.36680    2.49200   -1.01220   -0.18920    0.49180    0.72730  110.77000  111.27000  # hc,c1,c,oh
dihedral_coeff	35 at    2.36680    2.49200   -1.01220   -0.18920    0.49180    0.72730  110.77000  111.27000  # hc,c3h,c,o3e
dihedral_coeff	36 at   -0.18920    0.49180    0.72730    2.36680    2.49200   -1.01220  110.77000  111.27000  # hc,c3h,c,oc
dihedral_coeff	37 at    0.00000    2.45010    0.00000    0.00000    2.45010    0.00000  117.94000  117.94000  # hc,cp,cp,hc
dihedral_coeff	38 at    0.00000    2.57060    0.00000    0.00000    1.87290    0.00000  117.94000  123.42000  # hc,cp,cp,oc
dihedral_coeff	39 at    0.55110    0.97370   -0.66730    0.55110    0.97370   -0.66730  111.27000  111.27000  # o3e,c3h,c,oc
dihedral_coeff	40 at    0.55110    0.97370   -0.66730    0.55110    0.97370   -0.66730  111.27000  111.27000  # oc,c,c1,oc
dihedral_coeff	41 at    0.55110    0.97370   -0.66730    0.55110    0.97370   -0.66730  111.27000  111.27000  # oc,c1,c,oh

# AngleAngleTorsion Coeffs

dihedral_coeff	 1 aat  -16.16400  112.67000  110.77000  # c,c,c,hc
dihedral_coeff	 2 aat  -29.04200  112.67000  111.27000  # c,c,c,oc
dihedral_coeff	 3 aat  -19.00590  111.27000  104.50000  # c,c,oc,c1
dihedral_coeff	 4 aat    0.00000  111.27000  102.96950  # c,c,oc,cp
dihedral_coeff	 5 aat  -16.16400  112.67000  110.77000  # c,c1,c,hc
dihedral_coeff	 6 aat  -29.04200  112.67000  111.27000  # c,c1,c,oc
dihedral_coeff	 7 aat  -29.04200  112.67000  111.27000  # c,c1,c,oh
dihedral_coeff	 8 aat  -19.00590  111.27000  104.50000  # c,c1,oc,c
dihedral_coeff	 9 aat  -16.16400  112.67000  110.77000  # c,c3h,c,hc
dihedral_coeff	10 aat  -29.04200  112.67000  111.27000  # c,c3h,c,o3e
dihedral_coeff	11 aat  -29.04200  112.67000  111.27000  # c,c3h,c,oc
dihedral_coeff	12 aat  -19.00590  111.27000  104.50000  # c,c3h,o3e,c
dihedral_coeff	13 aat  -16.44380  104.50000  108.72800  # c,o3e,c3h,hc
dihedral_coeff	14 aat  -16.44380  104.50000  108.72800  # c,oc,c1,hc
dihedral_coeff	15 aat    0.00000  102.96950  123.42000  # c,oc,cp,cp
dihedral_coeff	16 aat  -19.00590  111.27000  104.50000  # c1,c,oc,c1
dihedral_coeff	17 aat    0.00000  111.27000  102.96950  # c1,c,oc,cp
dihedral_coeff	18 aat    0.00000  111.27000  109.00000  # c1,c,oh,h
dihedral_coeff	19 aat  -16.44380  104.50000  108.72800  # c1,oc,c,hc
dihedral_coeff	20 aat    0.00000  111.27000  102.96950  # c3h,c,oc,cp
dihedral_coeff	21 aat  -16.44380  104.50000  108.72800  # c3h,o3e,c,hc
dihedral_coeff	22 aat    0.00000  118.90000  118.90000  # cp,cp,cp,cp
dihedral_coeff	23 aat   -4.81410  118.90000  117.94000  # cp,cp,cp,hc
dihedral_coeff	24 aat  -21.02470  118.90000  123.42000  # cp,cp,cp,oc
dihedral_coeff	25 aat    0.00000  102.96950  108.72800  # cp,oc,c,hc
dihedral_coeff	26 aat    0.00000  109.00000  108.72800  # h,oh,c,hc
dihedral_coeff	27 aat  -12.56400  110.77000  110.77000  # hc,c,c,hc
dihedral_coeff	28 aat  -20.20060  110.77000  111.27000  # hc,c,c,oc
dihedral_coeff	29 aat  -12.56400  110.77000  110.77000  # hc,c,c1,hc
dihedral_coeff	30 aat  -20.20060  110.77000  111.27000  # hc,c,c1,oc
dihedral_coeff	31 aat  -12.56400  110.77000  110.77000  # hc,c,c3h,hc
dihedral_coeff	32 aat  -20.20060  110.77000  111.27000  # hc,c,c3h,o3e
dihedral_coeff	33 aat  -20.20060  110.77000  111.27000  # hc,c1,c,oc
dihedral_coeff	34 aat  -20.20060  110.77000  111.27000  # hc,c1,c,oh
dihedral_coeff	35 aat  -20.20060  110.77000  111.27000  # hc,c3h,c,o3e
dihedral_coeff	36 aat  -20.20060  110.77000  111.27000  # hc,c3h,c,oc
dihedral_coeff	37 aat    0.35980  117.94000  117.94000  # hc,cp,cp,hc
dihedral_coeff	38 aat    4.22960  117.94000  123.42000  # hc,cp,cp,oc
dihedral_coeff	39 aat  -14.04840  111.27000  111.27000  # o3e,c3h,c,oc
dihedral_coeff	40 aat  -14.04840  111.27000  111.27000  # oc,c,c1,oc
dihedral_coeff	41 aat  -14.04840  111.27000  111.27000  # oc,c1,c,oh

# BondBond13 Coeffs

dihedral_coeff	 1 bb13    0.00000    1.53000    1.10100  # c,c,c,hc
dihedral_coeff	 2 bb13    0.00000    1.53000    1.42000  # c,c,c,oc
dihedral_coeff	 3 bb13    0.00000    1.53000    1.42000  # c,c,oc,c1
dihedral_coeff	 4 bb13    0.00000    1.53000    1.37680  # c,c,oc,cp
dihedral_coeff	 5 bb13    0.00000    1.53000    1.10100  # c,c1,c,hc
dihedral_coeff	 6 bb13    0.00000    1.53000    1.42000  # c,c1,c,oc
dihedral_coeff	 7 bb13    0.00000    1.53000    1.42000  # c,c1,c,oh
dihedral_coeff	 8 bb13    0.00000    1.53000    1.42000  # c,c1,oc,c
dihedral_coeff	 9 bb13    0.00000    1.53000    1.10100  # c,c3h,c,hc
dihedral_coeff	10 bb13    0.00000    1.53000    1.42000  # c,c3h,c,o3e
dihedral_coeff	11 bb13    0.00000    1.53000    1.42000  # c,c3h,c,oc
dihedral_coeff	12 bb13    0.00000    1.53000    1.42000  # c,c3h,o3e,c
dihedral_coeff	13 bb13    0.00000    1.42000    1.10100  # c,o3e,c3h,hc
dihedral_coeff	14 bb13    0.00000    1.42000    1.10100  # c,oc,c1,hc
dihedral_coeff	15 bb13    0.00000    1.42000    1.41700  # c,oc,cp,cp
dihedral_coeff	16 bb13    0.00000    1.53000    1.42000  # c1,c,oc,c1
dihedral_coeff	17 bb13    0.00000    1.53000    1.37680  # c1,c,oc,cp
dihedral_coeff	18 bb13    0.00000    1.53000    0.96000  # c1,c,oh,h
dihedral_coeff	19 bb13    0.00000    1.42000    1.10100  # c1,oc,c,hc
dihedral_coeff	20 bb13    0.00000    1.53000    1.37680  # c3h,c,oc,cp
dihedral_coeff	21 bb13    0.00000    1.42000    1.10100  # c3h,o3e,c,hc
dihedral_coeff	22 bb13   53.00000    1.41700    1.41700  # cp,cp,cp,cp
dihedral_coeff	23 bb13   -6.27410    1.41700    1.09820  # cp,cp,cp,hc
dihedral_coeff	24 bb13   -2.24360    1.41700    1.37680  # cp,cp,cp,oc
dihedral_coeff	25 bb13    0.00000    1.37680    1.10100  # cp,oc,c,hc
dihedral_coeff	26 bb13    0.00000    0.96000    1.10100  # h,oh,c,hc
dihedral_coeff	27 bb13    0.00000    1.10100    1.10100  # hc,c,c,hc
dihedral_coeff	28 bb13    0.00000    1.10100    1.42000  # hc,c,c,oc
dihedral_coeff	29 bb13    0.00000    1.10100    1.10100  # hc,c,c1,hc
dihedral_coeff	30 bb13    0.00000    1.10100    1.42000  # hc,c,c1,oc
dihedral_coeff	31 bb13    0.00000    1.10100    1.10100  # hc,c,c3h,hc
dihedral_coeff	32 bb13    0.00000    1.10100    1.42000  # hc,c,c3h,o3e
dihedral_coeff	33 bb13    0.00000    1.10100    1.42000  # hc,c1,c,oc
dihedral_coeff	34 bb13    0.00000    1.10100    1.42000  # hc,c1,c,oh
dihedral_coeff	35 bb13    0.00000    1.10100    1.42000  # hc,c3h,c,o3e
dihedral_coeff	36 bb13    0.00000    1.10100    1.42000  # hc,c3h,c,oc
dihedral_coeff	37 bb13   -1.70770    1.09820    1.09820  # hc,cp,cp,hc
dihedral_coeff	38 bb13    2.05170    1.09820    1.37680  # hc,cp,cp,oc
dihedral_coeff	39 bb13    0.00000    1.42000    1.42000  # o3e,c3h,c,oc
dihedral_coeff	40 bb13    0.00000    1.42000    1.42000  # oc,c,c1,oc
dihedral_coeff	41 bb13    0.00000    1.42000    1.42000  # oc,c1,c,oh

# Improper Coeffs

improper_coeff	 1    0.00000    0.00000  # c,c,c,hc
improper_coeff	 2    0.00000    0.00000  # c,c,hc,hc
improper_coeff	 3    0.00000    0.00000  # c,c,hc,oc
improper_coeff	 4    0.00000    0.00000  # c,c,oc,hc
improper_coeff	 5    0.00000    0.00000  # c,c1,hc,hc
improper_coeff	 6    0.00000    0.00000  # c,c1,hc,oc
improper_coeff	 7    0.00000    0.00000  # c,c1,hc,oh
improper_coeff	 8    0.00000    0.00000  # c,c1,oc,hc
improper_coeff	 9    0.00000    0.00000  # c,c3h,hc,hc
improper_coeff	10    0.00000    0.00000  # c,c3h,hc,oc
improper_coeff	11    0.00000    0.00000  # c,c3h,o3e,hc
improper_coeff	12    0.00000    0.00000  # c,hc,hc,o3e
improper_coeff	13    0.00000    0.00000  # c,hc,hc,oc
improper_coeff	14    0.00000    0.00000  # c,hc,hc,oh
improper_coeff	15    0.00000    0.00000  # c1,c,c,hc
improper_coeff	16    0.00000    0.00000  # c1,c,c,oc
improper_coeff	17    0.00000    0.00000  # c1,c,oc,hc
improper_coeff	18    0.00000    0.00000  # c3h,c,c,hc
improper_coeff	19    0.00000    0.00000  # c3h,c,c,o3e
improper_coeff	20    0.00000    0.00000  # c3h,c,o3e,hc
improper_coeff	21    4.89120    0.00000  # cp,cp,cp,hc
improper_coeff	22   13.04210    0.00000  # cp,cp,cp,oc

# AngleAngle Coeffs

improper_coeff	 1 aa   -1.31990   -1.31990    0.11840  112.67000  110.77000  110.77000  # c,c,c,hc
improper_coeff	 2 aa    0.27380   -0.48250    0.27380  110.77000  110.77000  107.66000  # c,c,hc,hc
improper_coeff	 3 aa    0.00000    0.00000    0.16890  110.77000  111.27000  108.72800  # c,c,hc,oc
improper_coeff	 4 aa    0.16890    0.00000    0.00000  111.27000  110.77000  108.72800  # c,c,oc,hc
improper_coeff	 5 aa    0.00000   -0.48250    0.00000  110.77000  110.77000  107.66000  # c,c1,hc,hc
improper_coeff	 6 aa    0.00000    0.00000    0.00000  110.77000  111.27000  108.72800  # c,c1,hc,oc
improper_coeff	 7 aa    0.00000    2.59260    0.00000  110.77000  111.27000  108.72800  # c,c1,hc,oh
improper_coeff	 8 aa    0.00000    0.00000    0.00000  111.27000  110.77000  108.72800  # c,c1,oc,hc
improper_coeff	 9 aa    0.00000   -0.48250    0.00000  110.77000  110.77000  107.66000  # c,c3h,hc,hc
improper_coeff	10 aa    0.00000    0.00000    0.00000  110.77000  111.27000  108.72800  # c,c3h,hc,oc
improper_coeff	11 aa    0.00000    2.59260    3.91770  111.27000  110.77000  108.72800  # c,c3h,o3e,hc
improper_coeff	12 aa    2.42590    2.42590    2.12830  107.66000  108.72800  108.72800  # c,hc,hc,o3e
improper_coeff	13 aa    0.00000    0.00000    2.12830  107.66000  108.72800  108.72800  # c,hc,hc,oc
improper_coeff	14 aa    2.42590    2.42590    2.12830  107.66000  108.72800  108.72800  # c,hc,hc,oh
improper_coeff	15 aa   -1.31990   -1.31990    0.11840  112.67000  110.77000  110.77000  # c1,c,c,hc
improper_coeff	16 aa    0.00000    0.00000   -3.57440  112.67000  111.27000  111.27000  # c1,c,c,oc
improper_coeff	17 aa    0.16890    0.00000    0.00000  111.27000  110.77000  108.72800  # c1,c,oc,hc
improper_coeff	18 aa   -1.31990   -1.31990    0.11840  112.67000  110.77000  110.77000  # c3h,c,c,hc
improper_coeff	19 aa   -0.83300   -0.83300   -3.57440  112.67000  111.27000  111.27000  # c3h,c,c,o3e
improper_coeff	20 aa    0.16890    2.59260    3.91770  111.27000  110.77000  108.72800  # c3h,c,o3e,hc
improper_coeff	21 aa    0.00000    0.00000    0.00000  118.90000  117.94000  117.94000  # cp,cp,cp,hc
improper_coeff	22 aa    0.00000    0.00000    0.00000  118.90000  123.42000  123.42000  # cp,cp,cp,oc

# ------------------------------- OPT Section -------------------------------
minimize 1.0e-5 1.0e-7 100000 400000
PPPM initialization ...
  using 12-bit tables for long-range coulomb (../kspace.cpp:342)
  G vector (1/distance) = 0.19677283
  grid = 8 8 8
  stencil order = 5
  estimated absolute RMS force accuracy = 0.026522975
  estimated relative force accuracy = 7.987315e-05
  using double precision KISS FFT
  3d grid and FFT values/proc = 1053 128
Generated 36 of 36 mixed pair_coeff terms from sixthpower/geometric mixing rule
Neighbor list info ...
  update: every = 1 steps, delay = 0 steps, check = yes
  max neighbors/atom: 2000, page size: 100000
  master list distance cutoff = 12
  ghost atom cutoff = 12
  binsize = 6, bins = 6 6 6
  1 neighbor lists, perpetual/occasional/extra = 1 0 0
  (1) pair lj/class2/coul/long, perpetual
      attributes: half, newton on
      pair build: half/bin/newton
      stencil: half/bin/3d
      bin: standard
WARNING: Inconsistent image flags (../domain.cpp:815)
Per MPI rank memory allocation (min/avg/max) = 17.25 | 17.25 | 17.26 Mbytes
   Step          Temp          E_pair         E_mol          TotEng         Press     
         0   492.84444     -2027.0191      17840.758      20213.62       4201.3622    
       444   492.84444     -2613.5187      13942.352      15728.715      4044.559     
Loop time of 5.23524 on 6 procs for 444 steps with 2996 atoms

99.0% CPU use with 6 MPI tasks x no OpenMP threads

Minimization stats:
  Stopping criterion = energy tolerance
  Energy initial, next-to-last, final = 
      15813.7384684871   11328.9193353187   11328.8329850059
  Force two-norm initial, final = 2360.5253 18.769481
  Force max component initial, final = 132.58837 1.6220871
  Final line search alpha, max atom move = 0.0077922296 0.012639675
  Iterations, force evaluations = 444 888

MPI task timing breakdown:
Section |  min time  |  avg time  |  max time  |%varavg| %total
---------------------------------------------------------------
Pair    | 2.4774     | 2.6614     | 2.8637     |   7.7 | 50.84
Bond    | 1.0709     | 1.3336     | 1.5865     |  16.3 | 25.47
Kspace  | 0.54721    | 1.006      | 1.341      |  26.5 | 19.22
Neigh   | 0.040687   | 0.040714   | 0.040741   |   0.0 |  0.78
Comm    | 0.14964    | 0.1547     | 0.1608     |   0.9 |  2.95
Output  | 0          | 0          | 0          |   0.0 |  0.00
Modify  | 0          | 0          | 0          |   0.0 |  0.00
Other   |            | 0.03877    |            |       |  0.74

Nlocal:        499.333 ave         517 max         486 min
Histogram: 1 2 0 0 0 1 0 0 1 1
Nghost:        6511.83 ave        6593 max        6469 min
Histogram: 1 2 1 0 0 1 0 0 0 1
Neighs:         163540 ave      175851 max      153002 min
Histogram: 1 0 0 1 2 0 1 0 0 1

Total # of neighbors = 981240
Ave neighs/atom = 327.51669
Ave special neighs/atom = 9.2870494
Neighbor list builds = 10
Dangerous builds = 0
# ------------------------------- Run Section -------------------------------
#
fix 		relax all npt temp 600.0 600.0 100 iso 1.0 1.0 1000
run 50000
PPPM initialization ...
  using 12-bit tables for long-range coulomb (../kspace.cpp:342)
  G vector (1/distance) = 0.19677283
  grid = 8 8 8
  stencil order = 5
  estimated absolute RMS force accuracy = 0.026522975
  estimated relative force accuracy = 7.987315e-05
  using double precision KISS FFT
  3d grid and FFT values/proc = 1053 128
Generated 36 of 36 mixed pair_coeff terms from sixthpower/geometric mixing rule
WARNING: Inconsistent image flags (../domain.cpp:815)
Per MPI rank memory allocation (min/avg/max) = 16.13 | 16.13 | 16.13 Mbytes
   Step          Temp          E_pair         E_mol          TotEng         Press          Volume    
       444   492.84444     -2613.5187      13942.352      15728.715      4044.559       33060.56     
     50444   591.69518     -1501.5305      18970.052      22750.895      505.68346      48226.76     
Loop time of 220.685 on 6 procs for 50000 steps with 2996 atoms

Performance: 19.575 ns/day, 1.226 hours/ns, 226.568 timesteps/s, 678.797 katom-step/s
98.0% CPU use with 6 MPI tasks x no OpenMP threads

MPI task timing breakdown:
Section |  min time  |  avg time  |  max time  |%varavg| %total
---------------------------------------------------------------
Pair    | 67.929     | 73.477     | 78.633     |  46.5 | 33.29
Bond    | 54.764     | 63.942     | 70.062     |  58.5 | 28.97
Kspace  | 51.389     | 57.638     | 62.1       |  50.9 | 26.12
Neigh   | 11.003     | 11.017     | 11.029     |   0.3 |  4.99
Comm    | 9.0786     | 9.172      | 9.3454     |   2.8 |  4.16
Output  | 2.5718e-05 | 6.3479e-05 | 0.0002508  |   0.0 |  0.00
Modify  | 3.2208     | 3.4824     | 3.8417     |  12.7 |  1.58
Other   |            | 1.957      |            |       |  0.89

Nlocal:        499.333 ave         537 max         460 min
Histogram: 1 1 1 0 0 0 0 0 1 2
Nghost:        5313.33 ave        5382 max        5242 min
Histogram: 1 0 1 1 0 1 0 0 0 2
Neighs:         112803 ave      126391 max       98027 min
Histogram: 1 1 0 1 0 0 1 0 1 1

Total # of neighbors = 676816
Ave neighs/atom = 225.90654
Ave special neighs/atom = 9.2870494
Neighbor list builds = 3344
Dangerous builds = 0
unfix relax

reset_timestep 0

thermo_style custom step temp pe evdwl ecoul ebond eangle edihed eimp density vol
thermo          100

neigh_modify delay 0 every 1 check yes

fix 		relax all npt temp 600.0 100.0 100 iso 1.0 1.0 1000

variable Rho equal density
dump DumpPos all custom 1000 dump.pos id type x y z mol

run 5000000
PPPM initialization ...
  using 12-bit tables for long-range coulomb (../kspace.cpp:342)
  G vector (1/distance) = 0.19599685
  grid = 9 9 9
  stencil order = 5
  estimated absolute RMS force accuracy = 0.022642673
  estimated relative force accuracy = 6.8187738e-05
  using double precision KISS FFT
  3d grid and FFT values/proc = 1120 162
Generated 36 of 36 mixed pair_coeff terms from sixthpower/geometric mixing rule
WARNING: Inconsistent image flags (../domain.cpp:815)
Per MPI rank memory allocation (min/avg/max) = 17.4 | 17.41 | 17.41 Mbytes
   Step          Temp          PotEng         E_vdwl         E_coul         E_bond        E_angle        E_dihed        E_impro        Density         Volume    
         0   591.69518      17470.339     -1173.3299      1214.2585      2442.7403      16219.379      243.99446      63.937942      0.73475979     48226.76     
       100   597.38755      17421.644     -1135.1972      1220.2941      2392.7378      16222.964      194.99065      68.440706      0.7350431      48208.172    
       200   604.56051      17309.998     -1137.6169      1210.4929      2302.9553      16214.718      198.45543      66.551067      0.73459898     48237.317    
       300   589.09586      17314.593     -1157.1212      1216.5274      2489.5009      16129.554      126.29241      54.167733      0.73475017     48227.391    
       400   583.09026      17347.49      -1139.1597      1224.6606      2350.2256      16203.209      172.75504      78.866235      0.73544027     48182.137    
       500   606.60073      17327.261     -1122.065       1212.4215      2266.5386      16137.854      309.50994      66.46889       0.73609969     48138.974    
       600   605.82696      17402.373     -1179.3737      1215.7219      2413.3536      16168.129      266.76145      56.711653      0.73538094     48186.025    
       700   592.27762      17466.912     -1107.6935      1213.916       2313.406       16319.791      204.28963      63.070226      0.73448327     48244.916    
       800   601.03359      17343.075     -1112.0348      1201.7479      2359.6153      16133.172      230.47957      72.050058      0.73318084     48330.619    
       900   585.64081      17433.925     -1116.943       1202.9339      2254.8458      16164.741      400.64104      69.100834      0.73017275     48529.727    
      1000   597.99465      17378.229     -1154.679       1206.1417      2321.3056      16231.149      233.49205      82.672194      0.72643985     48779.103    
      1100   599.67934      17479.743     -1116.9733      1219.7753      2311.9655      16110.311      425.07275      72.790119      0.723283       48992.005    
      1200   611.382        17458.467     -1118.6831      1221.1065      2331.2172      16202.919      298.8393       64.334583      0.7212377      49130.937    
      1300   612.485        17456.488     -1106.4667      1213.6324      2336.9582      16155.581      321.06399      74.712165      0.71980431     49228.774    
      1400   596.90571      17380.546     -1139.5851      1203.9873      2364.6634      16180.554      254.07109      56.855998      0.71865469     49307.525    
      1500   587.09005      17418.881     -1124.8881      1205.4182      2333.335       16252.332      243.20343      50.044518      0.71824439     49335.692    
      1600   605.52054      17371.299     -1135.4165      1207.3902      2342.9342      16157.799      280.12358      56.384258      0.717469       49389.011    
      1700   610.04093      17420.659     -1085.2012      1209.2645      2369.1125      16105.113      308.7142       52.231657      0.71730653     49400.197    
      1800   618.8459       17355.278     -1108.2128      1202.6737      2349.3927      16206.806      171.77613      74.543714      0.71721845     49406.264    
      1900   607.86124      17392.657     -1074.6189      1195.2292      2330.4533      16159.772      267.85362      57.644914      0.71795617     49355.498    
      2000   599.35973      17454.837     -1111.7983      1210.6561      2373.5536      16163.986      288.1937       73.321278      0.718383       49326.173    
      2100   593.00556      17510.573     -1108.5578      1230.4196      2493.0409      16113.171      264.50555      59.369663      0.71865157     49307.739    
      2200   587.87607      17569.169     -1075.3839      1211.4787      2400.7712      16262.009      247.46665      67.080248      0.71998472     49216.439    
      2300   600.32495      17544.261     -1147.4115      1209.5636      2391.4994      16213.612      351.9987       68.804819      0.72230614     49058.262    
      2400   611.80462      17531.936     -1102.4652      1202.456       2508.4025      16225.134      194.65823      46.248839      0.7256855      48829.809    
      2500   610.7809       17435.455     -1093.8921      1205.2583      2416.0699      16151.908      229.7006       70.147784      0.7292612      48590.387    
      2600   600.38146      17349.365     -1140.7308      1196.075       2341.903       16245.324      159.68289      89.283913      0.73188561     48416.151    
      2700   601.37715      17333.959     -1105.7321      1204.7775      2349.8613      16117.919      249.20978      58.50868       0.73454489     48240.869    
      2800   598.69912      17415.837     -1164.471       1207.9145      2429.5479      16170.488      238.70856      74.682119      0.73661419     48105.351    
      2900   606.34634      17414.59      -1145.3108      1191.9676      2346.7754      16265.043      211.06433      85.672532      0.73960597     47910.76     
      3000   613.13636      17415.516     -1168.5237      1182.1153      2323.3504      16084.163      449.91728      85.126984      0.74130753     47800.788    
      3100   597.00012      17461.271     -1147.3075      1196.0428      2349.3042      16293.03       233.97666      76.400278      0.74157243     47783.713    
      3200   590.57379      17341.555     -1172.4574      1207.0667      2370.3269      16153.878      261.60998      62.033989      0.74137787     47796.253    
      3300   585.84497      17364.781     -1141.2148      1220.8176      2328.2019      16145.474      275.13746      77.788282      0.74126825     47803.321    
      3400   604.67496      17331.363     -1135.5725      1216.2836      2270.3799      16216.644      231.80102      72.415164      0.74085609     47829.915    
      3500   601.24918      17459.572     -1122.4444      1224.2148      2386.5219      16122.604      309.36145      80.946749      0.74111548     47813.175    
      3600   594.02824      17511.641     -1147.7688      1207.0263      2310.1215      16219.845      388.1971       74.591464      0.7410081      47820.103    
      3700   591.40262      17479.092     -1117.0748      1212.2559      2429.7315      16217.014      207.25908      68.608178      0.74177122     47770.907    
      3800   600.83835      17317.407     -1154.5786      1223.6526      2444.0761      16098.201      167.41089      77.056191      0.74161277     47781.114    
      3900   593.42176      17163.423     -1135.7822      1215.6108      2228.9414      16120.12       197.91809      75.826926      0.74231908     47735.65     
      4000   581.92454      17292.556     -1159.6943      1213.4818      2361.8258      16131.143      228.18394      59.410971      0.74244082     47727.823    
      4100   587.26705      17359.205     -1167.7452      1222.188       2316.7576      16168.379      296.04248      65.492757      0.74194538     47759.694    
      4200   601.88178      17343.295     -1170.5481      1200.0641      2345.8063      16186.606      261.50318      62.209183      0.74083905     47831.015    
      4300   609.30814      17361.079     -1163.0033      1200.6541      2350.2491      16123.471      320.7824       70.796505      0.73801908     48013.777    
      4400   603.81127      17431.92      -1131.8278      1211.0014      2419.2021      16079.973      327.97451      68.680706      0.73557563     48173.271    
      4500   603.29275      17362.611     -1142.1074      1203.1799      2453.3631      16225.198      102.18624      64.123548      0.73265216     48365.494    
      4600   589.47207      17315.903     -1131.9693      1200.0382      2376.9564      16170.568      187.16789      55.116847      0.72987544     48549.495    
      4700   599.08274      17221.608     -1138.7466      1194.9102      2344.8667      16158.765      136.37253      66.002327      0.72646951     48777.111    
      4800   600.06443      17396.883     -1134.6294      1216.0428      2403.0901      16106.877      286.69021      59.895786      0.72317026     48999.642    
      4900   595.81488      17525.276     -1128.7727      1222.0869      2399.5969      16232.728      261.09373      78.602951      0.72033203     49192.709    
      5000   594.32781      17509.603     -1103.3808      1221.5179      2412.5128      16139.864      303.19579      77.99021       0.71782379     49364.6      
      5100   594.11491      17450.755     -1116.3397      1215.9793      2348.7415      16158.942      302.43518      80.71404       0.71567737     49512.651    
      5200   592.60766      17400.871     -1114.2729      1211.8938      2346.7196      16135.76       294.08553      66.154783      0.71423871     49612.383    
      5300   597.34854      17340.489     -1070.7394      1208.2797      2381.1657      16147.113      139.55158      74.842818      0.71324206     49681.708    
      5400   614.69183      17358.017     -1106.7892      1213.2493      2328.8305      16235.078      162.38866      62.398172      0.71182664     49780.498    
      5500   611.22824      17481.99      -1068.2342      1206.0958      2453.1124      16117.843      237.0078       75.057808      0.71062777     49864.48     
      5600   613.4511       17413.019     -1093.955       1207.464       2385.8688      16203.049      192.79605      57.148722      0.70948519     49944.784    
      5700   597.40072      17363.891     -1093.5514      1204.6207      2325.2159      16174.091      212.43178      82.328692      0.70843566     50018.775    
      5800   591.11195      17375.897     -1086.2663      1206.4423      2228.9665      16214.331      294.32733      61.988922      0.7080272      50047.631    
      5900   598.39574      17383.417     -1111.882       1220.6263      2324.1561      16190.707      234.65349      66.473257      0.70802203     50047.996    
      6000   608.61754      17374.693     -1077.7553      1231.2         2325.0888      16132.216      238.97963      66.199199      0.70975862     49925.542    
      6100   608.44814      17460.755     -1089.6205      1226.7626      2432.9318      16140.464      226.89386      66.089701      0.71181661     49781.198    
      6200   596.50601      17572         -1097.7622      1220.359       2350.5775      16377.679      194.05755      68.268123      0.71430649     49607.675    
      6300   591.50624      17367.734     -1119.4432      1207.3379      2364.9413      16109.987      276.85916      68.846491      0.71819187     49339.3      
      6400   598.07751      17247.3       -1104.3458      1197.3941      2308.399       16074.632      237.64493      75.362185      0.72276826     49026.896    
      6500   593.61562      17398.99      -1113.1233      1197.6145      2279.8632      16236.259      267.79483      70.140489      0.72704342     48738.608    
      6600   602.55554      17427.407     -1134.0411      1200.6498      2430.7701      16091.585      309.66333      67.459822      0.73032131     48519.855    
      6700   600.45196      17446.063     -1147.1936      1204.8934      2383.6329      16183.501      281.04627      78.957093      0.73345457     48312.582    
      6800   585.04149      17398.154     -1103.715       1196.3101      2341.4088      16199.048      216.34003      87.142563      0.73567256     48166.924    
      6900   587.76615      17268.949     -1134.8449      1206.2669      2282.9687      16052.865      345.16735      54.356533      0.73761264     48040.235    
      7000   593.3858       17345.636     -1193.2174      1214.9141      2326.3167      16203.224      271.6004       63.412736      0.73945157     47920.764    
      7100   598.03006      17414.242     -1102.5243      1222.7935      2322.4602      16169.984      280.69014      60.806411      0.74242687     47728.72     
      7200   601.58669      17446.684     -1151.9104      1224.7385      2309.4286      16277.161      262.6203       65.214374      0.74505167     47560.573    
      7300   603.28793      17454.907     -1185.6338      1232.3778      2350.2568      16163.016      370.95673      62.573248      0.74741657     47410.086    
      7400   607.44496      17286.989     -1199.2075      1221.3026      2359.2528      16100.379      281.16306      62.985692      0.74958643     47272.846    
      7500   581.63964      17334.675     -1167.2246      1218.2207      2313.8889      16089.65       357.32318      61.222603      0.75174579     47137.057    
      7600   596.38436      17243.528     -1160.5122      1209.2025      2291.4797      16064.886      310.5203       67.125228      0.75338951     47034.215    
      7700   606.86454      17284.385     -1164.6056      1214.5622      2347.7436      16041.764      325.64695      58.960775      0.75286026     47067.279    
      7800   603.48576      17360.389     -1184.6378      1222.0913      2394.3466      16194.127      203.34415      73.322826      0.75017227     47235.929    
      7900   590.53144      17414.92      -1138.1815      1210.0689      2436.9886      16206.765      194.92909      47.670788      0.74600427     47499.841    
      8000   598.53001      17299.58      -1145.6647      1195.3658      2302.293       16149.804      274.10097      64.15083       0.73887157     47958.381    
      8100   593.98981      17332.396     -1094.9852      1208.2866      2362.3029      16132.997      191.19834      71.666255      0.72940164     48581.031    
      8200   602.0134       17293.135     -1115.0054      1198.4285      2351.9842      16113.837      229.84324      53.121819      0.71829536     49332.191    
      8300   598.00893      17382.34      -1112.9103      1202.6178      2378.8472      16100.906      275.82659      75.306011      0.70883643     49990.495    
      8400   595.97044      17422.355     -1090.5424      1191.4082      2337.9082      16233.107      225.99964      63.211855      0.7031213      50396.829    
      8500   592.22109      17475.748     -1087.6617      1197.9285      2513.4549      16179.505      158.41357      52.5735        0.69946894     50659.982    
      8600   606.24056      17378.836     -1111.0191      1206.6592      2306.2017      16163.436      284.8906       67.236287      0.69689905     50846.797    
      8700   608.02153      17377.021     -1072.3913      1198.1529      2358.3614      16100.044      258.03368      71.338338      0.69508754     50979.311    
      8800   590.80584      17493.566     -1090.2832      1203.5296      2340.7919      16183.947      326.57141      66.773385      0.69321283     51117.179    
      8900   596.17846      17356.64      -1109.2588      1202.3011      2272.7231      16257.074      200.40373      70.527284      0.69203586     51204.115    
      9000   596.9094       17289.556     -1060.1136      1200.4686      2335.9386      16089.697      210.29672      52.088922      0.69229455     51184.982    
      9100   586.91457      17463.119     -1045.5619      1204.0431      2403.2675      16133.782      250.61497      57.175789      0.69271466     51153.94     
      9200   604.51442      17481.576     -1082.5739      1204.5823      2318.8347      16242.035      273.78185      64.975667      0.69289715     51140.467    
      9300   603.42157      17490.685     -1102.2695      1198.2554      2432.8144      16044.822      382.63957      74.992446      0.6920361      51204.098    
      9400   602.288        17408.557     -1120.2336      1212.039       2446.8473      16216.726      133.63083      57.9342        0.68979417     51370.519    
      9500   594.16155      17400.385     -1063.1838      1211.1383      2272.0391      16087.466      363.73599      67.987027      0.68859912     51459.671    
      9600   588.2126       17380.588     -1073.8423      1199.554       2256.5366      16029.374      434.42735      72.852917      0.68723902     51561.513    
      9700   588.9472       17374.934     -1084.5965      1198.7258      2301.0732      16327.561      120.10522      52.402977      0.68647569     51618.848    
      9800   602.94864      17390.514     -1067.4622      1196.4991      2478.7889      16028.54       218.46928      76.649782      0.68643951     51621.568    
      9900   609.70918      17440.01      -1083.42        1189.0979      2332.6263      16224.538      252.89302      63.496445      0.68727948     51558.478    
     10000   600.18089      17519.724     -1045.418       1194.4978      2399.8807      16207.456      246.50867      55.543039      0.68906996     51424.508    
     10100   585.75775      17486.348     -1065.0356      1186.6069      2421.3043      16112.855      311.92122      56.905452      0.69109814     51273.592    
     10200   598.44767      17275.499     -1096.3361      1198.4007      2308.3921      16107.715      248.9987       48.062572      0.69254498     51166.473    
     10300   586.37381      17498.092     -1088.3969      1218.1338      2385.3524      16144.995      310.09916      70.642992      0.69370028     51081.26     
     10400   610.05803      17508.441     -1076.7005      1199.1708      2471.2108      16145.276      256.0824       55.694317      0.69563502     50939.189    
     10500   608.49746      17454.45      -1109.7456      1192.907       2388.9408      16287.158      167.5051       68.756384      0.69746441     50805.58     
     10600   596.17186      17420.353     -1105.2647      1205.0495      2356.5531      16122.904      320.14265      60.559269      0.69957433     50652.35     
     10700   596.70539      17346.128     -1131.3734      1206.0736      2340.7992      16067.83       340.13232      62.786015      0.70127529     50529.492    
     10800   584.13775      17516.404     -1101.0033      1197.5472      2418.1468      16178.338      299.98238      61.786375      0.70331681     50382.819    
     10900   608.70684      17498.56      -1128.9127      1217.3622      2452.5988      16135.295      307.51737      53.796255      0.70580476     50205.221    
     11000   608.94262      17499.165     -1097.6044      1212.2461      2456.8181      16173.484      233.43649      62.167102      0.70908748     49972.796    
     11100   604.51219      17435.619     -1128.5411      1200.1417      2381.0528      16243.654      220.48221      58.918607      0.7122062      49753.967    
     11200   600.27407      17383.689     -1124.8073      1202.8858      2321.8006      16214.528      245.19946      62.826903      0.71475837     49576.312    
     11300   605.19956      17322.181     -1147.6462      1211.4925      2358.0257      16174.668      204.5599       57.462839      0.71690844     49427.629    
     11400   595.81273      17410.786     -1097.5241      1214.384       2437.2376      16110.903      233.26638      49.947874      0.71864564     49308.146    
     11500   601.44387      17431.482     -1097.5338      1209.4443      2399.7874      16214.206      164.3365       78.711984      0.71936643     49258.74     
     11600   615.89708      17409.803     -1154.2879      1226.0189      2404.4056      16153.462      248.6677       66.133652      0.71918815     49270.951    
     11700   597.88813      17514.01      -1146.5068      1229.6994      2448.9694      16152.988      293.98891      72.602187      0.71920634     49269.704    
     11800   598.53657      17349.939     -1090.0428      1222.0076      2403.1851      16056.93       228.75415      69.272637      0.71951946     49248.264    
     11900   580.66239      17438.047     -1123.759       1212.4281      2401.094       16151.284      289.11209      48.572843      0.71907561     49278.662    
     12000   586.76908      17438.817     -1130.9356      1208.5717      2253.5146      16126.338      447.99145      73.448213      0.71870647     49303.972    
     12100   597.54446      17424.191     -1152.8336      1203.4071      2418.7442      16211.632      224.68192      58.869295      0.71889681     49290.919    
     12200   603.68019      17376.631     -1145.5644      1203.0905      2390.8055      16088.134      316.7522       61.309657      0.71942899     49254.457    
     12300   599.34703      17404.524     -1125.4343      1206.0607      2409.795       16116.067      262.05199      74.702462      0.72057897     49175.851    
     12400   591.90908      17445.897     -1141.153       1198.0998      2522.6461      15997.962      335.30613      72.899491      0.72122901     49131.529    
     12500   601.33102      17331.398     -1079.6272      1207.3561      2440.4146      16056.789      180.02659      68.312441      0.72195339     49082.233    
     12600   592.40742      17421.066     -1115.3933      1217.103       2387.9718      16051.359      348.33981      73.209284      0.72210069     49072.22     
     12700   603.91653      17431.679     -1118.9492      1208.0835      2382.3839      16100.176      327.46162      73.256518      0.72149967     49113.098    
     12800   614.28205      17447.811     -1094.2848      1202.8918      2393.6902      16173.974      236.81056      75.888857      0.72032006     49193.526    
     12900   612.82811      17380.902     -1127.6763      1204.0954      2333.0232      16177.132      280.61705      54.396673      0.71927271     49265.159    
     13000   594.41989      17342.409     -1162.5477      1207.6508      2453.2881      16085.233      255.87051      43.937699      0.71819138     49339.333    
     13100   587.78505      17408.051     -1143.7145      1203.3257      2362.3449      16241.883      199.84133      85.864924      0.7175166      49385.734    
     13200   603.7636       17367.648     -1140.7142      1213.1031      2365.8555      16142.877      260.88919      67.517294      0.71716096     49410.225    
     13300   597.64573      17514.342     -1136.6953      1220.9752      2499.3575      16185.536      222.06389      61.955017      0.71719558     49407.839    
     13400   591.56661      17603.899     -1082.442       1233.3955      2490.8656      16174.229      237.90811      88.134638      0.71667454     49443.76     
     13500   600.63588      17460.557     -1161.5881      1229.5062      2339.4698      16136.277      391.29074      65.742762      0.71538028     49533.213    
     13600   588.8389       17384.433     -1146.9716      1217.9386      2310.4567      16155.487      316.66731      69.896916      0.71445756     49597.185    
     13700   586.61104      17424.26      -1120.076       1228.5665      2324.3744      16263.756      194.972        72.419376      0.71374394     49646.774    
     13800   590.83476      17538.258     -1135.0944      1223.3916      2351.2914      16194.35       379.03448      63.278444      0.7132241      49682.959    
     13900   613.0446       17421.771     -1095.4483      1213.3993      2356.5411      16112.086      302.30554      71.77106       0.71362186     49655.267    
     14000   597.35974      17505.277     -1160.9251      1209.0968      2385.9997      16235.797      302.03193      71.944528      0.71355721     49659.766    
     14100   603.27499      17384.999     -1103.5627      1196.3031      2425.0873      15999.897      340.92304      69.865142      0.71355919     49659.628    
     14200   591.05064      17461.36      -1145.4533      1207.2611      2339.414       16267.821      254.93596      80.897469      0.71237925     49741.881    
     14300   600.55543      17390.726     -1099.6615      1210.2089      2353.7677      16060.178      335.76917      72.697475      0.71097294     49840.271    
     14400   601.1475       17437.706     -1119.8957      1203.9515      2334.4861      16120.611      370.4884       71.233734      0.70891368     49985.047    
     14500   603.03808      17494.479     -1095.5673      1210.2842      2394.263       16146.832      296.93927      82.956         0.70696199     50123.04     
     14600   615.30669      17588.612     -1086.3579      1216.9557      2482.7969      16188.189      248.43241      77.76303       0.70501098     50261.748    
     14700   603.85578      17639.983     -1121.6213      1217.663       2445.2054      16218.936      345.72638      73.481022      0.70305092     50401.874    
     14800   603.04352      17454.662     -1106.0198      1209.8721      2305.6151      16155.343      362.7454       65.743823      0.70072421     50569.231    
     14900   606.24389      17364.844     -1112.7624      1196.7729      2333.9037      16101.7        313.69316      70.854915      0.69768055     50789.841    
     15000   600.23766      17404.341     -1111.1874      1208.8932      2352.1346      16157.634      263.03259      75.168181      0.69420331     51044.245    
     15100   595.3794       17466.167     -1088.9379      1217.1029      2394.0088      16141.866      274.58098      68.610063      0.69140598     51250.763    
     15200   603.90234      17482.016     -1073.5342      1209.3487      2336.3254      16233.343      250.62407      67.16469       0.68938002     51401.379    
     15300   599.24248      17643.024     -1034.8669      1204.1091      2429.2382      16161.796      336.90311      88.218025      0.68724673     51560.935    
     15400   608.47412      17509.704     -1045.2024      1201.4101      2367.5136      16124.189      336.80007      68.167076      0.68543576     51697.163    
     15500   590.84344      17466.364     -1068.7919      1206.3836      2426.947       16237.919      144.12095      63.367375      0.6826983      51904.456    
     15600   589.68661      17419.31      -1042.5289      1201.073       2341.1052      16122.174      271.73974      70.372813      0.68141001     52002.588    
     15700   595.72211      17439.188     -1081.1381      1216.3086      2374.7599      16109.465      297.28224      65.912751      0.68110834     52025.62     
     15800   605.43433      17470.077     -1087.3794      1209.817       2313.6104      16202.509      291.90819      83.107783      0.68234849     51931.065    
     15900   607.95697      17461.587     -1107.0672      1208.2103      2330.1633      16132.621      372.79242      66.697205      0.68506227     51725.348    
     16000   610.05801      17357.596     -1061.6622      1203.5426      2325.3713      16134.569      217.40938      79.725792      0.68932809     51405.252    
     16100   594.84463      17328.744     -1105.7812      1215.1619      2331.1886      16105.469      254.86525      69.762802      0.69383777     51071.137    
     16200   579.02963      17197.422     -1117.0184      1200.3903      2286.3255      16065.354      259.21456      46.748497      0.69825469     50748.078    
     16300   573.70802      17321.489     -1120.8766      1205.9019      2298.6227      16054.178      359.61142      65.978447      0.70232049     50454.293    
     16400   602.13027      17265.629     -1157.2113      1211.6192      2338.9642      16084.793      269.85699      59.418645      0.70675103     50138.001    
     16500   604.43219      17393.181     -1147.0536      1208.3464      2388.442       16186.278      250.81789      48.987084      0.71175547     49785.475    
     16600   614.27067      17339.883     -1163.8257      1211.0173      2368.3863      16087.206      310.32696      71.419441      0.71536632     49534.18     
     16700   603.17619      17345.342     -1164.1747      1207.516       2374.513       16063.493      351.36581      56.457537      0.7176516      49376.444    
     16800   603.54239      17201.391     -1124.7532      1204.2383      2357.3275      16098.092      141.70595      66.666841      0.71913206     49274.794    
     16900   581.67555      17380.085     -1074.2436      1209.0933      2354.6887      16080.54       285.66249      68.155737      0.71901226     49283.004    
     17000   602.25846      17367.857     -1126.4977      1204.7953      2381.8731      16206.519      175.74657      69.575489      0.71779289     49366.725    
     17100   606.89523      17449.215     -1187.2058      1216.2748      2398.0783      16205.417      305.22178      52.687972      0.71619439     49476.908    
     17200   597.0622       17473.035     -1173.7955      1218.262       2362.4003      16228.672      302.29603      74.316216      0.71542554     49530.08     
     17300   600.21494      17319.218     -1178.9212      1224.5029      2380.5259      16150.65       204.47423      74.94537       0.71384334     49639.861    
     17400   589.53854      17392.709     -1115.6751      1223.9931      2269.3682      16242.109      247.07728      63.201853      0.71320337     49684.403    
     17500   586.66957      17563.423     -1142.1148      1213.8292      2465.7534      16078.996      400.98694      84.117033      0.7127577      49715.47     
     17600   609.88731      17501.723     -1124.6156      1212.3788      2380.6019      16135.006      365.12807      70.280804      0.71294812     49702.191    
     17700   596.07249      17557.189     -1184.7389      1212.5331      2432.144       16273.181      282.58041      79.231672      0.71156638     49798.705    
     17800   597.08798      17452.198     -1105.4881      1226.9376      2307.8695      16166.829      327.56359      68.8641        0.71128804     49818.192    
     17900   609.7278       17303.085     -1148.0167      1229.3603      2369.7693      16128.587      209.22641      53.822656      0.71083228     49850.133    
     18000   593.082        17420.516     -1127.3452      1221.9962      2347.9435      16160.092      285.03591      75.414075      0.71108237     49832.601    
     18100   588.04514      17467.71      -1092.9169      1227.1318      2347.6565      16223.291      238.12186      67.03274       0.71150911     49802.713    
     18200   600.58451      17474.279     -1125.6786      1207.5878      2446.1364      16139.974      287.64871      62.906         0.71233206     49745.177    
     18300   600.00288      17574.621     -1109.6856      1208.2352      2341.5579      16240.002      359.38491      77.649409      0.7127997      49712.541    
     18400   604.43405      17508.681     -1119.1013      1214.5787      2379.6823      16182.368      326.05326      68.111287      0.71178477     49783.426    
     18500   588.32465      17458.222     -1146.8686      1201.0545      2426.9261      16186.396      261.35453      73.887239      0.70989406     49916.017    
     18600   588.48215      17394.279     -1154.9092      1208.5502      2372.8946      16112.889      334.02754      65.555501      0.70831392     50027.372    
     18700   588.82823      17445.179     -1162.4537      1203.24        2472.8108      16223.195      189.0507       63.314461      0.70757018     50079.957    
     18800   600.5863       17431.138     -1127.6208      1201.6311      2390.658       16215.147      221.3121       74.264611      0.70776864     50065.914    
     18900   614.45683      17401.433     -1116.1746      1225.9886      2403.9659      16214.101      160.79679      55.715376      0.7079491      50053.152    
     19000   618.24092      17585.38      -1109.2557      1211.1404      2481.8365      16284.453      190.25224      68.816588      0.70895969     49981.804    
     19100   610.51771      17648.957     -1122.2044      1204.8916      2267.5639      16333.002      411.58008      98.547838      0.70940675     49950.305    
     19200   609.47507      17442.526     -1116.4154      1206.5618      2385.3862      16231.612      201.90831      75.390194      0.71106192     49834.034    
     19300   602.79105      17356.698     -1144.6276      1205.6026      2342.6488      16270.495      160.00843      64.323398      0.71253625     49730.921    
     19400   599.04219      17290.264     -1137.9618      1206.2228      2347.6555      16127.567      235.8866       52.996734      0.7137538      49646.088    
     19500   590.88794      17335.736     -1147.0035      1206.7142      2302.5206      16277.638      160.22442      75.974301      0.71331457     49676.658    
     19600   596.37719      17416.928     -1111.2447      1209.4394      2465.8452      16073.471      254.37814      63.199656      0.71249199     49734.01     
     19700   606.36586      17464.629     -1175.8105      1217.7349      2354.3075      16198.56       331.47969      77.600635      0.71132763     49815.419    
     19800   598.59092      17491.918     -1140.42        1210.9797      2344.142       16211.591      340.32215      64.279435      0.71183206     49780.118    
     19900   596.30723      17413.122     -1185.7919      1221.9856      2418.0804      16146.175      291.18906      62.598179      0.71249927     49733.502    
     20000   592.38063      17416.358     -1150.3537      1218.6305      2406.2914      16103.765      312.58727      62.641621      0.71352415     49662.067    
     20100   598.44246      17344.697     -1175.7231      1213.4015      2335.0832      16156.193      287.12424      63.986745      0.71440781     49600.639    
     20200   603.94884      17335.568     -1151.144       1219.5832      2314.9066      16191.691      239.67492      58.561399      0.7154599      49527.701    
     20300   602.05344      17469.272     -1127.1476      1214.367       2477.5773      16195.715      174.51308      70.344429      0.71591001     49496.562    
     20400   606.33882      17476.284     -1140.9457      1209.191       2478.752       16095.592      303.22951      66.283769      0.71557296     49519.875    
     20500   606.47474      17273.322     -1152.9574      1213.209       2234.2398      16155.651      270.33177      90.499299      0.71544359     49528.83     
     20600   584.46408      17369.025     -1150.7304      1207.1665      2338.4577      16264.211      161.10853      84.730785      0.71598686     49491.249    
     20700   588.68058      17369.338     -1143.1213      1214.6049      2309.9047      16233.202      229.75856      63.926157      0.71663767     49446.304    
     20800   597.49628      17404.01      -1154.7088      1208.0755      2315.8266      16272.89       237.86985      65.782824      0.71673522     49439.574    
     20900   611.38607      17411.869     -1164.1231      1221.5526      2377.5908      16162.276      280.31278      76.058988      0.71703921     49418.614    
     21000   608.12289      17510.605     -1149.466       1219.1821      2399.4049      16338.805      166.30739      78.683779      0.71773578     49370.653    
     21100   599.08139      17506.089     -1136.4296      1196.691       2349.8353      16236.41       305.3781       96.554801      0.71815172     49342.058    
     21200   586.77908      17427.928     -1141.3068      1204.7052      2392.4938      16205.981      225.26474      81.684646      0.71789773     49359.516    
     21300   589.26253      17376.214     -1176.1443      1194.6708      2356.2431      16266.729      196.20989      81.124519      0.71750411     49386.594    
     21400   602.93508      17305.297     -1165.8952      1195.8347      2332.0944      16093.614      333.36457      57.186056      0.7172075      49407.018    
     21500   603.7315       17418.883     -1135.2297      1204.6726      2367.8015      16145.454      320.21797      56.633547      0.71790982     49358.684    
     21600   599.16523      17576.274     -1107.5141      1202.0262      2343.7193      16332.738      265.8963       79.696691      0.71807397     49347.401    
     21700   617.97919      17370.404     -1151.5762      1198.8984      2389.8892      16109.053      297.61349      66.242721      0.71647755     49457.355    
     21800   594.68058      17330.098     -1123.3675      1191.6453      2365.2272      16101.888      275.69338      58.49675       0.7157176      49509.868    
     21900   593.97224      17293.167     -1122.6895      1198.6712      2286.8613      16208.989      184.639        73.316328      0.71407981     49623.422    
     22000   596.01846      17307.076     -1153.7169      1200.5785      2374.4373      16107.886      240.58129      77.662425      0.71220836     49753.817    
     22100   597.66899      17437.176     -1161.2256      1199.9131      2455.1217      16078.798      328.17658      76.587231      0.71034196     49884.543    
     22200   596.80777      17527.349     -1163.5257      1200.2363      2359.1014      16235.537      347.50291      89.538842      0.70913435     49969.493    
     22300   597.78532      17513.676     -1139.9506      1194.9138      2455.9363      16049.754      440.49196      56.398755      0.70829342     50028.82     
     22400   590.08529      17339.655     -1141.5783      1195.5121      2391.096       16087.343      276.53967      75.350929      0.70773819     50068.068    
     22500   579.12177      17407.279     -1121.7503      1196.0608      2453.4568      16139.328      195.78212      91.312364      0.70793205     50054.358    
     22600   593.84925      17405.849     -1125.2244      1181.0778      2412.1431      16134.609      281.11171      65.665564      0.7090537      49975.177    
     22700   597.6638       17465.273     -1102.1046      1179.46        2346.8852      16237.398      272.55681      71.919         0.7113287      49815.344    
     22800   603.94745      17415.125     -1096.0273      1208.3236      2348.6385      16118          310.26786      66.351524      0.71345407     49666.945    
     22900   597.98971      17365.065     -1131.8011      1196.9078      2338.492       16173.907      248.45761      77.935371      0.71501872     49558.26     
     23000   584.03809      17282.983     -1111.6407      1177.7803      2308.7992      16080.106      284.86069      80.910415      0.71715616     49410.555    
     23100   593.09995      17239.357     -1175.9278      1187.6419      2379.5532      16101.132      215.59136      70.599564      0.71934267     49260.367    
     23200   607.81296      17273.86      -1156.5651      1186.1808      2436.1775      16103.338      191.3786       53.94558       0.72228459     49059.726    
     23300   590.07644      17481.635     -1155.5523      1207.208       2387.1977      16182.455      313.04357      85.755084      0.72554547     48839.233    
     23400   586.46285      17501.607     -1123.9906      1210.5501      2401.0724      16162.58       311.97063      79.854936      0.72909583     48601.408    
     23500   594.99071      17397         -1145.3275      1197.6388      2342.1669      16134.223      339.70033      68.360456      0.73252452     48373.922    
     23600   591.40386      17391.954     -1174.2668      1200.6389      2394.5775      16203.589      240.91226      66.873604      0.73617237     48134.222    
     23700   594.2064       17308.091     -1170.4086      1203.3905      2370.1         16154.875      231.75903      59.020321      0.74030251     47865.682    
     23800   584.20338      17432.376     -1177.1142      1204.8362      2463.7055      16129.422      284.26198      69.260813      0.74429564     47608.883    
     23900   609.3586       17306.234     -1192.3288      1209.7339      2410.8992      16122.205      232.33881      65.463007      0.749077       47304.995    
     24000   607.90843      17381.6       -1189.2118      1196.4015      2376.5702      16166.877      297.37374      76.086428      0.75374397     47012.096    
     24100   599.8911       17349.324     -1207.6029      1201.1948      2408.0591      16087.636      342.75976      59.594785      0.75618149     46860.555    
     24200   589.71303      17256.862     -1171.0279      1200.298       2202.5575      16192.31       321.93874      52.466039      0.75698851     46810.597    
     24300   576.49104      17424.711     -1169.7684      1201.7017      2435.5759      16127.121      311.42684      59.012258      0.75638369     46848.028    
     24400   592.0052       17397.734     -1175.9805      1206.4043      2366.4529      16210.372      240.19746      91.922161      0.75431948     46976.228    
     24500   613.51187      17285.171     -1174.5401      1207.306       2339.8116      16155.109      235.53187      61.48252       0.75232341     47100.866    
     24600   611.99372      17295.102     -1182.4941      1196.7755      2381.4582      16112.62       270.73917      57.552332      0.75039042     47222.197    
     24700   590.09514      17382.828     -1210.052       1219.9677      2339.71        16166.692      311.19055      96.345766      0.74974152     47263.067    
     24800   577.6974       17227.502     -1198.7267      1217.0627      2345.9574      16152.31       189.50441      63.064956      0.75043236     47219.558    
     24900   586.40266      17254.822     -1142.1768      1196.4863      2377.8321      16048.088      259.37034      57.054595      0.75206429     47117.095    
     25000   603.45238      17283.013     -1140.2154      1193.3516      2286.2275      16190.352      218.20276      77.645293      0.75348988     47027.95     
     25100   596.97324      17426.001     -1143.5002      1208.1935      2378.2603      16134.467      325.23078      65.83326       0.755369       46910.959    
     25200   609.56083      17325.547     -1192.7857      1217.83        2276.9363      16145.651      349.26914      68.183098      0.75620915     46858.841    
     25300   596.54708      17343.58      -1192.2319      1211.3497      2327.6356      16149.801      308.11254      81.757568      0.75672327     46827.004    
     25400   583.91579      17285.983     -1192.4063      1216.6861      2407.6802      16112.514      211.79415      69.644939      0.75644522     46844.217    
     25500   594.911        17208.941     -1174.7271      1211.4505      2392.0904      15949.592      314.39699      57.710726      0.75653919     46838.399    
     25600   593.33267      17329.862     -1207.7595      1207.3493      2382.5463      16178.705      233.10447      71.430504      0.75664992     46831.544    
     25700   596.30733      17375.11      -1179.5896      1212.4969      2398.1805      16199.443      208.45519      74.316977      0.75741612     46784.169    
     25800   588.94154      17424.406     -1210.081       1201.6139      2441.1157      16269.61       189.91273      72.483076      0.75879324     46699.262    
     25900   599.04886      17276.293     -1149.8355      1204.4898      2370.2814      16130.889      200.08708      59.996713      0.76067779     46583.566    
     26000   600.68782      17255.103     -1174.7401      1195.9024      2412.7553      16071.602      224.44357      66.066019      0.76107897     46559.011    
     26100   604.03729      17281.86      -1214.8147      1201.168       2429.3001      16202.226      139.72361      69.994581      0.76031682     46605.682    
     26200   595.54874      17411.559     -1210.7286      1211.2955      2398.083       16217.029      280.74076      60.585408      0.75952827     46654.069    
     26300   603.57341      17379.315     -1205.8973      1202.6548      2374.9587      16164.513      326.76237      63.172472      0.75757267     46774.502    
     26400   601.70923      17325.815     -1184.907       1202.5902      2360.8283      16165.613      251.63957      76.499022      0.75525619     46917.966    
     26500   589.67332      17270.796     -1194.6464      1200.377       2437.1146      16101.996      217.62116      51.048602      0.75315913     47048.602    
     26600   587.03878      17297.665     -1217.5112      1209.9808      2356.858       16158.743      264.69369      65.691035      0.75172939     47138.085    
     26700   600.42891      17322.875     -1185.7183      1210.7935      2390.5142      16106.235      269.28867      72.414081      0.75121662     47170.261    
     26800   605.44048      17308.816     -1193.5723      1216.6632      2425.5078      16105.483      230.21193      64.616561      0.75107458     47179.181    
     26900   582.33362      17484.4       -1177.353       1198.5473      2467.0756      16135.279      330.39618      68.601967      0.75150619     47152.086    
     27000   598.1357       17284.955     -1193.7657      1200.8581      2441.2272      16050.661      245.55652      75.710924      0.75264456     47080.768    
     27100   585.16444      17335.77      -1160.0899      1203.9011      2453.3992      16110.807      215.36179      49.179707      0.75528838     46915.966    
     27200   588.11658      17366.432     -1181.3245      1201.426       2407.0243      16231.719      161.01087      83.531249      0.75750007     46778.984    
     27300   605.68726      17371.95      -1169.3326      1221.3512      2401.3015      16055.315      335.87935      64.904916      0.75909944     46680.424    
     27400   608.33473      17408.29      -1194.4935      1224.6102      2390.1585      16267.162      196.28796      63.310253      0.7588893      46693.35     
     27500   598.84718      17408.957     -1179.0378      1213.0253      2386.8237      16231.256      237.15778      62.328928      0.75769328     46767.056    
     27600   599.68353      17205.152     -1190.9217      1224.7633      2336.8924      16095.684      222.95337      57.053243      0.75630562     46852.863    
     27700   590.56992      17293.004     -1230.4983      1217.7942      2347.5556      16213.164      205.38298      81.884173      0.75526316     46917.533    
     27800   607.3272       17215.811     -1171.7012      1201.8078      2287.1372      16149.838      251.47416      40.455406      0.75630809     46852.71     
     27900   598.26326      17394.848     -1147.7188      1192.2539      2380.1641      16301.221      140.35415      69.876461      0.75697648     46811.341    
     28000   600.58868      17454.139     -1151.1672      1196.5461      2442.7938      16253.621      191.80694      61.642235      0.7566879      46829.194    
     28100   602.91481      17483.108     -1183.7427      1201.7061      2436.0177      16272.437      225.85051      70.742179      0.7545767      46960.215    
     28200   605.57489      17305.006     -1204.8781      1200.6648      2411.5276      16108.056      260.26509      68.088486      0.7518981      47127.508    
     28300   587.0458       17321.358     -1145.4201      1203.3649      2352.0467      16195.787      199.34018      55.661783      0.74928585     47291.81     
     28400   584.80761      17331.005     -1163.9463      1212.8506      2398.2773      16255.222      112.45359      59.078485      0.74770775     47391.623    
     28500   601.7339       17317.944     -1176.3533      1199.3576      2338.307       16185.678      244.19442      67.774437      0.74703236     47434.47     
     28600   588.03947      17570.415     -1155.0003      1199.1103      2457.9772      16311.602      216.52122      79.771436      0.74625844     47483.663    
     28700   611.72701      17331.58      -1167.3523      1212.1363      2363.1441      16208.572      188.81496      68.507997      0.74480563     47576.284    
     28800   591.11528      17445.642     -1146.9595      1207.3943      2434.5614      16147.015      283.49228      63.231826      0.743945       47631.322    
     28900   595.40523      17349.35      -1206.2019      1215.78        2431.8088      16146.726      226.4637       76.452819      0.74348395     47660.86     
     29000   580.93088      17441.275     -1141.7517      1207.1896      2394.7205      16139.117      312.86639      70.435162      0.74385629     47637.003    
     29100   595.80578      17245.646     -1193.4235      1203.3958      2309.9814      16159.232      234.09831      74.535082      0.74407351     47623.096    
     29200   591.73569      17248.95      -1102.1253      1195.2755      2301.8848      16162.449      180.15855      52.896689      0.74580228     47512.705    
     29300   604.51281      17272.331     -1177.0973      1206.5229      2325.5052      16108.998      269.41525      77.395065      0.74599689     47500.311    
     29400   606.88821      17353.375     -1152.1899      1201.2102      2333.4519      16209.969      221.02451      78.412353      0.74691538     47441.899    
     29500   611.85736      17262.363     -1178.1499      1214.4506      2337.6275      16152.543      210.93992      62.547866      0.74733398     47415.326    
     29600   593.27978      17223.932     -1144.1269      1203.8597      2270.0646      16155.833      203.61431      73.001405      0.74693223     47440.829    
     29700   593.88514      17197.546     -1201.7171      1204.6735      2428.7363      16058.747      179.52078      65.559967      0.74605806     47496.416    
     29800   582.82814      17371.793     -1139.0951      1204.2822      2318.6621      16137.441      312.32462      76.508807      0.74601214     47499.34     
     29900   597.5015       17360.92      -1136.5302      1197.2602      2265.6402      16253.028      249.06039      73.467433      0.7471731      47425.535    
     30000   600.34623      17384.79      -1176.4221      1192.9166      2403.01        16075.275      374.10617      56.104372      0.74844922     47344.673    
     30100   606.97403      17284.239     -1166.7443      1202.207       2345.0946      16063.058      317.78113      64.070896      0.74954528     47275.441    
     30200   590.67689      17358.187     -1166.6928      1200.7298      2350.3776      16083.235      350.78187      84.270318      0.75071166     47201.99     
     30300   612.38359      17149.562     -1162.9924      1201.2096      2244.4531      16141.617      186.77555      82.384313      0.75229525     47102.629    
     30400   592.4874       17321.236     -1167.8513      1202.8523      2363.329       16037.143      350.71843      79.232231      0.75325147     47042.834    
     30500   590.26974      17357.427     -1154.8485      1200.9268      2268.2938      16224.557      264.58942      95.267832      0.75315629     47048.779    
     30600   596.69171      17300.444     -1170.2525      1189.4464      2391.5161      16147.207      207.9434       75.725787      0.75130703     47164.585    
     30700   594.54799      17312.497     -1154.3439      1197.587       2369.5326      16120.008      244.6885       78.916932      0.75049816     47215.418    
     30800   592.59145      17339.517     -1179.0754      1199.4922      2308.219       16095.391      356.21355      102.62068      0.75065367     47205.636    
     30900   590.65178      17417.493     -1190.8874      1197.3319      2331.1752      16274.399      273.79961      72.8954        0.75134317     47162.316    
     31000   606.76206      17355.536     -1188.7133      1189.4666      2305.6143      16143.704      351.44268      96.387557      0.75150216     47152.338    
     31100   601.77679      17397.788     -1173.2731      1198.8174      2334.1548      16087.618      395.59646      96.511155      0.75149285     47152.922    
     31200   588.57113      17345.689     -1208.1963      1194.339       2382.9711      16135.223      295.43744      87.678456      0.75130216     47164.89     
     31300   580.97512      17314.437     -1131.3368      1192.035       2219.0453      16165.827      330.53431      81.272264      0.75157465     47147.791    
     31400   591.50954      17302.656     -1193.2141      1207.985       2437.8049      16016.448      309.85193      66.098672      0.75073061     47200.798    
     31500   610.58566      17252.582     -1195.3517      1203.5612      2358.1052      16053.562      316.0108       60.293422      0.75028254     47228.987    
     31600   601.91463      17338.384     -1170.355       1199.8243      2389.6097      16175.071      219.94406      68.094049      0.75023457     47232.006    
     31700   604.94364      17290.587     -1175.89        1182.6641      2323.25        16073.704      359.11468      70.601937      0.75074764     47199.727    
     31800   595.69226      17312.333     -1198.411       1196.1329      2308.0613      16189.051      275.65033      83.441816      0.75107371     47179.236    
     31900   591.19526      17265.683     -1185.6199      1198.8818      2347.3026      16067.769      321.09089      60.33841       0.75243506     47093.877    
     32000   592.62579      17177.297     -1238.5199      1199.214       2325.3913      16182.215      174.64197      77.51735       0.75433791     46975.081    
     32100   596.28277      17254.338     -1199.4512      1211.2562      2367.0855      16102.069      239.72238      77.053398      0.75722637     46795.893    
     32200   596.83294      17403.951     -1223.3262      1202.3573      2448.9231      16281.17       167.60844      69.69814       0.76095366     46566.678    
     32300   603.67208      17345.562     -1199.282       1191.6612      2362.8926      16093.321      351.15827      85.123962      0.76536951     46298.008    
     32400   591.50593      17314.438     -1200.0285      1189.746       2382.6964      16174.182      236.35608      73.606755      0.76904233     46076.897    
     32500   584.12422      17308.905     -1214.1385      1206.7317      2310.1824      16121.476      351.1747       73.922165      0.77203574     45898.243    
     32600   581.62093      17369.458     -1203.41        1199.4791      2341.221       16292.309      198.82829      85.667572      0.77488645     45729.389    
     32700   601.143        17252.071     -1192.8348      1193.6883      2366.181       16102.81       268.60788      56.454211      0.77574659     45678.685    
     32800   607.29246      17268.452     -1218.2492      1201.7674      2345.2963      16151.189      269.47212      60.966236      0.77503541     45720.6      
     32900   594.98221      17465.832     -1176.3454      1204.7003      2372.6205      16260.467      284.84239      61.297235      0.77262072     45863.492    
     33000   615.12157      17311.108     -1212.5449      1211.9287      2374.1909      16140.715      270.72577      66.902394      0.76779954     46151.479    
     33100   599.00496      17305.594     -1186.717       1230.5903      2303.0208      16084.85       342.90315      72.151491      0.76210584     46496.277    
     33200   597.1935       17226.699     -1221.6656      1219.666       2341.8736      16133.279      233.50306      62.28363       0.75512312     46926.234    
     33300   598.61659      17237.113     -1249.1054      1216.7878      2278.2897      16042.286      423.09699      69.616761      0.74924656     47294.29     
     33400   598.06199      17440.693     -1195.8751      1210.0711      2365.9493      16208.337      318.36809      76.475047      0.74577792     47514.258    
     33500   613.64716      17380.69      -1201.0354      1202.4721      2443.2614      16132.817      254.69521      89.157112      0.74428388     47609.635    
     33600   597.01784      17461.628     -1189.0893      1220.8658      2444.7698      16195.486      249.72891      80.279927      0.74464192     47586.744    
     33700   586.7338       17461.997     -1143.9848      1215.3675      2369.3457      16193.361      275.70819      92.673603      0.74589616     47506.725    
     33800   588.69064      17356.35      -1190.803       1209.9913      2320.6337      16269.601      203.92854      83.865348      0.74635202     47477.709    
     33900   592.24091      17242.868     -1167.3745      1207.2261      2401.5983      16151.867      145.23939      47.20836       0.74742917     47409.287    
     34000   588.87003      17217.529     -1161.2457      1189.0085      2279.5926      16126.154      257.07519      70.7504        0.74751904     47403.587    
     34100   596.77787      17262.31      -1185.4143      1194.347       2357.3272      16074.286      290.84454      74.770726      0.74713599     47427.891    
     34200   597.65492      17414.233     -1185.9964      1224.2551      2364.8281      16201.475      293.33855      58.867763      0.7472392      47421.34     
     34300   607.86581      17375.857     -1169.9192      1225.3842      2419.4954      16120.334      249.88973      70.819311      0.74875871     47325.104    
     34400   607.13678      17333.869     -1166.5333      1218.4688      2344.6505      16154.869      276.74         45.173639      0.7494511      47281.382    
     34500   589.28929      17299.327     -1188.0261      1229.9864      2340.5452      16129.774      258.10412      70.624697      0.74966796     47267.705    
     34600   578.02709      17388.221     -1179.5288      1218.8907      2317.0265      16199.046      310.30009      61.684612      0.74927829     47292.287    
     34700   589.66408      17394.936     -1205.8695      1212.5509      2415.4977      16214.171      217.99475      81.757018      0.74812387     47365.263    
     34800   587.71882      17449.875     -1178.0287      1210.1002      2449.4456      16056.022      378.68287      77.716112      0.74648755     47469.089    
     34900   591.07479      17425.999     -1197.5196      1232.5701      2341.9605      16341.39       173.04496      80.104426      0.74501202     47563.104    
     35000   592.70896      17415.552     -1145.6193      1227.3707      2428.4265      16103.094      283.56023      64.447841      0.74387709     47635.671    
     35100   589.78157      17432.063     -1203.1994      1220.6836      2428.7212      16138.123      326.67007      64.489586      0.74290559     47697.964    
     35200   598.94762      17303.415     -1138.5244      1209.4877      2275.6539      16179.041      232.70793      87.673178      0.74253654     47721.671    
     35300   589.79286      17301.637     -1188.3629      1203.565       2352.0622      16094.521      314.48767      70.029134      0.74249982     47724.031    
     35400   591.75806      17236.675     -1144.1682      1188.6979      2336.9275      16039.982      296.72317      63.22102       0.74370766     47646.523    
     35500   605.08298      17279.996     -1153.4643      1192.3481      2277.6786      16214.438      228.80224      66.243182      0.74513616     47555.18     
     35600   607.74307      17379.662     -1141.1285      1185.5757      2437.1723      16156.069      209.92572      77.748029      0.74621327     47486.537    
     35700   602.15122      17352.28      -1080.7832      1196.2516      2254.3019      16156.069      312.99165      58.110838      0.74687395     47444.531    
     35800   590.6726       17302.361     -1177.3246      1192.8028      2392.2519      16142.126      235.8025       60.853687      0.74705826     47432.826    
     35900   589.30604      17291.8       -1099.6205      1195.8693      2260.1298      16226.401      176.85175      75.286978      0.7484142      47346.889    
     36000   594.79702      17321.752     -1193.2139      1194.2539      2294.9481      16218.627      260.5141       91.018461      0.74936394     47286.882    
     36100   602.83601      17309.899     -1142.1989      1198.2957      2343.5776      16130.584      251.61076      71.025683      0.75086183     47192.549    
     36200   600.72888      17358.818     -1205.2588      1206.063       2381.3961      16234.586      224.46249      58.980711      0.75092005     47188.891    
     36300   608.22852      17194.599     -1191.0664      1194.9791      2292.3932      16104.632      271.42629      65.725904      0.7515126      47151.683    
     36400   587.87892      17242.415     -1166.7841      1201.477       2325.0644      16123.713      246.30575      57.098202      0.75173905     47137.479    
     36500   583.33439      17323.108     -1179.9278      1207.083       2356.5445      16117.557      302.94257      64.478635      0.75186035     47129.875    
     36600   602.74075      17316.823     -1186.802       1209.4328      2310.3971      16142.508      325.8534       57.135808      0.75200576     47120.761    
     36700   602.69378      17366.025     -1184.3858      1215.287       2412.1324      16130.283      259.36213      75.284596      0.75243382     47093.955    
     36800   608.49245      17271.484     -1184.1276      1206.6833      2312.3454      16132.007      274.9482       73.535988      0.7515896      47146.853    
     36900   603.59233      17268.554     -1169.7597      1214.653       2324.3378      16108.1        263.39995      69.669517      0.75025382     47230.795    
     37000   598.13291      17291.612     -1178.5994      1215.7108      2291.1331      16099.901      334.88607      71.175618      0.7482607      47356.602    
     37100   583.88424      17354.118     -1152.4645      1202.8271      2380.7688      16156.094      234.12749      74.42643       0.74686151     47445.321    
     37200   592.55081      17146.507     -1194.3469      1208.1196      2225.759       16085.048      305.03         57.847009      0.74446261     47598.205    
     37300   586.71788      17252.347     -1130.6568      1213.4002      2278.0415      16200.96       172.4337       59.225928      0.74205542     47752.611    
     37400   600.64144      17327.246     -1167.1895      1210.6664      2361.3179      16175.056      210.26177      77.248805      0.74000693     47884.8      
     37500   602.37933      17348.05      -1162.7865      1205.7189      2228.6251      16340.031      209.54834      69.228415      0.73870572     47969.148    
     37600   608.07353      17251.656     -1184.3488      1204.1692      2325.3886      16089.588      287.4787       68.254805      0.73848035     47983.788    
     37700   597.08783      17187.076     -1142.1239      1198.1524      2209.2056      16171.75       213.8971       76.127695      0.73991974     47890.443    
     37800   589.20671      17166.634     -1131.2204      1200.7533      2302.9187      16019.951      231.3272       82.979957      0.74136913     47796.816    
     37900   588.90663      17251.729     -1158.9512      1195.6564      2267.3677      16174.713      241.07622      71.821102      0.74279227     47705.241    
     38000   604.54383      17185.077     -1170.8872      1198.0205      2319.5603      16064.093      251.85239      61.602654      0.74410397     47621.146    
     38100   587.19541      17406.962     -1139.365       1201.3628      2344.1936      16201.158      271.28218      68.396845      0.74532533     47543.11     
     38200   602.61831      17315.982     -1139.1345      1207.7597      2312.5978      16181.113      212.62504      81.316692      0.74572839     47517.413    
     38300   607.95095      17435.094     -1181.7473      1195.0405      2394.0027      16257.322      244.0418       68.39423       0.74627119     47482.852    
     38400   620.47971      17381.512     -1196.8857      1208.4273      2357.5735      16231.204      257.40158      63.154554      0.74658201     47463.083    
     38500   600.16631      17351.74      -1211.0913      1213.117       2305.5187      16279.414      223.9436       79.434989      0.74597296     47501.834    
     38600   598.48925      17280.696     -1173.7232      1201.4667      2272.5584      16240.281      203.63607      74.703562      0.7450529      47560.494    
     38700   589.34927      17293.032     -1174.0268      1206.8247      2262.3188      16156.651      312.82156      66.169505      0.74280831     47704.211    
     38800   590.41847      17281.413     -1210.4294      1219.0434      2388.2235      16131.186      211.80392      81.24607       0.7402327      47870.195    
     38900   593.93857      17403.466     -1175.2604      1212.9347      2324.2295      16267.147      248.73418      66.936568      0.73782124     48026.652    
     39000   619.06753      17295.906     -1165.7463      1219.0207      2301.3958      16019.819      396.56192      65.106357      0.73570812     48164.596    
     39100   601.09735      17384.403     -1196.3725      1235.231       2293.1301      16147.925      386.99052      57.710119      0.73335399     48319.208    
     39200   589.12423      17383.743     -1146.7922      1228.502       2367.8307      16182.18       244.65768      46.828157      0.73286035     48351.755    
     39300   595.26919      17330.352     -1160.713       1234.0057      2309.7527      16145.595      253.74933      85.939132      0.73288279     48350.275    
     39400   587.48308      17414.69      -1138.4971      1227.981       2288.0342      16114.257      387.65846      75.544677      0.73346066     48312.181    
     39500   602.63265      17290.263     -1147.4188      1207.1786      2223.7793      16161.456      306.91329      76.241076      0.73377821     48291.274    
     39600   602.92973      17293.158     -1141.783       1211.6112      2372.1778      16018.922      309.55183      61.982842      0.73396518     48278.972    
     39700   601.42978      17280.813     -1155.779       1203.0802      2305.3918      16096.761      293.68223      74.648639      0.73397941     48278.035    
     39800   595.06006      17301.933     -1161.849       1203.6496      2384.2299      16165.879      174.14937      75.336693      0.73410311     48269.9      
     39900   586.73378      17316.195     -1147.5711      1201.0727      2320.4978      16107.939      305.35382      68.293394      0.73415462     48266.513    
     40000   592.04608      17345.972     -1192.4306      1198.2235      2334.3054      16119.244      346.67792      82.551926      0.73341088     48315.46     
     40100   606.76782      17371.566     -1153.337       1204.6196      2364.2534      16115.315      314.59209      67.275562      0.7325367      48373.118    
     40200   607.57765      17395.647     -1161.0995      1200.0956      2355.656       16169.568      327.39383      46.127739      0.72987462     48549.549    
     40300   588.98274      17400.149     -1147.6094      1213.8059      2336.3811      16149.528      303.56856      82.468462      0.7254339      48846.744    
     40400   594.64881      17199.042     -1102.1702      1199.5137      2263.0123      16054.049      268.19109      56.576247      0.72118352     49134.628    
     40500   588.94091      17310.66      -1134.3926      1191.2272      2327.2703      16191.023      205.16621      69.919314      0.71656341     49451.428    
     40600   594.94632      17399.159     -1104.6701      1187.8702      2362.3375      16104.495      319.62728      72.60942       0.71231687     49746.237    
     40700   598.47477      17438.196     -1053.6462      1185.1737      2534.1235      15974.615      263.93813      78.543289      0.70851703     50013.03     
     40800   599.4418       17435.805     -1094.5102      1212.1663      2375.1616      16175.44       231.55519      79.547655      0.70466523     50286.409    
     40900   590.36158      17378.52      -1060.1911      1196.7553      2344.9109      16096.182      267.85053      78.397516      0.70307946     50399.828    
     41000   580.01911      17346.691     -1069.145       1206.2957      2340.1826      16101.389      252.61435      58.149135      0.70268952     50427.797    
     41100   586.16002      17409.737     -1103.389       1210.404       2337.7353      16190.287      231.32235      82.626874      0.70283102     50417.644    
     41200   592.56407      17499.197     -1072.0859      1201.4312      2364.177       16246.381      224.21757      74.443344      0.70465454     50287.172    
     41300   601.97979      17449.852     -1100.9113      1212.4016      2427.3278      16026.419      349.65903      76.651115      0.70788432     50057.733    
     41400   593.36514      17496.302     -1112.0547      1218.526       2450.7501      16227.214      192.45112      60.410815      0.71197429     49770.173    
     41500   580.77177      17463.588     -1137.2006      1215.6686      2422.3032      16146.252      278.86181      78.59556       0.71664625     49445.712    
     41600   593.65096      17234.587     -1128.5879      1212.6397      2268.3503      16000.398      343.79638      77.783864      0.72167101     49101.438    
     41700   597.09517      17322.082     -1171.8925      1222.758       2310.6889      16167.01       264.54596      70.016784      0.7263927      48782.269    
     41800   607.53125      17421.058     -1136.0542      1202.2617      2363.4233      16169.286      285.23234      78.410815      0.73136556     48450.578    
     41900   589.41425      17570.568     -1173.5696      1208.0289      2472.9823      16281.163      249.63779      72.508691      0.73427834     48258.381    
     42000   598.96813      17351.221     -1126.0664      1208.1684      2325.4193      16157.468      251.07171      75.061885      0.73546565     48180.474    
     42100   593.18578      17286.431     -1134.4118      1217.3325      2333.5101      16131.325      202.96296      76.720753      0.73545196     48181.372    
     42200   595.22905      17274.341     -1172.9061      1228.1575      2329.7802      16119.775      227.27724      82.504343      0.73585754     48154.815    
     42300   585.16474      17432.311     -1123.5738      1228.0736      2373.2555      16176.984      237.13561      81.575479      0.73685021     48089.942    
     42400   603.21821      17298.631     -1150.8948      1234.8969      2315.5233      16115.469      251.24338      73.089614      0.73748113     48048.801    
     42500   591.41374      17400.087     -1154.0507      1230.882       2429.7864      16090.063      266.45959      76.852433      0.7378909      48022.118    
     42600   592.21419      17337.743     -1152.9346      1209.476       2344.8183      16158.816      258.07986      59.83749       0.73890832     47955.996    
     42700   585.94963      17263.828     -1170.7341      1196.9404      2322.7303      16161.744      223.96416      69.695886      0.74003377     47883.063    
     42800   577.53481      17179.036     -1146.382       1191.8283      2266.7581      16138.668      207.59363      61.607354      0.74195714     47758.937    
     42900   595.99209      17135.284     -1152.9147      1200.7726      2326.9472      16176.487      77.313231      49.792358      0.74438976     47602.863    
     43000   589.01615      17332.436     -1158.523       1192.2925      2402.966       16200.866      169.19819      68.982385      0.74687828     47444.256    
     43100   592.54235      17328.614     -1153.8103      1188.7444      2329.903       16142.996      300.37283      64.295818      0.74964926     47268.884    
     43200   588.89218      17381.673     -1159.1631      1195.6553      2342.7758      16274.253      197.00983      74.207839      0.75119173     47171.824    
     43300   594.41192      17355.08      -1180.8168      1203.3164      2401.3014      16177.063      232.87231      61.925911      0.75019777     47234.323    
     43400   590.12111      17378.485     -1157.4776      1196.8094      2405.9003      16198.493      202.50686      77.231615      0.74731842     47416.313    
     43500   598.61863      17233.501     -1175.0298      1191.6456      2298.9827      16194.736      194.66989      72.645287      0.74324029     47676.485    
     43600   583.02792      17295.827     -1167.4264      1206.7562      2413.0402      16140.34       181.46761      61.607941      0.73921135     47936.337    
     43700   581.64672      17303.554     -1126.112       1209.0725      2371.0185      16099.6        210.03135      79.437547      0.73447069     48245.743    
     43800   600.1998       17330.746     -1104.4333      1211.9422      2344.8549      16043.305      299.587        74.97528       0.72895708     48610.659    
     43900   593.3072       17459.451     -1150.6641      1217.767       2358.9546      16295.388      207.2855       68.208678      0.72387634     48951.847    
     44000   600.64104      17383.898     -1126.0322      1217.953       2425.4952      16057.881      284.52642      64.613584      0.72019743     49201.903    
     44100   588.92075      17417.959     -1083.419       1214.8057      2392.7532      16184.002      184.94844      66.374285      0.71666365     49444.512    
     44200   584.00609      17264.925     -1088.7382      1219.6309      2400.0812      16067.665      141.62486      65.823479      0.71354622     49660.531    
     44300   581.06051      17323.14      -1116.5826      1212.7287      2339.525       16190.877      175.54291      63.680434      0.71061055     49865.688    
     44400   600.15049      17309.262     -1124.3593      1210.3571      2345.5267      16048.826      308.15612      65.010683      0.70899985     49978.973    
     44500   593.87843      17411.423     -1099.5225      1202.656       2425.3733      16071.85       281.99576      68.316423      0.70887542     49987.745    
     44600   602.3317       17359.853     -1093.1637      1213.1188      2367.8247      16086.671      258.4963       66.122028      0.71018256     49895.74     
     44700   597.95954      17433.673     -1140.7737      1218.051       2402.961       16068.923      343.4477       79.834386      0.71238786     49741.28     
     44800   611.21734      17352.596     -1108.9705      1223.4364      2258.8094      16181.31       293.41274      45.446733      0.7161151      49482.386    
     44900   610.61156      17410.91      -1109.1792      1222.8533      2426.155       16026.78       318.6465       68.251833      0.72005008     49211.972    
     45000   607.47442      17372.584     -1122.5292      1208.6581      2398.0829      16228.205      138.23775      61.390278      0.72370602     48963.368    
     45100   603.26951      17218.826     -1140.3949      1218.1136      2259.1381      16171.676      185.70465      66.322616      0.72789712     48681.445    
     45200   600.08148      17209.355     -1127.266       1217.6677      2274.2013      15987.975      322.32683      76.050058      0.73187611     48416.779    
     45300   593.21436      17314.622     -1135.2993      1201.0749      2348.0571      16131.975      237.92829      72.341226      0.73634125     48123.182    
     45400   606.05604      17320.577     -1126.8292      1204.4931      2336.4554      16020.321      362.10149      65.591083      0.7402099      47871.67     
     45500   617.82963      17386.389     -1164.2793      1207.1067      2348.3928      16314.269      157.36837      67.831546      0.74278039     47706.004    
     45600   595.11449      17476.662     -1122.0808      1218.1205      2447.1297      16111.029      311.32954      52.362938      0.74362082     47652.087    
     45700   600.04324      17272.945     -1172.2054      1212.6562      2333.827       16101.962      270.72661      65.008543      0.7421755      47744.885    
     45800   594.01625      17278.494     -1167.1501      1225.6417      2281.0314      16179.166      232.7167       66.592763      0.74044753     47856.307    
     45900   590.47522      17295.964     -1141.2024      1219.1543      2357.6222      16118.696      228.67662      53.108635      0.73874221     47966.779    
     46000   595.8487       17294.109     -1172.3798      1219.3193      2356.0228      16156.011      213.35421      63.651282      0.7372411      48064.445    
     46100   602.52841      17399.333     -1113.6175      1216.8122      2371.2268      16144.841      250.32441      72.384706      0.73636236     48121.802    
     46200   614.65893      17359.672     -1115.5737      1201.9888      2399.3652      16092.025      245.73044      76.806884      0.73496729     48213.144    
     46300   591.54783      17461.542     -1118.5695      1221.7953      2408.1451      16142.784      252.01291      97.401949      0.73290128     48349.054    
     46400   594.67386      17334.465     -1107.9687      1229.6806      2292.507       16153.309      234.7398       75.042264      0.73129853     48455.019    
     46500   594.14261      17361.965     -1134.2152      1222.7603      2409.3735      16023.055      321.45969      62.707         0.72950055     48574.445    
     46600   603.98725      17312.269     -1164.5593      1219.5965      2322.887       16085.629      323.50356      68.966609      0.72744422     48711.754    
     46700   589.58563      17453.74      -1134.427       1205.3661      2351.5005      16186.858      298.46279      86.909844      0.72646754     48777.243    
     46800   596.48799      17335.606     -1137.9544      1198.1692      2302.5688      16050.501      388.30647      75.786053      0.72520195     48862.367    
     46900   598.57155      17186.586     -1171.1234      1218.5323      2326.8292      16086.049      218.10833      49.154032      0.72448052     48911.024    
     47000   585.28691      17301.824     -1140.5108      1227.7978      2330.8507      16044.761      314.02443      66.354504      0.72335426     48987.178    
     47100   603.7509       17333.175     -1115.0347      1219.3719      2369.7805      16151.369      160.17321      88.18547       0.72290153     49017.858    
     47200   593.79062      17485.978     -1115.1902      1211.0385      2328.2929      16213.702      321.4774       67.831875      0.72219421     49065.865    
     47300   596.60329      17414.043     -1169.1957      1207.9047      2307.2792      16130.868      391.413        85.490211      0.72130619     49126.272    
     47400   589.91035      17384.751     -1149.3438      1220.415       2303.0967      16155.676      320.08118      76.208761      0.7198463      49225.903    
     47500   586.09259      17337.402     -1119.2349      1214.8928      2362.1279      16015.412      323.52597      83.130739      0.71862994     49309.223    
     47600   586.97107      17254.401     -1172.7569      1219.0991      2332.2626      16137.093      198.58444      78.776109      0.71786412     49361.826    
     47700   591.83971      17337.618     -1135.9693      1217.0045      2487.6396      16042.686      210.71411      54.378637      0.71854516     49315.041    
     47800   597.40997      17433.321     -1140.8375      1225.3753      2385.5043      16227.168      193.94452      80.809704      0.72028649     49195.819    
     47900   600.61152      17419.482     -1107.6053      1211.7158      2377.4311      16126.047      281.64912      69.928217      0.72229768     49058.837    
     48000   595.61151      17333.744     -1168.0755      1214.5151      2385.3336      16144.145      239.33747      59.960097      0.72397733     48945.019    
     48100   597.74068      17184.441     -1132.6878      1201.2334      2285.4189      16002.303      301.21265      66.213477      0.72477876     48890.897    
     48200   591.63543      17270.82      -1156.8191      1199.6692      2252.4047      16123.034      320.26663      70.881572      0.72408569     48937.694    
     48300   598.14054      17298.052     -1133.3594      1213.7782      2364.1667      16072.967      253.75716      64.873831      0.72302525     49009.47     
     48400   602.78369      17354.166     -1122.7273      1220.3089      2386.129       16115.371      235.73596      57.156308      0.72093295     49151.706    
     48500   596.52358      17425.125     -1133.9115      1212.5092      2412.9296      16248.017      150.8092       71.483002      0.71849593     49318.42     
     48600   588.74545      17367.216     -1157.2881      1193.3553      2462.1243      16201.34       143.04648      60.473664      0.71617777     49478.056    
     48700   571.802        17324.008     -1155.8677      1213.8647      2390.5071      16100.902      242.20747      71.4227        0.71422375     49613.422    
     48800   595.18725      17223.351     -1128.4247      1207.9868      2280.8901      16075.922      253.60158      72.206107      0.71396603     49631.331    
     48900   591.38632      17396.999     -1111.8919      1217.8294      2427.1784      16128.731      207.72934      65.997913      0.71451304     49593.334    
     49000   584.88998      17514.668     -1127.6783      1204.3263      2373.5147      16253.62       280.34072      69.21373       0.71588694     49498.157    
     49100   598.88719      17436.294     -1112.2279      1214.9346      2473.9416      16101.425      224.48011      73.514626      0.71676144     49437.765    
     49200   609.1593       17308.118     -1150.8472      1208.471       2384.6867      16117.612      220.13246      68.054866      0.71708099     49415.735    
     49300   582.89706      17364.392     -1117.0168      1213.9151      2327.0335      16153.189      262.01728      63.306208      0.71767045     49375.147    
     49400   593.44499      17246.546     -1199.634       1216.2917      2336.9053      16039.76       335.45352      56.048104      0.71720522     49407.176    
     49500   601.41343      17324.735     -1166.0163      1199.2501      2407.3199      16125.156      250.97402      48.628929      0.71693976     49425.469    
     49600   602.31494      17401.171     -1116.6207      1196.1211      2446.1427      16042.813      301.88744      72.993157      0.71600322     49490.118    
     49700   596.51153      17430.468     -1159.5094      1205.6515      2305.5833      16220.761      335.12779      65.237856      0.71523359     49543.372    
     49800   594.14402      17426.043     -1161.1602      1211.1926      2369.7155      16239.957      234.04097      71.270873      0.71463337     49584.984    
     49900   600.3807       17364.335     -1121.6234      1210.5382      2335.1871      16159.833      247.41233      71.300934      0.71537727     49533.422    
     50000   597.93681      17381.66      -1153.9216      1198.1331      2351.6982      16267.001      187.03248      70.739286      0.7164104      49461.99     
     50100   602.37854      17311.749     -1166.9786      1205.4866      2392.6202      16081.852      270.76145      66.595376      0.71823799     49336.131    
     50200   580.93044      17349.094     -1121.4852      1202.1418      2365.633       16041.887      325.13656      74.974421      0.72121841     49132.251    
     50300   579.00259      17365.499     -1145.8138      1187.3338      2406.408       16186.889      207.45567      63.064136      0.7250321      48873.814    
     50400   592.976        17386.845     -1169.235       1194.2655      2403.7313      16097.951      336.47906      65.282609      0.72835936     48650.551    
     50500   601.8159       17396.359     -1186.7112      1207.4459      2379.9886      16244.599      230.49378      63.339529      0.73168466     48429.448    
     50600   606.3657       17287.892     -1182.9862      1194.4807      2321.3798      16056.068      385.14562      55.138178      0.73488182     48218.752    
     50700   593.34668      17221.669     -1173.5212      1189.8546      2353.3926      16053.184      269.67657      69.86034       0.73765411     48037.533    
     50800   584.96771      17254.277     -1188.854       1189.1725      2386.7604      16081.586      274.56655      51.374353      0.73978384     47899.241    
     50900   628.81471      17290.108     -1185.1654      1189.3559      2403.4744      16052.841      311.83759      56.901711      0.74149768     47788.53     
     51000   603.46413      17423.41      -1178.8731      1194.0767      2398.9823      16327.104      168.34242      47.966291      0.74380694     47640.163    
     51100   610.62601      17213.099     -1188.3086      1203.6772      2366.9001      16094          216.92941      56.635608      0.74577034     47514.74     
     51200   593.59827      17285.851     -1178.6717      1187.6805      2367.9616      16273.088      114.11472      55.607892      0.74803        47371.207    
     51300   597.2357       17202.17      -1163.201       1196.2088      2469.2807      16063.366      126.17761      47.99021       0.75024018     47231.653    
     51400   604.5563       17141.106     -1242.709       1191.5966      2336.6808      16140.923      193.10948      59.858833      0.75197063     47122.963    
     51500   596.17583      17294.927     -1218.1878      1194.1974      2364.7033      16184.186      240.42944      69.497353      0.75570377     46890.178    
     51600   599.68935      17357.032     -1191.9915      1184.9421      2395.1919      16108.931      328.68088      70.60868       0.75914276     46677.761    
     51700   596.514        17349.162     -1202.349       1178.1899      2375.2225      16185.8        281.27251      68.651442      0.76145659     46535.922    
     51800   599.45452      17142.867     -1244.1517      1173.9507      2334.6915      16159.284      196.02168      61.263475      0.76249678     46472.438    
     51900   576.66896      17290.696     -1196.9044      1184.0631      2425.9945      16155.211      219.32442      42.993353      0.76377381     46394.736    
     52000   583.17607      17314.541     -1197.8172      1194.6325      2446.875       16141.708      197.25315      71.737538      0.76300138     46441.704    
     52100   607.58192      17180.578     -1233.3549      1198.2741      2339.5659      16139.726      210.65498      64.714134      0.76013863     46616.607    
     52200   605.22236      17198.629     -1211.4805      1207.0761      2388.599       16121.062      172.41134      58.033963      0.7565487      46837.81     
     52300   586.46402      17335.793     -1195.4826      1206.4597      2423.2354      16084.191      276.61737      76.953957      0.75217307     47110.28     
     52400   599.22284      17221.803     -1188.6661      1205.0138      2297.7738      16188.874      184.26262      71.757698      0.7476072      47397.997    
     52500   592.81796      17306.136     -1159.4184      1195.4691      2310.2552      16072.457      342.20666      85.985035      0.74331842     47671.473    
     52600   598.7608       17445.58      -1153.7261      1192.9144      2406.5422      16087.395      376.34363      78.432165      0.73874517     47966.587    
     52700   607.50801      17450.833     -1204.9674      1189.4554      2396.0239      16174.786      351.17893      84.353124      0.73430688     48256.506    
     52800   599.32167      17384.669     -1209.4966      1188.0908      2351.6674      16166.393      342.27532      88.459962      0.73126979     48456.923    
     52900   594.46672      17315.735     -1155.1754      1182.773       2306.8423      16167.367      304.06163      52.682482      0.7299483      48544.649    
     53000   585.85977      17400.826     -1130.5451      1184.0196      2375.8214      16089.04       330.72141      96.823491      0.72983234     48552.362    
     53100   589.53342      17458.562     -1166.4785      1189.3471      2398.6327      16235.78       275.86771      71.504484      0.73083181     48485.963    
     53200   596.30844      17479.238     -1190.6469      1180.9067      2508.9583      16204.939      240.7589       79.966213      0.73329567     48323.051    
     53300   592.58421      17393.48      -1125.9364      1176.8927      2373.3451      16134.332      315.22375      64.745516      0.7366432      48103.456    
     53400   592.22897      17199.32      -1160.7646      1184.1356      2300.7193      16041.636      299.51914      77.530113      0.74059332     47846.886    
     53500   584.8132       17299.754     -1178.0609      1185.0863      2389.5633      16234.147      142.58943      72.205614      0.74386892     47636.194    
     53600   590.05453      17391.518     -1176.3354      1186.4009      2412.3884      16220.978      235.70439      58.002773      0.74805823     47369.419    
     53700   596.47196      17414.422     -1201.4574      1217.614       2338.1665      16214.917      315.48952      72.320015      0.7519022      47127.252    
     53800   733.26858      17876.851     -1200.5102      1225.4886      2793.8182      16299.141      229.15865      72.192829      0.75551512     46901.886    
     53900   661.93683      17857.755     -1193.1318      1215.4327      2541.2003      16567.589      178.51236      90.22428       0.75931238     46667.334    
     54000   641.99814      17569.587     -1221.3178      1219.5725      2564.1582      16324.122      163.54969      62.323833      0.76445177     46353.59     
     54100   628.14923      17235.236     -1249.4684      1201.576       2317.7958      16193.337      243.61351      70.780037      0.7695092      46048.941    
     54200   600.79082      17225.24      -1261.7696      1190.2879      2485.0346      16081.102      209.82474      65.790072      0.7751299      45715.027    
     54300   603.27439      16993.576     -1256.9768      1189.3365      2326.6325      16093.399      125.70791      60.909301      0.78154966     45339.517    
     54400   562.34209      17179.893     -1197.7757      1193.2928      2356.233       16134.038      181.72352      57.639835      0.7870669      45021.693    
     54500   611.07865      16811.066     -1285.0269      1194.1723      2198.9914      16048.224      143.10618      54.928195      0.79159222     44764.315    
     54600   618.22765      17002.462     -1297.9399      1187.0251      2399.0151      16078.907      120.49443      52.759806      0.79558435     44539.695    
     54700   615.35192      17130.933     -1250.2353      1199.0668      2305.8307      16115.102      243.90876      55.090104      0.79862291     44370.232    
     54800   584.19659      17356.976     -1260.3687      1206.4468      2339.4939      16295.3        231.41987      82.35938       0.801133       44231.213    
     54900   617.07057      16863.461     -1332.8041      1198.7641      2249.2315      16002.726      226.2955       56.858254     